7
Lattice="529.1772105638412 0.0 0.0 0.0 529.1772105638412 0.0 0.0 0.0 529.1772105638412" Properties=species:S:1:pos:R:3:forces_component_raw:R:3 ipi_comment="Step:           0  Bead:       0 forces_component_raw{ase}  cell{ase}" pbc="T T T"
O        0.00000000       0.00000000       0.00000000      -1.23397017      -1.35501290      -1.11796856
H        0.00000000       0.00000000       0.00000000       1.99164093       1.67346955       1.48254466
H        0.00000000       0.00000000       0.00000000      -0.69451702       0.55638236       0.36447924
O        0.00000000       0.00000000       0.00000000      -0.00401260      -0.22642642       0.10538983
H        0.00000000       0.00000000       0.00000000      -0.12128641      -0.50687498      -0.53293401
H        0.00000000       0.00000000       0.00000000       0.44134873       0.07231736      -0.17605329
H        0.00000000       0.00000000       0.00000000      -0.37920296      -0.21385491      -0.12545803
7
Lattice="529.1772105638412 0.0 0.0 0.0 529.1772105638412 0.0 0.0 0.0 529.1772105638412" Properties=species:S:1:pos:R:3:forces_component_raw:R:3 ipi_comment="Step:          20  Bead:       0 forces_component_raw{ase}  cell{ase}" pbc="T T T"
O        0.00000000       0.00000000       0.00000000       0.65461594      -1.04850817      -1.72483659
H        0.00000000       0.00000000       0.00000000       1.00210738       0.41791177       0.53516072
H        0.00000000       0.00000000       0.00000000      -1.82101763       0.44160834       0.82152480
O        0.00000000       0.00000000       0.00000000      -0.66417086       0.25918198       0.66953409
H        0.00000000       0.00000000       0.00000000       0.65127576       0.07537155       0.27403399
H        0.00000000       0.00000000       0.00000000       0.70640725       0.27603564      -0.35147744
H        0.00000000       0.00000000       0.00000000      -0.52921766      -0.42160100      -0.22393963
7
Lattice="529.1772105638412 0.0 0.0 0.0 529.1772105638412 0.0 0.0 0.0 529.1772105638412" Properties=species:S:1:pos:R:3:forces_component_raw:R:3 ipi_comment="Step:          40  Bead:       0 forces_component_raw{ase}  cell{ase}" pbc="T T T"
O        0.00000000       0.00000000       0.00000000       1.09194458      -0.04729116      -0.03769326
H        0.00000000       0.00000000       0.00000000      -0.23141462      -0.12655354      -0.30240357
H        0.00000000       0.00000000       0.00000000      -0.51804936      -0.11854826       0.12156205
O        0.00000000       0.00000000       0.00000000      -0.04430938       0.34870237       0.51911348
H        0.00000000       0.00000000       0.00000000      -0.65777791       0.15891922       0.17485338
H        0.00000000       0.00000000       0.00000000       0.13734353      -0.30104542      -0.38193172
H        0.00000000       0.00000000       0.00000000       0.22226307       0.08581680      -0.09350038
7
Lattice="529.1772105638412 0.0 0.0 0.0 529.1772105638412 0.0 0.0 0.0 529.1772105638412" Properties=species:S:1:pos:R:3:forces_component_raw:R:3 ipi_comment="Step:          60  Bead:       0 forces_component_raw{ase}  cell{ase}" pbc="T T T"
O        0.00000000       0.00000000       0.00000000       0.00920737       0.71790749       1.87431336
H        0.00000000       0.00000000       0.00000000      -1.23364508      -0.83641213      -1.42382002
H        0.00000000       0.00000000       0.00000000       0.66680330       0.47239542      -0.10862881
O        0.00000000       0.00000000       0.00000000      -1.30425334      -1.10858393       0.43781692
H        0.00000000       0.00000000       0.00000000       0.63913256      -0.43269131      -0.50880885
H        0.00000000       0.00000000       0.00000000       0.65459782       0.15768170      -0.45757228
H        0.00000000       0.00000000       0.00000000       0.56815744       1.02970267       0.18669976
7
Lattice="529.1772105638412 0.0 0.0 0.0 529.1772105638412 0.0 0.0 0.0 529.1772105638412" Properties=species:S:1:pos:R:3:forces_component_raw:R:3 ipi_comment="Step:          80  Bead:       0 forces_component_raw{ase}  cell{ase}" pbc="T T T"
O        0.00000000       0.00000000       0.00000000       0.55737943      -0.20605892       2.01464892
H        0.00000000       0.00000000       0.00000000      -1.61941386      -0.61238867      -1.97435928
H        0.00000000       0.00000000       0.00000000       1.37666703       0.51818562      -0.60225427
O        0.00000000       0.00000000       0.00000000      -0.26885602      -1.00876677      -0.14640862
H        0.00000000       0.00000000       0.00000000      -0.51768661      -0.11351604       0.63773650
H        0.00000000       0.00000000       0.00000000      -0.14630419       0.04109314       0.11846268
H        0.00000000       0.00000000       0.00000000       0.61821419       1.38145161      -0.04782569
7
Lattice="529.1772105638412 0.0 0.0 0.0 529.1772105638412 0.0 0.0 0.0 529.1772105638412" Properties=species:S:1:pos:R:3:forces_component_raw:R:3 ipi_comment="Step:         100  Bead:       0 forces_component_raw{ase}  cell{ase}" pbc="T T T"
O        0.00000000       0.00000000       0.00000000       0.48353481      -0.48555508       2.74008370
H        0.00000000       0.00000000       0.00000000      -1.85387421       0.01463972      -1.88134981
H        0.00000000       0.00000000       0.00000000       1.40780068       0.49513057      -0.62868595
O        0.00000000       0.00000000       0.00000000      -0.33697957      -1.74334419      -0.12137783
H        0.00000000       0.00000000       0.00000000      -0.10053679       0.63987279       0.11271109
H        0.00000000       0.00000000       0.00000000      -0.72153711      -0.40745813       0.66378862
H        0.00000000       0.00000000       0.00000000       1.12159240       1.48671425      -0.88516998
7
Lattice="529.1772105638412 0.0 0.0 0.0 529.1772105638412 0.0 0.0 0.0 529.1772105638412" Properties=species:S:1:pos:R:3:forces_component_raw:R:3 ipi_comment="Step:         120  Bead:       0 forces_component_raw{ase}  cell{ase}" pbc="T T T"
O        0.00000000       0.00000000       0.00000000       0.20106083       0.75191587       2.18675185
H        0.00000000       0.00000000       0.00000000      -1.80102337       0.06325404      -1.38532055
H        0.00000000       0.00000000       0.00000000       1.44554973      -0.11515798      -0.38470867
O        0.00000000       0.00000000       0.00000000       1.46996975      -2.30439950      -1.71749449
H        0.00000000       0.00000000       0.00000000       0.11736858      -0.57120723      -0.11845040
H        0.00000000       0.00000000       0.00000000      -1.10215307       0.52906954       0.99032903
H        0.00000000       0.00000000       0.00000000      -0.33077240       1.64652527       0.42889288
7
Lattice="529.1772105638412 0.0 0.0 0.0 529.1772105638412 0.0 0.0 0.0 529.1772105638412" Properties=species:S:1:pos:R:3:forces_component_raw:R:3 ipi_comment="Step:         140  Bead:       0 forces_component_raw{ase}  cell{ase}" pbc="T T T"
O        0.00000000       0.00000000       0.00000000      -0.91853607      -0.24904183       0.52010185
H        0.00000000       0.00000000       0.00000000      -0.53598791       0.09084506      -0.42973879
H        0.00000000       0.00000000       0.00000000       1.52239514      -0.49159572      -0.39854595
O        0.00000000       0.00000000       0.00000000      -0.42145443       1.43686724       0.53482413
H        0.00000000       0.00000000       0.00000000       0.25641805       0.08719993       0.00125587
H        0.00000000       0.00000000       0.00000000      -0.33519661      -1.06558824       0.15570107
H        0.00000000       0.00000000       0.00000000       0.43236196       0.19131333      -0.38359821
7
Lattice="529.1772105638412 0.0 0.0 0.0 529.1772105638412 0.0 0.0 0.0 529.1772105638412" Properties=species:S:1:pos:R:3:forces_component_raw:R:3 ipi_comment="Step:         160  Bead:       0 forces_component_raw{ase}  cell{ase}" pbc="T T T"
O        0.00000000       0.00000000       0.00000000      -0.93369222      -0.26841793      -0.68313462
H        0.00000000       0.00000000       0.00000000       0.43906877       0.15123582       0.90573049
H        0.00000000       0.00000000       0.00000000       0.78907603      -0.54927105      -0.28317973
O        0.00000000       0.00000000       0.00000000       0.41257411       0.40456855      -0.80043304
H        0.00000000       0.00000000       0.00000000      -0.36132422       0.51962781       0.23796904
H        0.00000000       0.00000000       0.00000000       0.15092012       0.62409502      -0.11718839
H        0.00000000       0.00000000       0.00000000      -0.49662250      -0.88183826       0.74023628
7
Lattice="529.1772105638412 0.0 0.0 0.0 529.1772105638412 0.0 0.0 0.0 529.1772105638412" Properties=species:S:1:pos:R:3:forces_component_raw:R:3 ipi_comment="Step:         180  Bead:       0 forces_component_raw{ase}  cell{ase}" pbc="T T T"
O        0.00000000       0.00000000       0.00000000      -0.60435802      -0.25362575      -2.38752151
H        0.00000000       0.00000000       0.00000000       0.38454008       0.00010224       2.17531443
H        0.00000000       0.00000000       0.00000000      -0.12100270       0.10567910       0.04905432
O        0.00000000       0.00000000       0.00000000      -2.45110274       0.84425414       2.27022338
H        0.00000000       0.00000000       0.00000000       0.64862991      -0.12405391      -0.02812785
H        0.00000000       0.00000000       0.00000000       1.66194892       0.14881837      -1.73324514
H        0.00000000       0.00000000       0.00000000       0.48134470      -0.72117430      -0.34569714
7
Lattice="529.1772105638412 0.0 0.0 0.0 529.1772105638412 0.0 0.0 0.0 529.1772105638412" Properties=species:S:1:pos:R:3:forces_component_raw:R:3 ipi_comment="Step:         200  Bead:       0 forces_component_raw{ase}  cell{ase}" pbc="T T T"
O        0.00000000       0.00000000       0.00000000       0.68224824       0.17187762      -2.02251387
H        0.00000000       0.00000000       0.00000000      -0.32208479       0.04274863       2.44394064
H        0.00000000       0.00000000       0.00000000      -0.40159851       0.24826935      -0.06914538
O        0.00000000       0.00000000       0.00000000      -0.58543551      -0.98314488       0.00236672
H        0.00000000       0.00000000       0.00000000      -0.24419288       0.32127979       0.24809539
H        0.00000000       0.00000000       0.00000000       1.33564937       1.03807640      -1.58536744
H        0.00000000       0.00000000       0.00000000      -0.46458620      -0.83910662       0.98262382
7
Lattice="529.1772105638412 0.0 0.0 0.0 529.1772105638412 0.0 0.0 0.0 529.1772105638412" Properties=species:S:1:pos:R:3:forces_component_raw:R:3 ipi_comment="Step:         220  Bead:       0 forces_component_raw{ase}  cell{ase}" pbc="T T T"
O        0.00000000       0.00000000       0.00000000       1.32376445       0.36514396      -0.73843652
H        0.00000000       0.00000000       0.00000000      -0.50740385      -0.43497658       1.84640730
H        0.00000000       0.00000000       0.00000000      -0.72670913       0.68800724      -0.83491695
O        0.00000000       0.00000000       0.00000000      -0.88479799       1.44627762       0.26239714
H        0.00000000       0.00000000       0.00000000      -0.60700750      -0.18118995      -0.21847701
H        0.00000000       0.00000000       0.00000000       0.78927416      -0.59301108      -0.31923133
H        0.00000000       0.00000000       0.00000000       0.61287987      -1.29025114       0.00225729
7
Lattice="529.1772105638412 0.0 0.0 0.0 529.1772105638412 0.0 0.0 0.0 529.1772105638412" Properties=species:S:1:pos:R:3:forces_component_raw:R:3 ipi_comment="Step:         240  Bead:       0 forces_component_raw{ase}  cell{ase}" pbc="T T T"
O        0.00000000       0.00000000       0.00000000       1.10641241      -0.71013779      -0.32860386
H        0.00000000       0.00000000       0.00000000      -0.66503102      -0.06148529       0.92755175
H        0.00000000       0.00000000       0.00000000      -0.92806912       1.01157224      -0.58331144
O        0.00000000       0.00000000       0.00000000       0.61721718      -0.15668833      -0.56216592
H        0.00000000       0.00000000       0.00000000       0.59368068       0.01677755      -0.04976973
H        0.00000000       0.00000000       0.00000000      -0.28956533       0.78431666      -0.18303967
H        0.00000000       0.00000000       0.00000000      -0.43464488      -0.88435483       0.77933884
7
Lattice="529.1772105638412 0.0 0.0 0.0 529.1772105638412 0.0 0.0 0.0 529.1772105638412" Properties=species:S:1:pos:R:3:forces_component_raw:R:3 ipi_comment="Step:         260  Bead:       0 forces_component_raw{ase}  cell{ase}" pbc="T T T"
O        0.00000000       0.00000000       0.00000000       0.49258453      -1.30109859       1.07362366
H        0.00000000       0.00000000       0.00000000       0.36682823      -0.10732347       0.08664989
H        0.00000000       0.00000000       0.00000000      -0.51042408       1.04748249      -1.19079972
O        0.00000000       0.00000000       0.00000000       0.25242916       2.49986506      -0.36612058
H        0.00000000       0.00000000       0.00000000      -0.57696974      -0.31544578      -0.29723030
H        0.00000000       0.00000000       0.00000000      -0.63295132      -1.04152966       0.53232741
H        0.00000000       0.00000000       0.00000000       0.60850316      -0.78194982       0.16154960
7
Lattice="529.1772105638412 0.0 0.0 0.0 529.1772105638412 0.0 0.0 0.0 529.1772105638412" Properties=species:S:1:pos:R:3:forces_component_raw:R:3 ipi_comment="Step:         280  Bead:       0 forces_component_raw{ase}  cell{ase}" pbc="T T T"
O        0.00000000       0.00000000       0.00000000      -0.36080161      -1.60374344       0.87316776
H        0.00000000       0.00000000       0.00000000       0.71403706       0.71048755      -1.23565734
H        0.00000000       0.00000000       0.00000000      -0.27350974       0.16975272      -0.04581228
O        0.00000000       0.00000000       0.00000000       0.90255118      -1.06335175      -0.48669499
H        0.00000000       0.00000000       0.00000000       0.35011166       0.37890747       0.44709027
H        0.00000000       0.00000000       0.00000000      -0.64173496       0.75168181       0.19121799
H        0.00000000       0.00000000       0.00000000      -0.69065368       0.65626544       0.25668860
7
Lattice="529.1772105638412 0.0 0.0 0.0 529.1772105638412 0.0 0.0 0.0 529.1772105638412" Properties=species:S:1:pos:R:3:forces_component_raw:R:3 ipi_comment="Step:         300  Bead:       0 forces_component_raw{ase}  cell{ase}" pbc="T T T"
O        0.00000000       0.00000000       0.00000000      -0.76476264       0.71771562       1.03893769
H        0.00000000       0.00000000       0.00000000       0.79622597      -0.27021807      -1.53959847
H        0.00000000       0.00000000       0.00000000       0.18087733      -0.66164994       0.13503832
O        0.00000000       0.00000000       0.00000000      -0.85458696       0.43279106       0.89855010
H        0.00000000       0.00000000       0.00000000      -0.05652584      -0.47483048       0.01945899
H        0.00000000       0.00000000       0.00000000      -0.01471794      -0.74680954       0.26542470
H        0.00000000       0.00000000       0.00000000       0.71349007       1.00300098      -0.81781155
7
Lattice="529.1772105638412 0.0 0.0 0.0 529.1772105638412 0.0 0.0 0.0 529.1772105638412" Properties=species:S:1:pos:R:3:forces_component_raw:R:3 ipi_comment="Step:         320  Bead:       0 forces_component_raw{ase}  cell{ase}" pbc="T T T"
O        0.00000000       0.00000000       0.00000000      -0.18308687       0.71806252       0.23923634
H        0.00000000       0.00000000       0.00000000       0.36434689       0.31808516      -1.17723716
H        0.00000000       0.00000000       0.00000000      -0.20043884      -1.07226587       0.98918802
O        0.00000000       0.00000000       0.00000000       0.42390817      -2.73115922       1.07369900
H        0.00000000       0.00000000       0.00000000       0.05765578       0.36466697      -0.06183246
H        0.00000000       0.00000000       0.00000000       0.35893154       0.85425699      -0.38456974
H        0.00000000       0.00000000       0.00000000      -0.82131666       1.54835332      -0.67848420
7
Lattice="529.1772105638412 0.0 0.0 0.0 529.1772105638412 0.0 0.0 0.0 529.1772105638412" Properties=species:S:1:pos:R:3:forces_component_raw:R:3 ipi_comment="Step:         340  Bead:       0 forces_component_raw{ase}  cell{ase}" pbc="T T T"
O        0.00000000       0.00000000       0.00000000       0.30143142       2.78068662      -0.81859422
H        0.00000000       0.00000000       0.00000000      -0.15255564      -0.37988585       0.74110401
H        0.00000000       0.00000000       0.00000000      -0.42968184      -1.69897962       0.38964915
O        0.00000000       0.00000000       0.00000000      -1.50843001      -0.74933565       0.62290633
H        0.00000000       0.00000000       0.00000000      -0.06624025      -0.32100934      -0.07083151
H        0.00000000       0.00000000       0.00000000       0.91034895      -0.72496760      -0.30954850
H        0.00000000       0.00000000       0.00000000       0.94512725       1.09349168      -0.55468536
7
Lattice="529.1772105638412 0.0 0.0 0.0 529.1772105638412 0.0 0.0 0.0 529.1772105638412" Properties=species:S:1:pos:R:3:forces_component_raw:R:3 ipi_comment="Step:         360  Bead:       0 forces_component_raw{ase}  cell{ase}" pbc="T T T"
O        0.00000000       0.00000000       0.00000000       0.81657219       0.29466152      -2.04437256
H        0.00000000       0.00000000       0.00000000      -0.13541624       0.07197747       1.83371282
H        0.00000000       0.00000000       0.00000000      -0.58703166      -0.56103802       0.36267153
O        0.00000000       0.00000000       0.00000000       0.09593543      -0.89936900      -0.40911126
H        0.00000000       0.00000000       0.00000000      -0.06917977       0.52936405      -0.17896661
H        0.00000000       0.00000000       0.00000000       0.22201377       0.43148220       0.13672501
H        0.00000000       0.00000000       0.00000000      -0.34289354       0.13292170       0.29934064
7
Lattice="529.1772105638412 0.0 0.0 0.0 529.1772105638412 0.0 0.0 0.0 529.1772105638412" Properties=species:S:1:pos:R:3:forces_component_raw:R:3 ipi_comment="Step:         380  Bead:       0 forces_component_raw{ase}  cell{ase}" pbc="T T T"
O        0.00000000       0.00000000       0.00000000       0.37875050       0.40678287      -1.85542918
H        0.00000000       0.00000000       0.00000000       0.02517532      -0.41405803       2.16508794
H        0.00000000       0.00000000       0.00000000      -0.27430362       0.22513336      -0.18691123
O        0.00000000       0.00000000       0.00000000      -0.12552005       1.20974660       0.76947475
H        0.00000000       0.00000000       0.00000000       0.03805929      -0.54150158      -0.47073156
H        0.00000000       0.00000000       0.00000000       0.03273427      -0.31262785      -0.16108245
H        0.00000000       0.00000000       0.00000000      -0.07489574      -0.57347536      -0.26040861
7
Lattice="529.1772105638412 0.0 0.0 0.0 529.1772105638412 0.0 0.0 0.0 529.1772105638412" Properties=species:S:1:pos:R:3:forces_component_raw:R:3 ipi_comment="Step:         400  Bead:       0 forces_component_raw{ase}  cell{ase}" pbc="T T T"
O        0.00000000       0.00000000       0.00000000      -0.76778162      -2.39726306      -2.84314919
H        0.00000000       0.00000000       0.00000000       0.51281607      -0.26525611       1.73332811
H        0.00000000       0.00000000       0.00000000       0.69141936       1.38280797      -0.09281239
O        0.00000000       0.00000000       0.00000000       0.10961437       1.99750376       1.14042807
H        0.00000000       0.00000000       0.00000000       0.21713661       0.37000600       0.66697192
H        0.00000000       0.00000000       0.00000000       0.45796692       0.23808980      -0.17999664
H        0.00000000       0.00000000       0.00000000      -1.22117186      -1.32588828      -0.42476970
7
Lattice="529.1772105638412 0.0 0.0 0.0 529.1772105638412 0.0 0.0 0.0 529.1772105638412" Properties=species:S:1:pos:R:3:forces_component_raw:R:3 ipi_comment="Step:         420  Bead:       0 forces_component_raw{ase}  cell{ase}" pbc="T T T"
O        0.00000000       0.00000000       0.00000000      -0.23463434      -2.19352937      -0.38599762
H        0.00000000       0.00000000       0.00000000      -0.03236115      -0.40736598       0.61739069
H        0.00000000       0.00000000       0.00000000       0.52504814       2.51533342      -0.29928872
O        0.00000000       0.00000000       0.00000000       1.11040640       2.00875354       1.42497838
H        0.00000000       0.00000000       0.00000000      -0.15636674      -0.57563287      -0.16164202
H        0.00000000       0.00000000       0.00000000       0.63857108      -0.01570895      -0.26337206
H        0.00000000       0.00000000       0.00000000      -1.85066355      -1.33184994      -0.93206865
7
Lattice="529.1772105638412 0.0 0.0 0.0 529.1772105638412 0.0 0.0 0.0 529.1772105638412" Properties=species:S:1:pos:R:3:forces_component_raw:R:3 ipi_comment="Step:         440  Bead:       0 forces_component_raw{ase}  cell{ase}" pbc="T T T"
O        0.00000000       0.00000000       0.00000000      -0.79820711      -2.04763222       0.43312603
H        0.00000000       0.00000000       0.00000000      -0.05686998       0.25133324       0.32233095
H        0.00000000       0.00000000       0.00000000       0.56918574       1.95616210      -0.10381226
O        0.00000000       0.00000000       0.00000000       0.36798835       1.14400375       1.31562054
H        0.00000000       0.00000000       0.00000000       0.49732098      -0.39882612      -0.66945261
H        0.00000000       0.00000000       0.00000000       0.92493093      -0.03577247      -0.32838368
H        0.00000000       0.00000000       0.00000000      -1.50434888      -0.86926854      -0.96942902
7
Lattice="529.1772105638412 0.0 0.0 0.0 529.1772105638412 0.0 0.0 0.0 529.1772105638412" Properties=species:S:1:pos:R:3:forces_component_raw:R:3 ipi_comment="Step:         460  Bead:       0 forces_component_raw{ase}  cell{ase}" pbc="T T T"
O        0.00000000       0.00000000       0.00000000      -0.13899936      -0.36196101       0.68426925
H        0.00000000       0.00000000       0.00000000      -0.02583198       0.02900796      -0.44367346
H        0.00000000       0.00000000       0.00000000       0.14567669       0.65719009      -0.09217259
O        0.00000000       0.00000000       0.00000000      -0.49583608      -1.06450892      -0.02087864
H        0.00000000       0.00000000       0.00000000      -0.47065213       0.87017745       0.67611998
H        0.00000000       0.00000000       0.00000000       1.30975020      -0.10727671      -0.56664539
H        0.00000000       0.00000000       0.00000000      -0.32410747      -0.02262899      -0.23701909
7
Lattice="529.1772105638412 0.0 0.0 0.0 529.1772105638412 0.0 0.0 0.0 529.1772105638412" Properties=species:S:1:pos:R:3:forces_component_raw:R:3 ipi_comment="Step:         480  Bead:       0 forces_component_raw{ase}  cell{ase}" pbc="T T T"
O        0.00000000       0.00000000       0.00000000      -0.10238400       2.74385358       0.65325713
H        0.00000000       0.00000000       0.00000000       0.17550410      -0.18331268      -0.53548324
H        0.00000000       0.00000000       0.00000000      -0.58594948      -1.22571779       0.66702652
O        0.00000000       0.00000000       0.00000000      -1.59522903      -0.42280519      -0.84279663
H        0.00000000       0.00000000       0.00000000       0.49364811      -1.00210369      -0.58861423
H        0.00000000       0.00000000       0.00000000       0.90609563      -0.03180841      -0.33941042
H        0.00000000       0.00000000       0.00000000       0.70831466       0.12189427       0.98602075
7
Lattice="529.1772105638412 0.0 0.0 0.0 529.1772105638412 0.0 0.0 0.0 529.1772105638412" Properties=species:S:1:pos:R:3:forces_component_raw:R:3 ipi_comment="Step:         500  Bead:       0 forces_component_raw{ase}  cell{ase}" pbc="T T T"
O        0.00000000       0.00000000       0.00000000       0.72918928       1.62939263      -1.22421122
H        0.00000000       0.00000000       0.00000000       0.12147668       0.08698096      -0.25842494
H        0.00000000       0.00000000       0.00000000      -0.95414752      -2.09274364       1.27075208
O        0.00000000       0.00000000       0.00000000      -1.21701312       0.35632777      -1.41388750
H        0.00000000       0.00000000       0.00000000       0.49677032       0.24975060      -0.18494830
H        0.00000000       0.00000000       0.00000000      -0.54446203      -0.15105668       0.11968961
H        0.00000000       0.00000000       0.00000000       1.36818648      -0.07865150       1.69103003
7
Lattice="529.1772105638412 0.0 0.0 0.0 529.1772105638412 0.0 0.0 0.0 529.1772105638412" Properties=species:S:1:pos:R:3:forces_component_raw:R:3 ipi_comment="Step:         520  Bead:       0 forces_component_raw{ase}  cell{ase}" pbc="T T T"
O        0.00000000       0.00000000       0.00000000       0.76019675       2.05860949      -0.47464317
H        0.00000000       0.00000000       0.00000000      -0.01576537      -0.49933833      -0.14699870
H        0.00000000       0.00000000       0.00000000      -0.59273219      -1.85493493       0.18571357
O        0.00000000       0.00000000       0.00000000       0.31108356       1.36030102      -1.80752790
H        0.00000000       0.00000000       0.00000000      -0.24894191      -0.20479080       0.13563165
H        0.00000000       0.00000000       0.00000000      -1.89638746      -0.45504969       0.45254120
H        0.00000000       0.00000000       0.00000000       1.68254686      -0.40479654       1.65528345
7
Lattice="529.1772105638412 0.0 0.0 0.0 529.1772105638412 0.0 0.0 0.0 529.1772105638412" Properties=species:S:1:pos:R:3:forces_component_raw:R:3 ipi_comment="Step:         540  Bead:       0 forces_component_raw{ase}  cell{ase}" pbc="T T T"
O        0.00000000       0.00000000       0.00000000       0.14110570      -0.82861591      -0.05749781
H        0.00000000       0.00000000       0.00000000       0.13179681       0.46478492      -0.65277940
H        0.00000000       0.00000000       0.00000000      -0.03382770      -0.50900400       0.29518157
O        0.00000000       0.00000000       0.00000000      -0.13114506      -0.29323685      -2.03013468
H        0.00000000       0.00000000       0.00000000       0.16042489       0.44334880      -0.42081469
H        0.00000000       0.00000000       0.00000000      -1.70321834       0.85327339       1.51281274
H        0.00000000       0.00000000       0.00000000       1.43486393      -0.13055021       1.35323215
7
Lattice="529.1772105638412 0.0 0.0 0.0 529.1772105638412 0.0 0.0 0.0 529.1772105638412" Properties=species:S:1:pos:R:3:forces_component_raw:R:3 ipi_comment="Step:         560  Bead:       0 forces_component_raw{ase}  cell{ase}" pbc="T T T"
O        0.00000000       0.00000000       0.00000000      -0.04978074      -2.16700101       1.02490330
H        0.00000000       0.00000000       0.00000000      -0.00329892       0.03161013      -1.18945515
H        0.00000000       0.00000000       0.00000000       0.33790562       2.16240120      -0.21103735
O        0.00000000       0.00000000       0.00000000       2.21020842      -1.28169537      -0.86075896
H        0.00000000       0.00000000       0.00000000      -0.49177811       0.03461222       0.54309094
H        0.00000000       0.00000000       0.00000000      -2.35315061       1.22536934       0.78814936
H        0.00000000       0.00000000       0.00000000       0.34989429      -0.00529641      -0.09489223
7
Lattice="529.1772105638412 0.0 0.0 0.0 529.1772105638412 0.0 0.0 0.0 529.1772105638412" Properties=species:S:1:pos:R:3:forces_component_raw:R:3 ipi_comment="Step:         580  Bead:       0 forces_component_raw{ase}  cell{ase}" pbc="T T T"
O        0.00000000       0.00000000       0.00000000      -0.35272256      -1.98041845       1.48570490
H        0.00000000       0.00000000       0.00000000      -0.03152783       0.01155090       0.26804972
H        0.00000000       0.00000000       0.00000000       0.11708771       2.34824658      -0.51361293
O        0.00000000       0.00000000       0.00000000       2.98670197      -0.77067149       0.33471912
H        0.00000000       0.00000000       0.00000000       0.42758834      -0.18932778      -1.07108391
H        0.00000000       0.00000000       0.00000000      -1.72882462       1.11285508       0.71320921
H        0.00000000       0.00000000       0.00000000      -1.41830302      -0.53223443      -1.21698594
7
Lattice="529.1772105638412 0.0 0.0 0.0 529.1772105638412 0.0 0.0 0.0 529.1772105638412" Properties=species:S:1:pos:R:3:forces_component_raw:R:3 ipi_comment="Step:         600  Bead:       0 forces_component_raw{ase}  cell{ase}" pbc="T T T"
O        0.00000000       0.00000000       0.00000000      -1.04055548       0.18736926      -2.48739219
H        0.00000000       0.00000000       0.00000000       0.73203010      -0.07772666       1.59303511
H        0.00000000       0.00000000       0.00000000       0.17649007       0.22969139       0.53747994
O        0.00000000       0.00000000       0.00000000       2.97527457       0.03178960       1.32365728
H        0.00000000       0.00000000       0.00000000      -0.05713968      -0.12878871       0.76154286
H        0.00000000       0.00000000       0.00000000      -1.58879185       0.42143077      -0.15408395
H        0.00000000       0.00000000       0.00000000      -1.19730759      -0.66376561      -1.57423902
7
Lattice="529.1772105638412 0.0 0.0 0.0 529.1772105638412 0.0 0.0 0.0 529.1772105638412" Properties=species:S:1:pos:R:3:forces_component_raw:R:3 ipi_comment="Step:         620  Bead:       0 forces_component_raw{ase}  cell{ase}" pbc="T T T"
O        0.00000000       0.00000000       0.00000000      -0.89447350       2.10814524      -1.81270266
H        0.00000000       0.00000000       0.00000000       1.07894850      -0.93782783       1.93251920
H        0.00000000       0.00000000       0.00000000      -0.52869737      -1.51778365      -0.40233249
O        0.00000000       0.00000000       0.00000000       0.17131978       0.42255718       1.44332028
H        0.00000000       0.00000000       0.00000000       0.37147927       0.21337266      -0.10771643
H        0.00000000       0.00000000       0.00000000       0.40843248      -0.21586873      -0.19308655
H        0.00000000       0.00000000       0.00000000      -0.60700905      -0.07259488      -0.86000133
7
Lattice="529.1772105638412 0.0 0.0 0.0 529.1772105638412 0.0 0.0 0.0 529.1772105638412" Properties=species:S:1:pos:R:3:forces_component_raw:R:3 ipi_comment="Step:         640  Bead:       0 forces_component_raw{ase}  cell{ase}" pbc="T T T"
O        0.00000000       0.00000000       0.00000000      -1.50365031       0.73609990      -3.43185283
H        0.00000000       0.00000000       0.00000000       1.13790870       0.37726268       1.44712699
H        0.00000000       0.00000000       0.00000000       0.23463854      -1.38946379       1.52620817
O        0.00000000       0.00000000       0.00000000      -2.47471047       0.90235329       0.24074960
H        0.00000000       0.00000000       0.00000000       0.25625712       0.00907029       0.19614917
H        0.00000000       0.00000000       0.00000000       2.20277977      -0.57387197      -0.30195046
H        0.00000000       0.00000000       0.00000000       0.14677671      -0.06145044       0.32356933
7
Lattice="529.1772105638412 0.0 0.0 0.0 529.1772105638412 0.0 0.0 0.0 529.1772105638412" Properties=species:S:1:pos:R:3:forces_component_raw:R:3 ipi_comment="Step:         660  Bead:       0 forces_component_raw{ase}  cell{ase}" pbc="T T T"
O        0.00000000       0.00000000       0.00000000       0.81180781       1.92047239       0.14982498
H        0.00000000       0.00000000       0.00000000      -0.17921820      -0.61998928       0.25529546
H        0.00000000       0.00000000       0.00000000      -0.48620266      -1.34809470      -0.10826502
O        0.00000000       0.00000000       0.00000000      -3.11562014       2.33601165      -0.56443226
H        0.00000000       0.00000000       0.00000000      -0.27632690      -0.19510078      -0.33021611
H        0.00000000       0.00000000       0.00000000       2.98367835      -1.12962246      -0.69026446
H        0.00000000       0.00000000       0.00000000       0.26188207      -0.96367681       1.28805733
7
Lattice="529.1772105638412 0.0 0.0 0.0 529.1772105638412 0.0 0.0 0.0 529.1772105638412" Properties=species:S:1:pos:R:3:forces_component_raw:R:3 ipi_comment="Step:         680  Bead:       0 forces_component_raw{ase}  cell{ase}" pbc="T T T"
O        0.00000000       0.00000000       0.00000000       0.61770272      -1.33206845       1.57643390
H        0.00000000       0.00000000       0.00000000      -0.68881917       0.68732244      -1.58443427
H        0.00000000       0.00000000       0.00000000       0.28370386       0.52624077       0.42114458
O        0.00000000       0.00000000       0.00000000      -4.22655822       2.05020023      -0.24450100
H        0.00000000       0.00000000       0.00000000       0.26300931       0.56640560       0.11991631
H        0.00000000       0.00000000       0.00000000       2.36529470      -1.02505088      -1.19432092
H        0.00000000       0.00000000       0.00000000       1.38566685      -1.47304964       0.90576160
7
Lattice="529.1772105638412 0.0 0.0 0.0 529.1772105638412 0.0 0.0 0.0 529.1772105638412" Properties=species:S:1:pos:R:3:forces_component_raw:R:3 ipi_comment="Step:         700  Bead:       0 forces_component_raw{ase}  cell{ase}" pbc="T T T"
O        0.00000000       0.00000000       0.00000000      -0.05242980       1.28524971       3.07806206
H        0.00000000       0.00000000       0.00000000       0.00806986      -1.41513586      -1.83918453
H        0.00000000       0.00000000       0.00000000      -0.05637552       0.84984875      -1.05063987
O        0.00000000       0.00000000       0.00000000      -0.93809033      -0.64286178      -2.12041188
H        0.00000000       0.00000000       0.00000000      -0.16631794      -0.61659598      -0.19703658
H        0.00000000       0.00000000       0.00000000      -0.42014620       0.46352279       0.43673587
H        0.00000000       0.00000000       0.00000000       1.62528980       0.07597242       1.69247473
7
Lattice="529.1772105638412 0.0 0.0 0.0 529.1772105638412 0.0 0.0 0.0 529.1772105638412" Properties=species:S:1:pos:R:3:forces_component_raw:R:3 ipi_comment="Step:         720  Bead:       0 forces_component_raw{ase}  cell{ase}" pbc="T T T"
O        0.00000000       0.00000000       0.00000000       0.24390476      -2.51832581       2.18901253
H        0.00000000       0.00000000       0.00000000      -0.10016704       0.62950283      -2.22186757
H        0.00000000       0.00000000       0.00000000      -0.11320232       1.73105193      -0.11764270
O        0.00000000       0.00000000       0.00000000       0.47945911      -1.12241292      -0.97187841
H        0.00000000       0.00000000       0.00000000      -0.04882013       0.17494266       0.05136160
H        0.00000000       0.00000000       0.00000000      -1.81342531       0.58117265       0.33959380
H        0.00000000       0.00000000       0.00000000       1.35225106       0.52406895       0.73142082
7
Lattice="529.1772105638412 0.0 0.0 0.0 529.1772105638412 0.0 0.0 0.0 529.1772105638412" Properties=species:S:1:pos:R:3:forces_component_raw:R:3 ipi_comment="Step:         740  Bead:       0 forces_component_raw{ase}  cell{ase}" pbc="T T T"
O        0.00000000       0.00000000       0.00000000      -0.06689449      -0.36810541       2.05581356
H        0.00000000       0.00000000       0.00000000       0.05781759      -0.73886180      -1.14261377
H        0.00000000       0.00000000       0.00000000      -0.14143097       0.54687178      -1.11267400
O        0.00000000       0.00000000       0.00000000       2.16102267      -0.56169099      -0.35069829
H        0.00000000       0.00000000       0.00000000       0.48599583      -0.15302524      -0.18849549
H        0.00000000       0.00000000       0.00000000      -2.64564849       0.74394721       0.45855367
H        0.00000000       0.00000000       0.00000000       0.14913785       0.53086448       0.28011441
7
Lattice="529.1772105638412 0.0 0.0 0.0 529.1772105638412 0.0 0.0 0.0 529.1772105638412" Properties=species:S:1:pos:R:3:forces_component_raw:R:3 ipi_comment="Step:         760  Bead:       0 forces_component_raw{ase}  cell{ase}" pbc="T T T"
O        0.00000000       0.00000000       0.00000000       0.43136558      -0.42057696      -1.54997778
H        0.00000000       0.00000000       0.00000000      -0.26923925       0.68142295       0.31015456
H        0.00000000       0.00000000       0.00000000      -0.03670052      -0.87435681       0.83759421
O        0.00000000       0.00000000       0.00000000       3.85292483       0.65833849       0.14639935
H        0.00000000       0.00000000       0.00000000      -0.72627449       0.16260821       0.43046314
H        0.00000000       0.00000000       0.00000000      -2.76887704       0.04947831      -0.19835961
H        0.00000000       0.00000000       0.00000000      -0.48319906      -0.25691408       0.02372621
7
Lattice="529.1772105638412 0.0 0.0 0.0 529.1772105638412 0.0 0.0 0.0 529.1772105638412" Properties=species:S:1:pos:R:3:forces_component_raw:R:3 ipi_comment="Step:         780  Bead:       0 forces_component_raw{ase}  cell{ase}" pbc="T T T"
O        0.00000000       0.00000000       0.00000000      -0.88431841       2.40974570      -0.50656825
H        0.00000000       0.00000000       0.00000000      -0.17779338      -0.75393236       1.32657993
H        0.00000000       0.00000000       0.00000000       0.78997314      -1.07094312      -0.51061761
O        0.00000000       0.00000000       0.00000000       1.82160831      -0.86644632      -0.11030227
H        0.00000000       0.00000000       0.00000000       0.84937251      -0.40037912      -0.04337424
H        0.00000000       0.00000000       0.00000000      -2.13310886       1.12638402      -0.06180178
H        0.00000000       0.00000000       0.00000000      -0.26573348      -0.44442907      -0.09391565
7
Lattice="529.1772105638412 0.0 0.0 0.0 529.1772105638412 0.0 0.0 0.0 529.1772105638412" Properties=species:S:1:pos:R:3:forces_component_raw:R:3 ipi_comment="Step:         800  Bead:       0 forces_component_raw{ase}  cell{ase}" pbc="T T T"
O        0.00000000       0.00000000       0.00000000       1.44105387       0.60048741      -2.84517980
H        0.00000000       0.00000000       0.00000000      -1.47718573       0.22409350       2.11446238
H        0.00000000       0.00000000       0.00000000       0.14284244      -0.40460360       0.98831660
O        0.00000000       0.00000000       0.00000000       1.76636577      -0.85738176       0.05097505
H        0.00000000       0.00000000       0.00000000      -0.77781266       0.52404827       0.11903639
H        0.00000000       0.00000000       0.00000000      -1.13607574       0.10305011      -0.40185404
H        0.00000000       0.00000000       0.00000000       0.04081213      -0.18969390      -0.02575601
7
Lattice="529.1772105638412 0.0 0.0 0.0 529.1772105638412 0.0 0.0 0.0 529.1772105638412" Properties=species:S:1:pos:R:3:forces_component_raw:R:3 ipi_comment="Step:         820  Bead:       0 forces_component_raw{ase}  cell{ase}" pbc="T T T"
O        0.00000000       0.00000000       0.00000000      -0.80181784       1.34179735      -0.78139901
H        0.00000000       0.00000000       0.00000000      -0.06151888      -0.28942123       1.06962228
H        0.00000000       0.00000000       0.00000000       0.69302231       0.01849613      -0.04266992
O        0.00000000       0.00000000       0.00000000      -1.41723991      -0.06698173       0.39732075
H        0.00000000       0.00000000       0.00000000       0.23258537      -0.75286400      -0.20311609
H        0.00000000       0.00000000       0.00000000       1.22556746      -0.39807993      -0.04304406
H        0.00000000       0.00000000       0.00000000       0.12940139       0.14705333      -0.39671373
7
Lattice="529.1772105638412 0.0 0.0 0.0 529.1772105638412 0.0 0.0 0.0 529.1772105638412" Properties=species:S:1:pos:R:3:forces_component_raw:R:3 ipi_comment="Step:         840  Bead:       0 forces_component_raw{ase}  cell{ase}" pbc="T T T"
O        0.00000000       0.00000000       0.00000000       0.66635859      -1.40195418       0.38577414
H        0.00000000       0.00000000       0.00000000      -0.04988648       0.31304291      -0.34344614
H        0.00000000       0.00000000       0.00000000      -0.47793782       0.50010449      -0.15040493
O        0.00000000       0.00000000       0.00000000      -3.00229121       1.00353563       0.54375965
H        0.00000000       0.00000000       0.00000000       0.06923841       0.37776262      -0.13315123
H        0.00000000       0.00000000       0.00000000       2.03026724      -1.09083581      -0.06249189
H        0.00000000       0.00000000       0.00000000       0.76425111       0.29834452      -0.24003974
7
Lattice="529.1772105638412 0.0 0.0 0.0 529.1772105638412 0.0 0.0 0.0 529.1772105638412" Properties=species:S:1:pos:R:3:forces_component_raw:R:3 ipi_comment="Step:         860  Bead:       0 forces_component_raw{ase}  cell{ase}" pbc="T T T"
O        0.00000000       0.00000000       0.00000000       0.15912676      -0.80540991       2.01415515
H        0.00000000       0.00000000       0.00000000       0.64784718      -0.52093065      -1.08507526
H        0.00000000       0.00000000       0.00000000      -0.56988984       0.81799436      -1.11662197
O        0.00000000       0.00000000       0.00000000      -1.91512633      -0.18312886       0.38420791
H        0.00000000       0.00000000       0.00000000      -0.58806741       0.37660357       0.24806783
H        0.00000000       0.00000000       0.00000000       1.66686738      -0.56184632      -0.56484509
H        0.00000000       0.00000000       0.00000000       0.59924221       0.87671787       0.12011139
7
Lattice="529.1772105638412 0.0 0.0 0.0 529.1772105638412 0.0 0.0 0.0 529.1772105638412" Properties=species:S:1:pos:R:3:forces_component_raw:R:3 ipi_comment="Step:         880  Bead:       0 forces_component_raw{ase}  cell{ase}" pbc="T T T"
O        0.00000000       0.00000000       0.00000000       0.40121067      -1.30102396       1.17199374
H        0.00000000       0.00000000       0.00000000      -0.07505067      -0.42492494      -1.31705416
H        0.00000000       0.00000000       0.00000000      -0.57301110       0.88556755      -0.52307093
O        0.00000000       0.00000000       0.00000000      -0.28830272       0.46296549       0.11048579
H        0.00000000       0.00000000       0.00000000       0.85214603       0.03341463       0.41715980
H        0.00000000       0.00000000       0.00000000      -0.32886112       0.10285348       0.15526751
H        0.00000000       0.00000000       0.00000000       0.01186895       0.24114761      -0.01478157
7
Lattice="529.1772105638412 0.0 0.0 0.0 529.1772105638412 0.0 0.0 0.0 529.1772105638412" Properties=species:S:1:pos:R:3:forces_component_raw:R:3 ipi_comment="Step:         900  Bead:       0 forces_component_raw{ase}  cell{ase}" pbc="T T T"
O        0.00000000       0.00000000       0.00000000       0.23739836      -0.13137203       0.13793170
H        0.00000000       0.00000000       0.00000000      -0.14286178       0.55916178       0.24384934
H        0.00000000       0.00000000       0.00000000       0.08045319      -0.30168054       0.24273464
O        0.00000000       0.00000000       0.00000000       2.03485036       0.85461837      -2.15200377
H        0.00000000       0.00000000       0.00000000      -0.48611462      -0.42102617      -0.62937069
H        0.00000000       0.00000000       0.00000000      -0.97099662      -0.27268910       1.86960030
H        0.00000000       0.00000000       0.00000000      -0.75272888      -0.28701240       0.28725845
7
Lattice="529.1772105638412 0.0 0.0 0.0 529.1772105638412 0.0 0.0 0.0 529.1772105638412" Properties=species:S:1:pos:R:3:forces_component_raw:R:3 ipi_comment="Step:         920  Bead:       0 forces_component_raw{ase}  cell{ase}" pbc="T T T"
O        0.00000000       0.00000000       0.00000000      -1.53968954       1.15448261      -2.19970561
H        0.00000000       0.00000000       0.00000000       0.67040539       0.22188360       1.95734764
H        0.00000000       0.00000000       0.00000000       0.55843461      -1.04936612       0.22012816
O        0.00000000       0.00000000       0.00000000       0.34889728       0.46181953      -2.34997893
H        0.00000000       0.00000000       0.00000000       0.73036605       0.46218291       0.53782046
H        0.00000000       0.00000000       0.00000000      -0.96529520      -0.73229194       2.09396530
H        0.00000000       0.00000000       0.00000000       0.19688118      -0.51871061      -0.25957760
7
Lattice="529.1772105638412 0.0 0.0 0.0 529.1772105638412 0.0 0.0 0.0 529.1772105638412" Properties=species:S:1:pos:R:3:forces_component_raw:R:3 ipi_comment="Step:         940  Bead:       0 forces_component_raw{ase}  cell{ase}" pbc="T T T"
O        0.00000000       0.00000000       0.00000000      -1.03205979       0.65033126      -1.25361645
H        0.00000000       0.00000000       0.00000000       0.48015124       0.77791953       1.54241050
H        0.00000000       0.00000000       0.00000000       0.85503918      -0.81623966       0.40172222
O        0.00000000       0.00000000       0.00000000       1.36258149      -0.10503316      -2.56139017
H        0.00000000       0.00000000       0.00000000      -0.69294208      -0.38225406      -0.72379089
H        0.00000000       0.00000000       0.00000000      -0.96739578      -0.27450138       2.34623623
H        0.00000000       0.00000000       0.00000000      -0.00537434       0.14977747       0.24842818
7
Lattice="529.1772105638412 0.0 0.0 0.0 529.1772105638412 0.0 0.0 0.0 529.1772105638412" Properties=species:S:1:pos:R:3:forces_component_raw:R:3 ipi_comment="Step:         960  Bead:       0 forces_component_raw{ase}  cell{ase}" pbc="T T T"
O        0.00000000       0.00000000       0.00000000      -0.93155682       0.65888453      -0.67219412
H        0.00000000       0.00000000       0.00000000       0.10235673      -0.22670211       0.18162066
H        0.00000000       0.00000000       0.00000000       0.28656352       0.23097500       0.30680156
O        0.00000000       0.00000000       0.00000000       0.60615438      -0.15868908      -1.14864469
H        0.00000000       0.00000000       0.00000000       0.58257485      -0.53058899       0.33572063
H        0.00000000       0.00000000       0.00000000      -0.82230914      -0.02049254       1.06643248
H        0.00000000       0.00000000       0.00000000       0.17621660       0.04661328      -0.06973660
7
Lattice="529.1772105638412 0.0 0.0 0.0 529.1772105638412 0.0 0.0 0.0 529.1772105638412" Properties=species:S:1:pos:R:3:forces_component_raw:R:3 ipi_comment="Step:         980  Bead:       0 forces_component_raw{ase}  cell{ase}" pbc="T T T"
O        0.00000000       0.00000000       0.00000000      -0.16999739      -0.15691364       0.62418288
H        0.00000000       0.00000000       0.00000000       0.11672035      -0.14885181      -0.41829816
H        0.00000000       0.00000000       0.00000000       0.14958352      -0.01032139      -0.22388133
O        0.00000000       0.00000000       0.00000000      -0.51753378      -0.74593645       0.60208732
H        0.00000000       0.00000000       0.00000000      -0.22014889       0.74465007      -0.00931507
H        0.00000000       0.00000000       0.00000000       0.41042131       0.08661668      -0.52612102
H        0.00000000       0.00000000       0.00000000       0.23095474       0.23075652      -0.04865460
7
Lattice="529.1772105638412 0.0 0.0 0.0 529.1772105638412 0.0 0.0 0.0 529.1772105638412" Properties=species:S:1:pos:R:3:forces_component_raw:R:3 ipi_comment="Step:        1000  Bead:       0 forces_component_raw{ase}  cell{ase}" pbc="T T T"
O        0.00000000       0.00000000       0.00000000       0.45182225      -0.49774733       0.20380268
H        0.00000000       0.00000000       0.00000000      -0.54841399       0.09514068      -0.44732866
H        0.00000000       0.00000000       0.00000000       0.13068819       0.13179985       0.22069451
O        0.00000000       0.00000000       0.00000000      -1.77825952       0.19763440       2.01319123
H        0.00000000       0.00000000       0.00000000      -0.00074396      -0.20865160      -0.22125462
H        0.00000000       0.00000000       0.00000000       1.62048078      -0.05594087      -1.85715521
H        0.00000000       0.00000000       0.00000000       0.12442639       0.33776498       0.08804999
7
Lattice="529.1772105638412 0.0 0.0 0.0 529.1772105638412 0.0 0.0 0.0 529.1772105638412" Properties=species:S:1:pos:R:3:forces_component_raw:R:3 ipi_comment="Step:        1020  Bead:       0 forces_component_raw{ase}  cell{ase}" pbc="T T T"
O        0.00000000       0.00000000       0.00000000       1.05835688      -0.65869731      -0.12102342
H        0.00000000       0.00000000       0.00000000      -0.42770705      -0.01197153      -0.54812235
H        0.00000000       0.00000000       0.00000000      -0.51575577       0.01163194       0.06954664
O        0.00000000       0.00000000       0.00000000      -2.16291786      -0.03450125       2.48044873
H        0.00000000       0.00000000       0.00000000      -0.00451723      -0.10856679       0.43251774
H        0.00000000       0.00000000       0.00000000       2.02603507       0.18592045      -2.53938199
H        0.00000000       0.00000000       0.00000000       0.02650571       0.61618447       0.22601438
7
Lattice="529.1772105638412 0.0 0.0 0.0 529.1772105638412 0.0 0.0 0.0 529.1772105638412" Properties=species:S:1:pos:R:3:forces_component_raw:R:3 ipi_comment="Step:        1040  Bead:       0 forces_component_raw{ase}  cell{ase}" pbc="T T T"
O        0.00000000       0.00000000       0.00000000       1.37453020      -1.55540514      -0.81511748
H        0.00000000       0.00000000       0.00000000       0.07423955       0.22045463       0.13889825
H        0.00000000       0.00000000       0.00000000      -1.19653642       0.26947346       0.36182112
O        0.00000000       0.00000000       0.00000000      -1.49036467       0.49842882       2.42132092
H        0.00000000       0.00000000       0.00000000       0.17638329       0.31548348      -0.34585244
H        0.00000000       0.00000000       0.00000000       0.96602708       0.14803287      -1.60912943
H        0.00000000       0.00000000       0.00000000       0.09572080       0.10353196      -0.15194106
7
Lattice="529.1772105638412 0.0 0.0 0.0 529.1772105638412 0.0 0.0 0.0 529.1772105638412" Properties=species:S:1:pos:R:3:forces_component_raw:R:3 ipi_comment="Step:        1060  Bead:       0 forces_component_raw{ase}  cell{ase}" pbc="T T T"
O        0.00000000       0.00000000       0.00000000       0.64539439      -0.66264367      -1.03405154
H        0.00000000       0.00000000       0.00000000       0.66740012       0.00652939       0.51385391
H        0.00000000       0.00000000       0.00000000      -1.49196828       0.60671455       0.31914288
O        0.00000000       0.00000000       0.00000000       0.62246490      -0.17561227      -0.58685523
H        0.00000000       0.00000000       0.00000000       0.01976934       0.23772481       0.50798011
H        0.00000000       0.00000000       0.00000000       0.18891543       0.30144435      -0.08970642
H        0.00000000       0.00000000       0.00000000      -0.65197599      -0.31415713       0.36963618
7
Lattice="529.1772105638412 0.0 0.0 0.0 529.1772105638412 0.0 0.0 0.0 529.1772105638412" Properties=species:S:1:pos:R:3:forces_component_raw:R:3 ipi_comment="Step:        1080  Bead:       0 forces_component_raw{ase}  cell{ase}" pbc="T T T"
O        0.00000000       0.00000000       0.00000000      -0.62859422       0.73136735      -0.39146027
H        0.00000000       0.00000000       0.00000000       0.64441419       0.40172073       0.91864240
H        0.00000000       0.00000000       0.00000000      -0.12251860       0.15936267       0.19310872
O        0.00000000       0.00000000       0.00000000       1.16538811       0.54460514      -1.02752578
H        0.00000000       0.00000000       0.00000000      -0.01397082      -0.65062058      -0.31551617
H        0.00000000       0.00000000       0.00000000      -0.36312842      -0.41388694       0.80273795
H        0.00000000       0.00000000       0.00000000      -0.68159020      -0.77254856      -0.17998692
7
Lattice="529.1772105638412 0.0 0.0 0.0 529.1772105638412 0.0 0.0 0.0 529.1772105638412" Properties=species:S:1:pos:R:3:forces_component_raw:R:3 ipi_comment="Step:        1100  Bead:       0 forces_component_raw{ase}  cell{ase}" pbc="T T T"
O        0.00000000       0.00000000       0.00000000      -0.97263432       1.01180053       0.28416196
H        0.00000000       0.00000000       0.00000000       0.37835807      -0.01993191       0.27684218
H        0.00000000       0.00000000       0.00000000       0.63427442      -0.46212915      -0.10902020
O        0.00000000       0.00000000       0.00000000       1.04797375      -0.10862470      -2.59368682
H        0.00000000       0.00000000       0.00000000      -0.13184947       0.60362983      -0.21470332
H        0.00000000       0.00000000       0.00000000       0.07098624      -0.10441414       2.05959607
H        0.00000000       0.00000000       0.00000000      -1.02710867      -0.92033053       0.29681024
7
Lattice="529.1772105638412 0.0 0.0 0.0 529.1772105638412 0.0 0.0 0.0 529.1772105638412" Properties=species:S:1:pos:R:3:forces_component_raw:R:3 ipi_comment="Step:        1120  Bead:       0 forces_component_raw{ase}  cell{ase}" pbc="T T T"
O        0.00000000       0.00000000       0.00000000      -1.13334823       0.27054825      -0.77600491
H        0.00000000       0.00000000       0.00000000       0.09230700      -0.02284831       0.13459501
H        0.00000000       0.00000000       0.00000000       0.93917167      -0.23035632       0.41674322
O        0.00000000       0.00000000       0.00000000       0.54377306       1.67642939      -1.61042619
H        0.00000000       0.00000000       0.00000000      -0.05008839      -0.52847612       0.35789442
H        0.00000000       0.00000000       0.00000000      -0.25956285      -1.12089122       1.72459174
H        0.00000000       0.00000000       0.00000000      -0.13225234      -0.04440588      -0.24739313
7
Lattice="529.1772105638412 0.0 0.0 0.0 529.1772105638412 0.0 0.0 0.0 529.1772105638412" Properties=species:S:1:pos:R:3:forces_component_raw:R:3 ipi_comment="Step:        1140  Bead:       0 forces_component_raw{ase}  cell{ase}" pbc="T T T"
O        0.00000000       0.00000000       0.00000000      -0.27493990       0.65690887       0.75276351
H        0.00000000       0.00000000       0.00000000      -0.18498875      -0.79471404      -0.89510912
H        0.00000000       0.00000000       0.00000000       0.44403350      -0.55887091      -0.09234187
O        0.00000000       0.00000000       0.00000000      -0.84222776      -0.97428996      -0.56403017
H        0.00000000       0.00000000       0.00000000       0.08958754       0.28195611      -0.62456972
H        0.00000000       0.00000000       0.00000000       0.06238566       0.19459464       1.52597118
H        0.00000000       0.00000000       0.00000000       0.70614958       1.19441533      -0.10268369
7
Lattice="529.1772105638412 0.0 0.0 0.0 529.1772105638412 0.0 0.0 0.0 529.1772105638412" Properties=species:S:1:pos:R:3:forces_component_raw:R:3 ipi_comment="Step:        1160  Bead:       0 forces_component_raw{ase}  cell{ase}" pbc="T T T"
O        0.00000000       0.00000000       0.00000000       1.26514697      -0.65981603       1.47654462
H        0.00000000       0.00000000       0.00000000      -0.84335363       0.16405167      -1.88085235
H        0.00000000       0.00000000       0.00000000      -0.34180033       0.18799627       0.18423386
O        0.00000000       0.00000000       0.00000000      -0.16308646      -0.91316265       0.42624515
H        0.00000000       0.00000000       0.00000000      -0.10869914      -0.13500449       0.20830306
H        0.00000000       0.00000000       0.00000000      -0.03429665      -0.55926556       0.44885129
H        0.00000000       0.00000000       0.00000000       0.22608908       1.91520071      -0.86332578
7
Lattice="529.1772105638412 0.0 0.0 0.0 529.1772105638412 0.0 0.0 0.0 529.1772105638412" Properties=species:S:1:pos:R:3:forces_component_raw:R:3 ipi_comment="Step:        1180  Bead:       0 forces_component_raw{ase}  cell{ase}" pbc="T T T"
O        0.00000000       0.00000000       0.00000000       0.06531921      -0.28795388       2.54452491
H        0.00000000       0.00000000       0.00000000      -0.31246722       0.98242247      -1.82827461
H        0.00000000       0.00000000       0.00000000       0.16433698      -0.02008957      -0.00248019
O        0.00000000       0.00000000       0.00000000       0.25463861      -2.62483550      -0.71696371
H        0.00000000       0.00000000       0.00000000       0.12294510      -0.15284410      -0.26027390
H        0.00000000       0.00000000       0.00000000      -0.03258210       0.22306940       0.62514240
H        0.00000000       0.00000000       0.00000000      -0.26219064       1.88023127      -0.36167505
7
Lattice="529.1772105638412 0.0 0.0 0.0 529.1772105638412 0.0 0.0 0.0 529.1772105638412" Properties=species:S:1:pos:R:3:forces_component_raw:R:3 ipi_comment="Step:        1200  Bead:       0 forces_component_raw{ase}  cell{ase}" pbc="T T T"
O        0.00000000       0.00000000       0.00000000      -0.00937300      -0.72285277       1.94450903
H        0.00000000       0.00000000       0.00000000      -0.24674833       1.14007509      -1.80600715
H        0.00000000       0.00000000       0.00000000       0.16464937      -0.03284115       0.12618519
O        0.00000000       0.00000000       0.00000000      -0.17178637      -1.11199153       0.47413162
H        0.00000000       0.00000000       0.00000000       0.13629250       0.37628934       0.48675442
H        0.00000000       0.00000000       0.00000000       0.25562826      -0.32092375      -0.43263853
H        0.00000000       0.00000000       0.00000000      -0.12866251       0.67224461      -0.79293442
7
Lattice="529.1772105638412 0.0 0.0 0.0 529.1772105638412 0.0 0.0 0.0 529.1772105638412" Properties=species:S:1:pos:R:3:forces_component_raw:R:3 ipi_comment="Step:        1220  Bead:       0 forces_component_raw{ase}  cell{ase}" pbc="T T T"
O        0.00000000       0.00000000       0.00000000       0.59536493       0.07191086       0.90899855
H        0.00000000       0.00000000       0.00000000       0.12052868      -0.02971915      -0.62554085
H        0.00000000       0.00000000       0.00000000      -0.38320282       0.24457675      -0.33365622
O        0.00000000       0.00000000       0.00000000      -0.46272588       0.61984348       1.07594061
H        0.00000000       0.00000000       0.00000000      -0.59091449      -0.31607390       0.10932295
H        0.00000000       0.00000000       0.00000000       0.47861892       0.25731444      -1.77323842
H        0.00000000       0.00000000       0.00000000       0.24233064      -0.84785253       0.63817316
7
Lattice="529.1772105638412 0.0 0.0 0.0 529.1772105638412 0.0 0.0 0.0 529.1772105638412" Properties=species:S:1:pos:R:3:forces_component_raw:R:3 ipi_comment="Step:        1240  Bead:       0 forces_component_raw{ase}  cell{ase}" pbc="T T T"
O        0.00000000       0.00000000       0.00000000       0.96399671      -1.48731757      -1.52151442
H        0.00000000       0.00000000       0.00000000      -0.25761968       0.06944048       0.76490462
H        0.00000000       0.00000000       0.00000000      -0.99724698       1.05681598       0.22246045
O        0.00000000       0.00000000       0.00000000      -1.48349595       1.96559120       1.08412862
H        0.00000000       0.00000000       0.00000000       0.36936236       0.03830686      -0.05809867
H        0.00000000       0.00000000       0.00000000       0.75271601       0.28677926      -1.36138368
H        0.00000000       0.00000000       0.00000000       0.65228760      -1.92961622       0.86950314
7
Lattice="529.1772105638412 0.0 0.0 0.0 529.1772105638412 0.0 0.0 0.0 529.1772105638412" Properties=species:S:1:pos:R:3:forces_component_raw:R:3 ipi_comment="Step:        1260  Bead:       0 forces_component_raw{ase}  cell{ase}" pbc="T T T"
O        0.00000000       0.00000000       0.00000000      -0.42137900       0.22912788      -1.13818765
H        0.00000000       0.00000000       0.00000000       0.68361181      -0.65968079       1.64283145
H        0.00000000       0.00000000       0.00000000      -0.29589436       0.12337959      -0.81104535
O        0.00000000       0.00000000       0.00000000      -1.05789435       1.87626112       0.13163531
H        0.00000000       0.00000000       0.00000000       0.10155466       0.20995259       0.24964041
H        0.00000000       0.00000000       0.00000000       0.56245977       0.12850338      -0.73475385
H        0.00000000       0.00000000       0.00000000       0.42754153      -1.90754366       0.65987998
7
Lattice="529.1772105638412 0.0 0.0 0.0 529.1772105638412 0.0 0.0 0.0 529.1772105638412" Properties=species:S:1:pos:R:3:forces_component_raw:R:3 ipi_comment="Step:        1280  Bead:       0 forces_component_raw{ase}  cell{ase}" pbc="T T T"
O        0.00000000       0.00000000       0.00000000       0.14674290      -1.16466201      -1.88620806
H        0.00000000       0.00000000       0.00000000       0.21191633       0.44742185       1.55773831
H        0.00000000       0.00000000       0.00000000      -0.01623234      -0.05054981       0.33649767
O        0.00000000       0.00000000       0.00000000      -0.27327406       2.17067576       0.70693422
H        0.00000000       0.00000000       0.00000000      -0.65762782       0.38087195      -0.52621114
H        0.00000000       0.00000000       0.00000000       0.33854851       0.03262204      -0.57104337
H        0.00000000       0.00000000       0.00000000       0.24992657      -1.81637979       0.38229260
7
Lattice="529.1772105638412 0.0 0.0 0.0 529.1772105638412 0.0 0.0 0.0 529.1772105638412" Properties=species:S:1:pos:R:3:forces_component_raw:R:3 ipi_comment="Step:        1300  Bead:       0 forces_component_raw{ase}  cell{ase}" pbc="T T T"
O        0.00000000       0.00000000       0.00000000      -1.11019540       1.19058836      -1.88089395
H        0.00000000       0.00000000       0.00000000       0.45148307      -0.30793661       1.38658142
H        0.00000000       0.00000000       0.00000000       0.20825255      -0.09001422       0.36436212
O        0.00000000       0.00000000       0.00000000       0.13592933       0.35569120      -0.43305630
H        0.00000000       0.00000000       0.00000000       0.62058854      -1.11990190       0.12513399
H        0.00000000       0.00000000       0.00000000      -0.20512253      -0.10370168       0.20368493
H        0.00000000       0.00000000       0.00000000      -0.10093571       0.07527494       0.23418798
7
Lattice="529.1772105638412 0.0 0.0 0.0 529.1772105638412 0.0 0.0 0.0 529.1772105638412" Properties=species:S:1:pos:R:3:forces_component_raw:R:3 ipi_comment="Step:        1320  Bead:       0 forces_component_raw{ase}  cell{ase}" pbc="T T T"
O        0.00000000       0.00000000       0.00000000      -0.36902058       0.57849240      -0.15366933
H        0.00000000       0.00000000       0.00000000       0.30457905      -0.09853272       0.67262614
H        0.00000000       0.00000000       0.00000000       0.23105234      -0.53557187      -0.17777957
O        0.00000000       0.00000000       0.00000000      -0.05324501      -1.38389588      -0.15485092
H        0.00000000       0.00000000       0.00000000      -0.06966633       1.42186833       0.03497656
H        0.00000000       0.00000000       0.00000000      -0.20049821      -0.40658614       0.76530385
H        0.00000000       0.00000000       0.00000000       0.15679866       0.42422578      -0.98660666
7
Lattice="529.1772105638412 0.0 0.0 0.0 529.1772105638412 0.0 0.0 0.0 529.1772105638412" Properties=species:S:1:pos:R:3:forces_component_raw:R:3 ipi_comment="Step:        1340  Bead:       0 forces_component_raw{ase}  cell{ase}" pbc="T T T"
O        0.00000000       0.00000000       0.00000000       0.54607940       0.55592096       0.26951692
H        0.00000000       0.00000000       0.00000000      -0.32776010       0.14621043      -0.46107528
H        0.00000000       0.00000000       0.00000000      -0.28283027       0.31069785       0.40760169
O        0.00000000       0.00000000       0.00000000       1.92694331      -1.48303330      -1.38201928
H        0.00000000       0.00000000       0.00000000      -0.10996078      -1.31617499       0.12838864
H        0.00000000       0.00000000       0.00000000      -1.20920694       0.38563046       0.88898277
H        0.00000000       0.00000000       0.00000000      -0.54326469       1.40074826       0.14860463
7
Lattice="529.1772105638412 0.0 0.0 0.0 529.1772105638412 0.0 0.0 0.0 529.1772105638412" Properties=species:S:1:pos:R:3:forces_component_raw:R:3 ipi_comment="Step:        1360  Bead:       0 forces_component_raw{ase}  cell{ase}" pbc="T T T"
O        0.00000000       0.00000000       0.00000000       0.09002174      -1.62971771       1.16436017
H        0.00000000       0.00000000       0.00000000       0.18830776       0.64356220      -0.89118040
H        0.00000000       0.00000000       0.00000000      -0.31184638       0.24441701      -0.38261014
O        0.00000000       0.00000000       0.00000000      -0.20351601      -0.82187593       0.72174323
H        0.00000000       0.00000000       0.00000000       0.41608256       0.73204500      -0.72485829
H        0.00000000       0.00000000       0.00000000      -0.70332670      -0.14313649       1.30143786
H        0.00000000       0.00000000       0.00000000       0.52427703       0.97470588      -1.18889237
7
Lattice="529.1772105638412 0.0 0.0 0.0 529.1772105638412 0.0 0.0 0.0 529.1772105638412" Properties=species:S:1:pos:R:3:forces_component_raw:R:3 ipi_comment="Step:        1380  Bead:       0 forces_component_raw{ase}  cell{ase}" pbc="T T T"
O        0.00000000       0.00000000       0.00000000       0.83742225      -1.50662136       0.38855231
H        0.00000000       0.00000000       0.00000000      -0.14582613       0.78909195      -1.06177247
H        0.00000000       0.00000000       0.00000000      -0.46948463       0.36465988       0.04290186
O        0.00000000       0.00000000       0.00000000      -0.02018419      -0.83427400      -0.97296959
H        0.00000000       0.00000000       0.00000000      -0.68971145      -0.05923668       1.30974222
H        0.00000000       0.00000000       0.00000000       0.14258483       0.07477681      -0.16602099
H        0.00000000       0.00000000       0.00000000       0.34519929       1.17160344       0.45956701
7
Lattice="529.1772105638412 0.0 0.0 0.0 529.1772105638412 0.0 0.0 0.0 529.1772105638412" Properties=species:S:1:pos:R:3:forces_component_raw:R:3 ipi_comment="Step:        1400  Bead:       0 forces_component_raw{ase}  cell{ase}" pbc="T T T"
O        0.00000000       0.00000000       0.00000000       0.17512478       0.95131421       3.03643013
H        0.00000000       0.00000000       0.00000000      -0.03305796       0.38046032      -1.44011903
H        0.00000000       0.00000000       0.00000000       0.00702491       0.15465725      -0.21096292
O        0.00000000       0.00000000       0.00000000      -0.89447636       0.43488765       2.35342265
H        0.00000000       0.00000000       0.00000000       0.02180925      -1.45667506      -1.66669143
H        0.00000000       0.00000000       0.00000000       0.72749525      -0.15848528      -1.67430902
H        0.00000000       0.00000000       0.00000000      -0.00391984      -0.30615905      -0.39777041
7
Lattice="529.1772105638412 0.0 0.0 0.0 529.1772105638412 0.0 0.0 0.0 529.1772105638412" Properties=species:S:1:pos:R:3:forces_component_raw:R:3 ipi_comment="Step:        1420  Bead:       0 forces_component_raw{ase}  cell{ase}" pbc="T T T"
O        0.00000000       0.00000000       0.00000000      -0.20090878      -0.50740516      -0.51512355
H        0.00000000       0.00000000       0.00000000      -0.27163982       0.20926236      -0.56644929
H        0.00000000       0.00000000       0.00000000       0.44471234      -0.25939235       0.30975145
O        0.00000000       0.00000000       0.00000000       0.28293008       0.77653331       1.86536229
H        0.00000000       0.00000000       0.00000000      -0.22436234       0.23112233       0.42179790
H        0.00000000       0.00000000       0.00000000       1.21013379       0.37584111      -1.88468612
H        0.00000000       0.00000000       0.00000000      -1.24086535      -0.82596147       0.36934725
7
Lattice="529.1772105638412 0.0 0.0 0.0 529.1772105638412 0.0 0.0 0.0 529.1772105638412" Properties=species:S:1:pos:R:3:forces_component_raw:R:3 ipi_comment="Step:        1440  Bead:       0 forces_component_raw{ase}  cell{ase}" pbc="T T T"
O        0.00000000       0.00000000       0.00000000      -1.12149632       1.22423613      -0.88561613
H        0.00000000       0.00000000       0.00000000       0.20544532      -0.41381806       0.66129422
H        0.00000000       0.00000000       0.00000000       0.80770862      -0.78008151      -0.05875582
O        0.00000000       0.00000000       0.00000000       0.91402710       0.45352322       1.93841362
H        0.00000000       0.00000000       0.00000000       0.29210097       0.08077408       0.38847759
H        0.00000000       0.00000000       0.00000000       0.57259977       0.22373885      -1.55579114
H        0.00000000       0.00000000       0.00000000      -1.67038536      -0.78837252      -0.48802224
7
Lattice="529.1772105638412 0.0 0.0 0.0 529.1772105638412 0.0 0.0 0.0 529.1772105638412" Properties=species:S:1:pos:R:3:forces_component_raw:R:3 ipi_comment="Step:        1460  Bead:       0 forces_component_raw{ase}  cell{ase}" pbc="T T T"
O        0.00000000       0.00000000       0.00000000      -0.10498893       2.21826721      -0.57326019
H        0.00000000       0.00000000       0.00000000       0.35952592      -0.75693947       2.13511944
H        0.00000000       0.00000000       0.00000000       0.16925697      -0.63986576      -0.12517628
O        0.00000000       0.00000000       0.00000000       0.87057358       0.51514530      -0.78875029
H        0.00000000       0.00000000       0.00000000      -0.09132624      -0.47978181      -0.99704862
H        0.00000000       0.00000000       0.00000000       0.65125692      -0.16657934       0.37493771
H        0.00000000       0.00000000       0.00000000      -1.85429812      -0.69024623      -0.02582188
7
Lattice="529.1772105638412 0.0 0.0 0.0 529.1772105638412 0.0 0.0 0.0 529.1772105638412" Properties=species:S:1:pos:R:3:forces_component_raw:R:3 ipi_comment="Step:        1480  Bead:       0 forces_component_raw{ase}  cell{ase}" pbc="T T T"
O        0.00000000       0.00000000       0.00000000      -0.00920069       0.73093093      -1.47597301
H        0.00000000       0.00000000       0.00000000       0.46636373      -0.79942864       1.96992398
H        0.00000000       0.00000000       0.00000000      -0.20278180       0.38372129       0.02711359
O        0.00000000       0.00000000       0.00000000       1.24967361       0.07807848      -0.60534048
H        0.00000000       0.00000000       0.00000000      -0.43292177       0.37860364       0.96267724
H        0.00000000       0.00000000       0.00000000      -0.56475806      -0.68999046      -0.32038090
H        0.00000000       0.00000000       0.00000000      -0.50637508      -0.08191535      -0.55802035
7
Lattice="529.1772105638412 0.0 0.0 0.0 529.1772105638412 0.0 0.0 0.0 529.1772105638412" Properties=species:S:1:pos:R:3:forces_component_raw:R:3 ipi_comment="Step:        1500  Bead:       0 forces_component_raw{ase}  cell{ase}" pbc="T T T"
O        0.00000000       0.00000000       0.00000000       0.64414811      -1.22566426      -0.32657588
H        0.00000000       0.00000000       0.00000000       0.26433232      -0.46441951       0.51798082
H        0.00000000       0.00000000       0.00000000      -0.95383764       1.32219982      -0.17539465
O        0.00000000       0.00000000       0.00000000      -0.60109389      -0.08260471      -1.00862086
H        0.00000000       0.00000000       0.00000000       0.37783519       0.19091445      -0.53458655
H        0.00000000       0.00000000       0.00000000       0.00566828       0.26993272       1.03342366
H        0.00000000       0.00000000       0.00000000       0.26294768      -0.01035848       0.49377358
7
Lattice="529.1772105638412 0.0 0.0 0.0 529.1772105638412 0.0 0.0 0.0 529.1772105638412" Properties=species:S:1:pos:R:3:forces_component_raw:R:3 ipi_comment="Step:        1520  Bead:       0 forces_component_raw{ase}  cell{ase}" pbc="T T T"
O        0.00000000       0.00000000       0.00000000       1.56005907      -2.62224818      -0.14614986
H        0.00000000       0.00000000       0.00000000      -0.35019729       0.68888158      -1.24638248
H        0.00000000       0.00000000       0.00000000      -1.53711653       2.01259208       0.57187021
O        0.00000000       0.00000000       0.00000000      -0.20511025       0.06270739      -0.65241462
H        0.00000000       0.00000000       0.00000000       0.02585620      -0.70283508       0.45482624
H        0.00000000       0.00000000       0.00000000      -0.93134213      -0.03874822       0.54287911
H        0.00000000       0.00000000       0.00000000       1.43785084       0.59965021       0.47537136
7
Lattice="529.1772105638412 0.0 0.0 0.0 529.1772105638412 0.0 0.0 0.0 529.1772105638412" Properties=species:S:1:pos:R:3:forces_component_raw:R:3 ipi_comment="Step:        1540  Bead:       0 forces_component_raw{ase}  cell{ase}" pbc="T T T"
O        0.00000000       0.00000000       0.00000000       0.39196172      -3.14965630       2.38866163
H        0.00000000       0.00000000       0.00000000       0.93082440       0.82840669      -1.48974514
H        0.00000000       0.00000000       0.00000000      -1.42083550       1.67277265      -0.63698578
O        0.00000000       0.00000000       0.00000000      -0.73798675      -0.83070696      -0.84402532
H        0.00000000       0.00000000       0.00000000      -0.22725056       0.38989019      -0.74099988
H        0.00000000       0.00000000       0.00000000       0.00981224       0.18819347       0.27496487
H        0.00000000       0.00000000       0.00000000       1.05347443       0.90110016       1.04812980
7
Lattice="529.1772105638412 0.0 0.0 0.0 529.1772105638412 0.0 0.0 0.0 529.1772105638412" Properties=species:S:1:pos:R:3:forces_component_raw:R:3 ipi_comment="Step:        1560  Bead:       0 forces_component_raw{ase}  cell{ase}" pbc="T T T"
O        0.00000000       0.00000000       0.00000000       0.51084566      -1.93842483       0.97129262
H        0.00000000       0.00000000       0.00000000      -0.24027993       0.59123749      -2.28485942
H        0.00000000       0.00000000       0.00000000      -0.62655717       1.18326807       0.36770114
O        0.00000000       0.00000000       0.00000000      -0.71576405       0.25436947       0.32215089
H        0.00000000       0.00000000       0.00000000       0.09836999      -0.35170645       0.50560093
H        0.00000000       0.00000000       0.00000000       0.21734607      -0.15136860      -0.14777952
H        0.00000000       0.00000000       0.00000000       0.75603962       0.41262478       0.26589337
7
Lattice="529.1772105638412 0.0 0.0 0.0 529.1772105638412 0.0 0.0 0.0 529.1772105638412" Properties=species:S:1:pos:R:3:forces_component_raw:R:3 ipi_comment="Step:        1580  Bead:       0 forces_component_raw{ase}  cell{ase}" pbc="T T T"
O        0.00000000       0.00000000       0.00000000       0.37771651      -0.14512843       2.17008114
H        0.00000000       0.00000000       0.00000000       0.00934297      -0.41076756      -1.05472279
H        0.00000000       0.00000000       0.00000000      -0.21943453       0.55859137      -0.71134365
O        0.00000000       0.00000000       0.00000000      -0.65289885      -0.34702721      -0.68750835
H        0.00000000       0.00000000       0.00000000       0.13979271       0.83402968       0.44314236
H        0.00000000       0.00000000       0.00000000       0.25249541      -0.36735416      -0.10084727
H        0.00000000       0.00000000       0.00000000       0.09298587      -0.12234353      -0.05880126
7
Lattice="529.1772105638412 0.0 0.0 0.0 529.1772105638412 0.0 0.0 0.0 529.1772105638412" Properties=species:S:1:pos:R:3:forces_component_raw:R:3 ipi_comment="Step:        1600  Bead:       0 forces_component_raw{ase}  cell{ase}" pbc="T T T"
O        0.00000000       0.00000000       0.00000000      -0.25374186       1.57378102      -0.45303968
H        0.00000000       0.00000000       0.00000000       0.45078409       0.01256171       1.14009452
H        0.00000000       0.00000000       0.00000000       0.12887670      -0.29268742       0.46772319
O        0.00000000       0.00000000       0.00000000      -0.77248109       0.28723419       0.01712978
H        0.00000000       0.00000000       0.00000000       0.13921139      -0.85316384      -0.76587928
H        0.00000000       0.00000000       0.00000000       0.74966234      -0.71008432      -0.14229994
H        0.00000000       0.00000000       0.00000000      -0.44231171      -0.01764134      -0.26372847
7
Lattice="529.1772105638412 0.0 0.0 0.0 529.1772105638412 0.0 0.0 0.0 529.1772105638412" Properties=species:S:1:pos:R:3:forces_component_raw:R:3 ipi_comment="Step:        1620  Bead:       0 forces_component_raw{ase}  cell{ase}" pbc="T T T"
O        0.00000000       0.00000000       0.00000000      -0.62157315       1.70557237      -2.35767746
H        0.00000000       0.00000000       0.00000000       1.39041913      -1.12366045       2.44699574
H        0.00000000       0.00000000       0.00000000      -0.56185591      -0.57689279      -0.01579972
O        0.00000000       0.00000000       0.00000000       0.78966940       0.21303886      -0.28920120
H        0.00000000       0.00000000       0.00000000      -0.42521095       0.70625091       0.34762859
H        0.00000000       0.00000000       0.00000000       0.08834577      -0.86442167      -0.21081960
H        0.00000000       0.00000000       0.00000000      -0.65979415      -0.05988699       0.07887372
7
Lattice="529.1772105638412 0.0 0.0 0.0 529.1772105638412 0.0 0.0 0.0 529.1772105638412" Properties=species:S:1:pos:R:3:forces_component_raw:R:3 ipi_comment="Step:        1640  Bead:       0 forces_component_raw{ase}  cell{ase}" pbc="T T T"
O        0.00000000       0.00000000       0.00000000      -1.16140485       1.76321197      -2.98119689
H        0.00000000       0.00000000       0.00000000       1.66247952      -1.39384103       2.04555655
H        0.00000000       0.00000000       0.00000000      -0.80722231      -0.98115611       0.31997442
O        0.00000000       0.00000000       0.00000000       0.28401446       1.40144205       0.52634949
H        0.00000000       0.00000000       0.00000000       0.42132244      -0.14617969       0.13562715
H        0.00000000       0.00000000       0.00000000       0.29990709      -0.60346758       0.21156186
H        0.00000000       0.00000000       0.00000000      -0.69909668      -0.04000926      -0.25787240
7
Lattice="529.1772105638412 0.0 0.0 0.0 529.1772105638412 0.0 0.0 0.0 529.1772105638412" Properties=species:S:1:pos:R:3:forces_component_raw:R:3 ipi_comment="Step:        1660  Bead:       0 forces_component_raw{ase}  cell{ase}" pbc="T T T"
O        0.00000000       0.00000000       0.00000000       0.45726660       1.83493078      -0.35416198
H        0.00000000       0.00000000       0.00000000       0.47675562      -0.37535209       0.64575631
H        0.00000000       0.00000000       0.00000000      -0.59519136      -0.79937470       0.40529919
O        0.00000000       0.00000000       0.00000000       0.22282580       0.11702535       0.49817455
H        0.00000000       0.00000000       0.00000000      -0.44529605      -1.02076936      -1.04142332
H        0.00000000       0.00000000       0.00000000       0.03428203       0.16557276      -0.05661024
H        0.00000000       0.00000000       0.00000000      -0.15064275       0.07796696      -0.09703445
7
Lattice="529.1772105638412 0.0 0.0 0.0 529.1772105638412 0.0 0.0 0.0 529.1772105638412" Properties=species:S:1:pos:R:3:forces_component_raw:R:3 ipi_comment="Step:        1680  Bead:       0 forces_component_raw{ase}  cell{ase}" pbc="T T T"
O        0.00000000       0.00000000       0.00000000       0.70055401      -0.41157544      -0.53399205
H        0.00000000       0.00000000       0.00000000      -0.65186978       0.03508088      -0.52684963
H        0.00000000       0.00000000       0.00000000      -0.50265050      -0.39271820       0.17402610
O        0.00000000       0.00000000       0.00000000       0.21331739      -0.16059744       0.44854045
H        0.00000000       0.00000000       0.00000000      -0.08740522       0.18510032      -0.02002963
H        0.00000000       0.00000000       0.00000000      -0.21172833       0.77253258      -0.15150473
H        0.00000000       0.00000000       0.00000000       0.53978223      -0.02782272       0.60980952
7
Lattice="529.1772105638412 0.0 0.0 0.0 529.1772105638412 0.0 0.0 0.0 529.1772105638412" Properties=species:S:1:pos:R:3:forces_component_raw:R:3 ipi_comment="Step:        1700  Bead:       0 forces_component_raw{ase}  cell{ase}" pbc="T T T"
O        0.00000000       0.00000000       0.00000000       0.63421083      -0.96108449       1.14432001
H        0.00000000       0.00000000       0.00000000      -1.17746866       0.63671947      -1.58932829
H        0.00000000       0.00000000       0.00000000       0.23510279       0.12069505       0.17812127
O        0.00000000       0.00000000       0.00000000      -0.54183865      -1.00963521      -0.24646860
H        0.00000000       0.00000000       0.00000000       0.51992655       0.18591607       0.29276782
H        0.00000000       0.00000000       0.00000000      -0.14395960       1.48185289      -0.14709963
H        0.00000000       0.00000000       0.00000000       0.47402677      -0.45446381       0.36768711
7
Lattice="529.1772105638412 0.0 0.0 0.0 529.1772105638412 0.0 0.0 0.0 529.1772105638412" Properties=species:S:1:pos:R:3:forces_component_raw:R:3 ipi_comment="Step:        1720  Bead:       0 forces_component_raw{ase}  cell{ase}" pbc="T T T"
O        0.00000000       0.00000000       0.00000000       1.41432548      -1.00841403       3.66261268
H        0.00000000       0.00000000       0.00000000      -1.48831296       0.75014413      -1.76147342
H        0.00000000       0.00000000       0.00000000       0.71516407       1.22129059      -0.74931264
O        0.00000000       0.00000000       0.00000000      -0.76465970      -1.97851468      -0.00399178
H        0.00000000       0.00000000       0.00000000      -0.35013235      -0.49467051      -0.76866502
H        0.00000000       0.00000000       0.00000000       0.45349223       1.41072595      -0.27028093
H        0.00000000       0.00000000       0.00000000       0.02012318       0.09943891      -0.10888907
7
Lattice="529.1772105638412 0.0 0.0 0.0 529.1772105638412 0.0 0.0 0.0 529.1772105638412" Properties=species:S:1:pos:R:3:forces_component_raw:R:3 ipi_comment="Step:        1740  Bead:       0 forces_component_raw{ase}  cell{ase}" pbc="T T T"
O        0.00000000       0.00000000       0.00000000       0.70051223      -1.48296643       2.67558241
H        0.00000000       0.00000000       0.00000000      -0.90817356       1.07744575      -1.74479604
H        0.00000000       0.00000000       0.00000000       0.89125061       1.12804318      -0.18849802
O        0.00000000       0.00000000       0.00000000      -0.16289824      -2.32839156      -0.94487614
H        0.00000000       0.00000000       0.00000000       0.38619694       0.18269073       0.67582828
H        0.00000000       0.00000000       0.00000000       0.22188312       1.11020458      -0.23355719
H        0.00000000       0.00000000       0.00000000      -1.12877119       0.31297404      -0.23968300
7
Lattice="529.1772105638412 0.0 0.0 0.0 529.1772105638412 0.0 0.0 0.0 529.1772105638412" Properties=species:S:1:pos:R:3:forces_component_raw:R:3 ipi_comment="Step:        1760  Bead:       0 forces_component_raw{ase}  cell{ase}" pbc="T T T"
O        0.00000000       0.00000000       0.00000000       0.56664211      -0.15198934       1.03668165
H        0.00000000       0.00000000       0.00000000      -0.37970689       0.18407850      -0.70004869
H        0.00000000       0.00000000       0.00000000      -0.09073757      -0.11752754      -0.20378536
O        0.00000000       0.00000000       0.00000000       0.68810636      -0.57292926       0.30666250
H        0.00000000       0.00000000       0.00000000      -0.13318078       0.15606764      -0.21972685
H        0.00000000       0.00000000       0.00000000       0.13928184       0.15085226      -0.10316457
H        0.00000000       0.00000000       0.00000000      -0.79040516       0.35144782      -0.11661892
7
Lattice="529.1772105638412 0.0 0.0 0.0 529.1772105638412 0.0 0.0 0.0 529.1772105638412" Properties=species:S:1:pos:R:3:forces_component_raw:R:3 ipi_comment="Step:        1780  Bead:       0 forces_component_raw{ase}  cell{ase}" pbc="T T T"
O        0.00000000       0.00000000       0.00000000      -0.19264692       0.47816402      -1.79978562
H        0.00000000       0.00000000       0.00000000       0.26680046      -0.27638120       0.77425057
H        0.00000000       0.00000000       0.00000000      -0.58191228      -0.64088410       0.38557655
O        0.00000000       0.00000000       0.00000000       0.42601639       1.86107755       0.69410104
H        0.00000000       0.00000000       0.00000000       0.04252569      -0.09085557      -0.10121355
H        0.00000000       0.00000000       0.00000000       0.07950056      -1.37764931       0.12244794
H        0.00000000       0.00000000       0.00000000      -0.04028386       0.04652852      -0.07537685
7
Lattice="529.1772105638412 0.0 0.0 0.0 529.1772105638412 0.0 0.0 0.0 529.1772105638412" Properties=species:S:1:pos:R:3:forces_component_raw:R:3 ipi_comment="Step:        1800  Bead:       0 forces_component_raw{ase}  cell{ase}" pbc="T T T"
O        0.00000000       0.00000000       0.00000000       0.37314966       0.56757504      -2.45446182
H        0.00000000       0.00000000       0.00000000       0.07286884      -0.32965314       1.67289126
H        0.00000000       0.00000000       0.00000000      -0.85062498      -0.53398478       0.27149662
O        0.00000000       0.00000000       0.00000000      -0.40938923       1.96885348      -0.26414788
H        0.00000000       0.00000000       0.00000000       0.21111202       0.49931717       0.54261524
H        0.00000000       0.00000000       0.00000000       0.10995981      -2.10035110      -0.00554197
H        0.00000000       0.00000000       0.00000000       0.49292386      -0.07175669       0.23714843
7
Lattice="529.1772105638412 0.0 0.0 0.0 529.1772105638412 0.0 0.0 0.0 529.1772105638412" Properties=species:S:1:pos:R:3:forces_component_raw:R:3 ipi_comment="Step:        1820  Bead:       0 forces_component_raw{ase}  cell{ase}" pbc="T T T"
O        0.00000000       0.00000000       0.00000000      -0.34218359      -0.20772578      -1.02259922
H        0.00000000       0.00000000       0.00000000       0.10258564       0.09686558       0.61399210
H        0.00000000       0.00000000       0.00000000      -0.70186597      -0.29865402       0.04873392
O        0.00000000       0.00000000       0.00000000      -0.96900267       1.87407709       0.40462273
H        0.00000000       0.00000000       0.00000000       0.51093620      -0.30705294      -0.47779885
H        0.00000000       0.00000000       0.00000000       0.49277595      -1.27981615       0.08793637
H        0.00000000       0.00000000       0.00000000       0.90675438       0.12230605       0.34511298
7
Lattice="529.1772105638412 0.0 0.0 0.0 529.1772105638412 0.0 0.0 0.0 529.1772105638412" Properties=species:S:1:pos:R:3:forces_component_raw:R:3 ipi_comment="Step:        1840  Bead:       0 forces_component_raw{ase}  cell{ase}" pbc="T T T"
O        0.00000000       0.00000000       0.00000000       0.05237579       0.01532322       0.03452641
H        0.00000000       0.00000000       0.00000000      -0.02448544      -0.07491084      -0.15566963
H        0.00000000       0.00000000       0.00000000      -0.11861503      -0.04613046      -0.11707567
O        0.00000000       0.00000000       0.00000000      -0.27054632       0.28068507      -0.07149428
H        0.00000000       0.00000000       0.00000000      -0.36958340       0.18822376       0.22268902
H        0.00000000       0.00000000       0.00000000      -0.49987075       0.12462622      -0.06822845
H        0.00000000       0.00000000       0.00000000       1.23072505      -0.48781711       0.15525240
7
Lattice="529.1772105638412 0.0 0.0 0.0 529.1772105638412 0.0 0.0 0.0 529.1772105638412" Properties=species:S:1:pos:R:3:forces_component_raw:R:3 ipi_comment="Step:        1860  Bead:       0 forces_component_raw{ase}  cell{ase}" pbc="T T T"
O        0.00000000       0.00000000       0.00000000      -1.69481874       0.79286015       1.43038476
H        0.00000000       0.00000000       0.00000000       0.54507470      -0.26140368      -0.66697979
H        0.00000000       0.00000000       0.00000000       1.87821222       0.01238896       0.04223001
O        0.00000000       0.00000000       0.00000000      -1.50899208      -0.99915117      -0.68032384
H        0.00000000       0.00000000       0.00000000       0.01376265      -0.31359696      -0.17113295
H        0.00000000       0.00000000       0.00000000       0.00173827       1.16882873       0.45288932
H        0.00000000       0.00000000       0.00000000       0.76502276      -0.39992592      -0.40706748
7
Lattice="529.1772105638412 0.0 0.0 0.0 529.1772105638412 0.0 0.0 0.0 529.1772105638412" Properties=species:S:1:pos:R:3:forces_component_raw:R:3 ipi_comment="Step:        1880  Bead:       0 forces_component_raw{ase}  cell{ase}" pbc="T T T"
O        0.00000000       0.00000000       0.00000000      -1.19730497       1.44023586       1.61627996
H        0.00000000       0.00000000       0.00000000       0.23379599      -0.60617739      -1.02087295
H        0.00000000       0.00000000       0.00000000       2.01977754      -0.51282257       0.18954174
O        0.00000000       0.00000000       0.00000000      -0.85014105      -1.66806555      -0.64304876
H        0.00000000       0.00000000       0.00000000      -0.23990527       0.31115693      -0.15441215
H        0.00000000       0.00000000       0.00000000       0.13615884       0.95157653       0.20940629
H        0.00000000       0.00000000       0.00000000      -0.10238129       0.08409628      -0.19689405
7
Lattice="529.1772105638412 0.0 0.0 0.0 529.1772105638412 0.0 0.0 0.0 529.1772105638412" Properties=species:S:1:pos:R:3:forces_component_raw:R:3 ipi_comment="Step:        1900  Bead:       0 forces_component_raw{ase}  cell{ase}" pbc="T T T"
O        0.00000000       0.00000000       0.00000000      -0.51849848       0.67309976       0.78199315
H        0.00000000       0.00000000       0.00000000       0.10276228      -0.26934916      -0.62486404
H        0.00000000       0.00000000       0.00000000       0.42051661      -0.33453885      -0.05512477
O        0.00000000       0.00000000       0.00000000       0.38063502      -1.01780486      -0.93352682
H        0.00000000       0.00000000       0.00000000       0.47712845      -0.06861362       0.20160064
H        0.00000000       0.00000000       0.00000000      -0.06355314       0.97356880       0.60627711
H        0.00000000       0.00000000       0.00000000      -0.79899073       0.04363796       0.02364487
7
Lattice="529.1772105638412 0.0 0.0 0.0 529.1772105638412 0.0 0.0 0.0 529.1772105638412" Properties=species:S:1:pos:R:3:forces_component_raw:R:3 ipi_comment="Step:        1920  Bead:       0 forces_component_raw{ase}  cell{ase}" pbc="T T T"
O        0.00000000       0.00000000       0.00000000       0.12615526      -1.46288443      -0.33302060
H        0.00000000       0.00000000       0.00000000      -0.04907507       0.05431569       0.04367679
H        0.00000000       0.00000000       0.00000000      -0.86122453       0.97895670      -0.51684678
O        0.00000000       0.00000000       0.00000000       1.66676629      -0.90937710      -0.31138891
H        0.00000000       0.00000000       0.00000000       0.01162557       0.17136760       0.33348888
H        0.00000000       0.00000000       0.00000000      -0.24493715       0.92913205       0.64146364
H        0.00000000       0.00000000       0.00000000      -0.64931035       0.23848933       0.14262705
7
Lattice="529.1772105638412 0.0 0.0 0.0 529.1772105638412 0.0 0.0 0.0 529.1772105638412" Properties=species:S:1:pos:R:3:forces_component_raw:R:3 ipi_comment="Step:        1940  Bead:       0 forces_component_raw{ase}  cell{ase}" pbc="T T T"
O        0.00000000       0.00000000       0.00000000       0.91109753      -0.93258792       1.04172993
H        0.00000000       0.00000000       0.00000000      -0.00545958       0.48744762       0.48741764
H        0.00000000       0.00000000       0.00000000      -0.49828115       1.02797926      -0.74677050
O        0.00000000       0.00000000       0.00000000       0.47714424       0.38007978       0.62683845
H        0.00000000       0.00000000       0.00000000      -0.80265039      -0.76875752      -1.00122917
H        0.00000000       0.00000000       0.00000000       0.28228307      -0.44670385      -0.50676131
H        0.00000000       0.00000000       0.00000000      -0.36413360       0.25254276       0.09877487
7
Lattice="529.1772105638412 0.0 0.0 0.0 529.1772105638412 0.0 0.0 0.0 529.1772105638412" Properties=species:S:1:pos:R:3:forces_component_raw:R:3 ipi_comment="Step:        1960  Bead:       0 forces_component_raw{ase}  cell{ase}" pbc="T T T"
O        0.00000000       0.00000000       0.00000000       0.06477213      -2.69895936      -0.90430010
H        0.00000000       0.00000000       0.00000000      -0.42091227       0.66232896       0.63278616
H        0.00000000       0.00000000       0.00000000      -0.21404032       1.54631818      -0.50926989
O        0.00000000       0.00000000       0.00000000      -0.73906326       1.35334444       1.81253624
H        0.00000000       0.00000000       0.00000000      -0.12151986       0.21489775       0.44611836
H        0.00000000       0.00000000       0.00000000       1.00733197      -1.27777636      -1.84305561
H        0.00000000       0.00000000       0.00000000       0.42343146       0.19984636       0.36518490
7
Lattice="529.1772105638412 0.0 0.0 0.0 529.1772105638412 0.0 0.0 0.0 529.1772105638412" Properties=species:S:1:pos:R:3:forces_component_raw:R:3 ipi_comment="Step:        1980  Bead:       0 forces_component_raw{ase}  cell{ase}" pbc="T T T"
O        0.00000000       0.00000000       0.00000000       0.55575872      -1.14676082       1.01314807
H        0.00000000       0.00000000       0.00000000      -0.20299223       0.16666544      -0.06307864
H        0.00000000       0.00000000       0.00000000      -0.48008549       0.98244727      -0.86743057
O        0.00000000       0.00000000       0.00000000      -1.24759054       1.40071428       2.47334791
H        0.00000000       0.00000000       0.00000000       0.34407678      -0.28011075      -0.45709705
H        0.00000000       0.00000000       0.00000000       1.04740131      -1.04971349      -2.07168556
H        0.00000000       0.00000000       0.00000000      -0.01656854      -0.07324192      -0.02720414
7
Lattice="529.1772105638412 0.0 0.0 0.0 529.1772105638412 0.0 0.0 0.0 529.1772105638412" Properties=species:S:1:pos:R:3:forces_component_raw:R:3 ipi_comment="Step:        2000  Bead:       0 forces_component_raw{ase}  cell{ase}" pbc="T T T"
O        0.00000000       0.00000000       0.00000000       0.55272019       0.93420994       0.38192403
H        0.00000000       0.00000000       0.00000000      -0.06412260      -0.78047997      -0.08917438
H        0.00000000       0.00000000       0.00000000       0.17763273       0.02562326       0.35022485
O        0.00000000       0.00000000       0.00000000      -0.19157416      -1.04298938      -0.06050998
H        0.00000000       0.00000000       0.00000000       0.36785102       0.60126364       0.56794012
H        0.00000000       0.00000000       0.00000000       0.22399297      -0.26536477      -0.92232764
H        0.00000000       0.00000000       0.00000000      -1.06650031       0.52773726      -0.22807689
7
Lattice="529.1772105638412 0.0 0.0 0.0 529.1772105638412 0.0 0.0 0.0 529.1772105638412" Properties=species:S:1:pos:R:3:forces_component_raw:R:3 ipi_comment="Step:        2020  Bead:       0 forces_component_raw{ase}  cell{ase}" pbc="T T T"
O        0.00000000       0.00000000       0.00000000       0.56424207       1.93209088      -0.83501852
H        0.00000000       0.00000000       0.00000000      -0.18686765      -0.82574398       0.17380673
H        0.00000000       0.00000000       0.00000000       0.31771573      -0.67683160       1.31524623
O        0.00000000       0.00000000       0.00000000       0.39909560      -0.51298189      -0.47645778
H        0.00000000       0.00000000       0.00000000      -0.16435599      -0.26279312      -0.22189409
H        0.00000000       0.00000000       0.00000000       0.08281675      -0.14520752       0.08884138
H        0.00000000       0.00000000       0.00000000      -1.01264656       0.49146721      -0.04452413
7
Lattice="529.1772105638412 0.0 0.0 0.0 529.1772105638412 0.0 0.0 0.0 529.1772105638412" Properties=species:S:1:pos:R:3:forces_component_raw:R:3 ipi_comment="Step:        2040  Bead:       0 forces_component_raw{ase}  cell{ase}" pbc="T T T"
O        0.00000000       0.00000000       0.00000000       0.10215014       0.66281724      -1.21889401
H        0.00000000       0.00000000       0.00000000      -0.24299529      -0.32111821       0.05452566
H        0.00000000       0.00000000       0.00000000       0.05266014      -0.41421449       1.28640139
O        0.00000000       0.00000000       0.00000000       1.26752377      -0.54372227      -0.87254250
H        0.00000000       0.00000000       0.00000000       0.09870136       0.04166344      -0.29157120
H        0.00000000       0.00000000       0.00000000      -0.70017040       0.22077699       1.17648590
H        0.00000000       0.00000000       0.00000000      -0.57786965       0.35379744      -0.13440543
7
Lattice="529.1772105638412 0.0 0.0 0.0 529.1772105638412 0.0 0.0 0.0 529.1772105638412" Properties=species:S:1:pos:R:3:forces_component_raw:R:3 ipi_comment="Step:        2060  Bead:       0 forces_component_raw{ase}  cell{ase}" pbc="T T T"
O        0.00000000       0.00000000       0.00000000      -0.44648039      -0.12465405      -0.35608557
H        0.00000000       0.00000000       0.00000000      -0.05928817       0.00333154      -0.04060736
H        0.00000000       0.00000000       0.00000000       0.01534572      -0.03861141       0.09740806
O        0.00000000       0.00000000       0.00000000       1.04474879      -0.14554778      -0.72915065
H        0.00000000       0.00000000       0.00000000       0.12966646      -0.06644616      -0.07741834
H        0.00000000       0.00000000       0.00000000      -0.98908025       0.51948691       1.26386452
H        0.00000000       0.00000000       0.00000000       0.30508804      -0.14755890      -0.15801057
7
Lattice="529.1772105638412 0.0 0.0 0.0 529.1772105638412 0.0 0.0 0.0 529.1772105638412" Properties=species:S:1:pos:R:3:forces_component_raw:R:3 ipi_comment="Step:        2080  Bead:       0 forces_component_raw{ase}  cell{ase}" pbc="T T T"
O        0.00000000       0.00000000       0.00000000      -1.10919893      -1.22352219       0.17174104
H        0.00000000       0.00000000       0.00000000       0.33987439       0.72786570       0.12446186
H        0.00000000       0.00000000       0.00000000       0.32509276       0.33854470      -0.60447288
O        0.00000000       0.00000000       0.00000000      -0.38078088       0.38214171      -1.50729227
H        0.00000000       0.00000000       0.00000000       0.22896412      -0.00340387       0.00990716
H        0.00000000       0.00000000       0.00000000      -0.34278643       0.37395656       1.45209253
H        0.00000000       0.00000000       0.00000000       0.93883485      -0.59558272       0.35356268
7
Lattice="529.1772105638412 0.0 0.0 0.0 529.1772105638412 0.0 0.0 0.0 529.1772105638412" Properties=species:S:1:pos:R:3:forces_component_raw:R:3 ipi_comment="Step:        2100  Bead:       0 forces_component_raw{ase}  cell{ase}" pbc="T T T"
O        0.00000000       0.00000000       0.00000000      -0.73849172      -1.90026367       1.11609137
H        0.00000000       0.00000000       0.00000000       0.91662789       1.78134001      -0.26121914
H        0.00000000       0.00000000       0.00000000       0.05770559       0.04616907      -0.72999245
O        0.00000000       0.00000000       0.00000000      -0.69976002       0.54479045      -0.81971276
H        0.00000000       0.00000000       0.00000000      -0.40808749       0.11255756      -0.13284466
H        0.00000000       0.00000000       0.00000000      -0.53588319       0.38473985       0.90735376
H        0.00000000       0.00000000       0.00000000       1.40788877      -0.96933329      -0.07967629
7
Lattice="529.1772105638412 0.0 0.0 0.0 529.1772105638412 0.0 0.0 0.0 529.1772105638412" Properties=species:S:1:pos:R:3:forces_component_raw:R:3 ipi_comment="Step:        2120  Bead:       0 forces_component_raw{ase}  cell{ase}" pbc="T T T"
O        0.00000000       0.00000000       0.00000000      -0.34183925      -1.05428827       1.01901770
H        0.00000000       0.00000000       0.00000000       0.49744183       1.01845169       0.14999056
H        0.00000000       0.00000000       0.00000000       0.17265767       0.33486682      -0.68835700
O        0.00000000       0.00000000       0.00000000      -1.24937606       0.60530585      -0.66706169
H        0.00000000       0.00000000       0.00000000       0.31429479      -0.41295207      -0.42989290
H        0.00000000       0.00000000       0.00000000       0.00942390       0.15196535       0.63273525
H        0.00000000       0.00000000       0.00000000       0.59739685      -0.64334929      -0.01643184
7
Lattice="529.1772105638412 0.0 0.0 0.0 529.1772105638412 0.0 0.0 0.0 529.1772105638412" Properties=species:S:1:pos:R:3:forces_component_raw:R:3 ipi_comment="Step:        2140  Bead:       0 forces_component_raw{ase}  cell{ase}" pbc="T T T"
O        0.00000000       0.00000000       0.00000000       0.43899450      -0.06815211       0.90308857
H        0.00000000       0.00000000       0.00000000      -0.00203738      -0.07428586       0.07230146
H        0.00000000       0.00000000       0.00000000      -0.04713405       0.22475010      -0.70959920
O        0.00000000       0.00000000       0.00000000      -0.02765808      -0.81051386      -0.09105083
H        0.00000000       0.00000000       0.00000000       0.10788974       0.58060289       0.67625761
H        0.00000000       0.00000000       0.00000000      -0.24684587      -0.12486663      -0.64392734
H        0.00000000       0.00000000       0.00000000      -0.22320890       0.27246544      -0.20707043
7
Lattice="529.1772105638412 0.0 0.0 0.0 529.1772105638412 0.0 0.0 0.0 529.1772105638412" Properties=species:S:1:pos:R:3:forces_component_raw:R:3 ipi_comment="Step:        2160  Bead:       0 forces_component_raw{ase}  cell{ase}" pbc="T T T"
O        0.00000000       0.00000000       0.00000000       0.53646743       1.04996217       0.27680668
H        0.00000000       0.00000000       0.00000000      -0.48679867      -1.17651201      -0.00656690
H        0.00000000       0.00000000       0.00000000      -0.13291717       0.13734558      -0.15396011
O        0.00000000       0.00000000       0.00000000       0.64886326      -0.35483265       0.87058354
H        0.00000000       0.00000000       0.00000000       0.20570645      -0.15286416      -0.42486459
H        0.00000000       0.00000000       0.00000000       0.42514223      -0.35205999      -0.32718599
H        0.00000000       0.00000000       0.00000000      -1.19646371       0.84896112      -0.23481250
7
Lattice="529.1772105638412 0.0 0.0 0.0 529.1772105638412 0.0 0.0 0.0 529.1772105638412" Properties=species:S:1:pos:R:3:forces_component_raw:R:3 ipi_comment="Step:        2180  Bead:       0 forces_component_raw{ase}  cell{ase}" pbc="T T T"
O        0.00000000       0.00000000       0.00000000      -0.08113498       1.31411076      -1.33908987
H        0.00000000       0.00000000       0.00000000      -0.32458294      -1.24190259       0.19082555
H        0.00000000       0.00000000       0.00000000       0.06974666      -0.16156471       0.69512659
O        0.00000000       0.00000000       0.00000000       0.99597728      -0.16705048       1.06965626
H        0.00000000       0.00000000       0.00000000      -0.14233881       0.04800999       0.17342293
H        0.00000000       0.00000000       0.00000000       0.29019731      -0.60838515      -0.58292580
H        0.00000000       0.00000000       0.00000000      -0.80786467       0.81678224      -0.20701557
7
Lattice="529.1772105638412 0.0 0.0 0.0 529.1772105638412 0.0 0.0 0.0 529.1772105638412" Properties=species:S:1:pos:R:3:forces_component_raw:R:3 ipi_comment="Step:        2200  Bead:       0 forces_component_raw{ase}  cell{ase}" pbc="T T T"
O        0.00000000       0.00000000       0.00000000       0.12444747       1.26556635      -0.92679191
H        0.00000000       0.00000000       0.00000000      -0.40100610      -0.68187499      -0.44348163
H        0.00000000       0.00000000       0.00000000      -0.10375595      -0.73133075       1.03788996
O        0.00000000       0.00000000       0.00000000       0.62845379       0.70573908       1.57105506
H        0.00000000       0.00000000       0.00000000       0.12271266      -0.11012119       0.06127474
H        0.00000000       0.00000000       0.00000000       0.14675219      -0.81137544      -0.82122600
H        0.00000000       0.00000000       0.00000000      -0.51760405       0.36339676      -0.47872049
7
Lattice="529.1772105638412 0.0 0.0 0.0 529.1772105638412 0.0 0.0 0.0 529.1772105638412" Properties=species:S:1:pos:R:3:forces_component_raw:R:3 ipi_comment="Step:        2220  Bead:       0 forces_component_raw{ase}  cell{ase}" pbc="T T T"
O        0.00000000       0.00000000       0.00000000      -0.37900263      -0.52009124      -0.79545027
H        0.00000000       0.00000000       0.00000000       0.02401212       0.24781352       0.21632683
H        0.00000000       0.00000000       0.00000000       0.17527798       0.12576813       0.56427848
O        0.00000000       0.00000000       0.00000000      -0.24518579       0.01784384       0.05915526
H        0.00000000       0.00000000       0.00000000       0.23289174       0.19087425       0.07075429
H        0.00000000       0.00000000       0.00000000       0.18274573      -0.32750452      -0.13288528
H        0.00000000       0.00000000       0.00000000       0.00926089       0.26529616       0.01782063
7
Lattice="529.1772105638412 0.0 0.0 0.0 529.1772105638412 0.0 0.0 0.0 529.1772105638412" Properties=species:S:1:pos:R:3:forces_component_raw:R:3 ipi_comment="Step:        2240  Bead:       0 forces_component_raw{ase}  cell{ase}" pbc="T T T"
O        0.00000000       0.00000000       0.00000000       0.29073265       0.59220135       0.38647610
H        0.00000000       0.00000000       0.00000000       0.26598045       0.06024879      -0.15591502
H        0.00000000       0.00000000       0.00000000      -0.08945156      -0.26031110      -0.17471230
O        0.00000000       0.00000000       0.00000000      -0.03924349      -0.29519245      -1.11351514
H        0.00000000       0.00000000       0.00000000      -0.50990892      -0.52780271       0.20722994
H        0.00000000       0.00000000       0.00000000      -0.18224478       1.08365870       0.41208747
H        0.00000000       0.00000000       0.00000000       0.26413566      -0.65280283       0.43834910
7
Lattice="529.1772105638412 0.0 0.0 0.0 529.1772105638412 0.0 0.0 0.0 529.1772105638412" Properties=species:S:1:pos:R:3:forces_component_raw:R:3 ipi_comment="Step:        2260  Bead:       0 forces_component_raw{ase}  cell{ase}" pbc="T T T"
O        0.00000000       0.00000000       0.00000000      -0.89249253      -0.64403069      -0.01472333
H        0.00000000       0.00000000       0.00000000       0.23165390       0.45677978       0.08584182
H        0.00000000       0.00000000       0.00000000       0.40003270       0.10008031       0.31032404
O        0.00000000       0.00000000       0.00000000      -0.43152705      -1.04799509      -1.18819571
H        0.00000000       0.00000000       0.00000000       0.73748303       0.49836391      -0.15197726
H        0.00000000       0.00000000       0.00000000      -0.35504660       1.57646168       0.26286611
H        0.00000000       0.00000000       0.00000000       0.30989662      -0.93965984       0.69586438
7
Lattice="529.1772105638412 0.0 0.0 0.0 529.1772105638412 0.0 0.0 0.0 529.1772105638412" Properties=species:S:1:pos:R:3:forces_component_raw:R:3 ipi_comment="Step:        2280  Bead:       0 forces_component_raw{ase}  cell{ase}" pbc="T T T"
O        0.00000000       0.00000000       0.00000000       0.26158142      -0.28106654       0.65554369
H        0.00000000       0.00000000       0.00000000       0.55334163       0.78850603      -0.26509199
H        0.00000000       0.00000000       0.00000000      -0.41867763      -0.26580209      -0.79180807
O        0.00000000       0.00000000       0.00000000       0.66959298      -0.78833389      -1.98250008
H        0.00000000       0.00000000       0.00000000      -0.87294948      -0.51445067       0.37984741
H        0.00000000       0.00000000       0.00000000      -0.02435142       1.44936586       1.24233485
H        0.00000000       0.00000000       0.00000000      -0.16853750      -0.38821858       0.76167399
7
Lattice="529.1772105638412 0.0 0.0 0.0 529.1772105638412 0.0 0.0 0.0 529.1772105638412" Properties=species:S:1:pos:R:3:forces_component_raw:R:3 ipi_comment="Step:        2300  Bead:       0 forces_component_raw{ase}  cell{ase}" pbc="T T T"
O        0.00000000       0.00000000       0.00000000      -2.00485707      -2.18496871       0.12449621
H        0.00000000       0.00000000       0.00000000       0.98423767       1.36750543       0.11679092
H        0.00000000       0.00000000       0.00000000       0.39778841       0.51345801      -0.36769992
O        0.00000000       0.00000000       0.00000000       0.14528412      -1.57211137       0.43290523
H        0.00000000       0.00000000       0.00000000       0.34413219       0.40171835      -0.49383491
H        0.00000000       0.00000000       0.00000000       0.13919042       1.67459655       0.37222946
H        0.00000000       0.00000000       0.00000000      -0.00577581      -0.20019847      -0.18488687
7
Lattice="529.1772105638412 0.0 0.0 0.0 529.1772105638412 0.0 0.0 0.0 529.1772105638412" Properties=species:S:1:pos:R:3:forces_component_raw:R:3 ipi_comment="Step:        2320  Bead:       0 forces_component_raw{ase}  cell{ase}" pbc="T T T"
O        0.00000000       0.00000000       0.00000000       0.10545594      -0.08260247      -0.05000591
H        0.00000000       0.00000000       0.00000000       0.49184889       0.48136386      -0.43562871
H        0.00000000       0.00000000       0.00000000      -0.52677697      -0.33874920       0.18488020
O        0.00000000       0.00000000       0.00000000      -0.42581791      -0.63598722      -0.28884390
H        0.00000000       0.00000000       0.00000000      -0.04764296      -0.24077953       0.34723657
H        0.00000000       0.00000000       0.00000000       0.42430544       0.57628131       0.37437996
H        0.00000000       0.00000000       0.00000000      -0.02137262       0.24047321      -0.13201824
7
Lattice="529.1772105638412 0.0 0.0 0.0 529.1772105638412 0.0 0.0 0.0 529.1772105638412" Properties=species:S:1:pos:R:3:forces_component_raw:R:3 ipi_comment="Step:        2340  Bead:       0 forces_component_raw{ase}  cell{ase}" pbc="T T T"
O        0.00000000       0.00000000       0.00000000       0.46058372       0.12733841      -0.28946734
H        0.00000000       0.00000000       0.00000000      -0.38374320      -0.34848407       0.15350810
H        0.00000000       0.00000000       0.00000000       0.09490374       0.22037476       0.81107557
O        0.00000000       0.00000000       0.00000000       0.17383698       1.07388258       0.03466678
H        0.00000000       0.00000000       0.00000000       0.01300941       0.11207181      -0.49070352
H        0.00000000       0.00000000       0.00000000      -0.44582048      -0.90000004      -0.35180527
H        0.00000000       0.00000000       0.00000000       0.08722983      -0.28518337       0.13272584
7
Lattice="529.1772105638412 0.0 0.0 0.0 529.1772105638412 0.0 0.0 0.0 529.1772105638412" Properties=species:S:1:pos:R:3:forces_component_raw:R:3 ipi_comment="Step:        2360  Bead:       0 forces_component_raw{ase}  cell{ase}" pbc="T T T"
O        0.00000000       0.00000000       0.00000000       0.81838286       1.02719999      -0.39743590
H        0.00000000       0.00000000       0.00000000      -0.10863090      -0.64587271      -0.38363248
H        0.00000000       0.00000000       0.00000000      -0.56136602      -0.26325461       0.86244828
O        0.00000000       0.00000000       0.00000000       0.18130380       2.79057599      -0.97077614
H        0.00000000       0.00000000       0.00000000       0.09859421       0.02606189       0.44235757
H        0.00000000       0.00000000       0.00000000      -1.04522717      -2.81939698      -0.00460649
H        0.00000000       0.00000000       0.00000000       0.61694318      -0.11531356       0.45164535
7
Lattice="529.1772105638412 0.0 0.0 0.0 529.1772105638412 0.0 0.0 0.0 529.1772105638412" Properties=species:S:1:pos:R:3:forces_component_raw:R:3 ipi_comment="Step:        2380  Bead:       0 forces_component_raw{ase}  cell{ase}" pbc="T T T"
O        0.00000000       0.00000000       0.00000000       0.81495840       0.35655296      -1.13888026
H        0.00000000       0.00000000       0.00000000      -0.43834427      -0.41307056       0.24159229
H        0.00000000       0.00000000       0.00000000      -0.19401878       0.15983027       1.17463887
O        0.00000000       0.00000000       0.00000000       1.03029084       3.04756785      -0.71531189
H        0.00000000       0.00000000       0.00000000      -0.04558379       0.02513483      -0.03171866
H        0.00000000       0.00000000       0.00000000      -1.52382756      -2.46898127       0.02060263
H        0.00000000       0.00000000       0.00000000       0.35652527      -0.70703375       0.44907698
7
Lattice="529.1772105638412 0.0 0.0 0.0 529.1772105638412 0.0 0.0 0.0 529.1772105638412" Properties=species:S:1:pos:R:3:forces_component_raw:R:3 ipi_comment="Step:        2400  Bead:       0 forces_component_raw{ase}  cell{ase}" pbc="T T T"
O        0.00000000       0.00000000       0.00000000       0.52895844       0.47670895      -0.25634620
H        0.00000000       0.00000000       0.00000000      -0.45646751      -0.33698076      -0.03395434
H        0.00000000       0.00000000       0.00000000      -0.17884801      -0.02000147       0.46311653
O        0.00000000       0.00000000       0.00000000      -0.09822464       1.63311100      -0.15691072
H        0.00000000       0.00000000       0.00000000       0.24026772      -0.39930287      -0.36548954
H        0.00000000       0.00000000       0.00000000      -0.50858241      -1.31057453       0.25793031
H        0.00000000       0.00000000       0.00000000       0.47289622      -0.04296023       0.09165394
7
Lattice="529.1772105638412 0.0 0.0 0.0 529.1772105638412 0.0 0.0 0.0 529.1772105638412" Properties=species:S:1:pos:R:3:forces_component_raw:R:3 ipi_comment="Step:        2420  Bead:       0 forces_component_raw{ase}  cell{ase}" pbc="T T T"
O        0.00000000       0.00000000       0.00000000      -0.38458523      -0.30424005      -0.34765309
H        0.00000000       0.00000000       0.00000000       0.51834822       0.26927146       0.23750994
H        0.00000000       0.00000000       0.00000000      -0.02066969       0.05530363      -0.09949946
O        0.00000000       0.00000000       0.00000000       0.18122011      -1.17848122       0.36406016
H        0.00000000       0.00000000       0.00000000      -0.04609638       0.30668226       0.14641181
H        0.00000000       0.00000000       0.00000000       0.14073773       0.40933970      -0.21674991
H        0.00000000       0.00000000       0.00000000      -0.38895479       0.44212413      -0.08407938
7
Lattice="529.1772105638412 0.0 0.0 0.0 529.1772105638412 0.0 0.0 0.0 529.1772105638412" Properties=species:S:1:pos:R:3:forces_component_raw:R:3 ipi_comment="Step:        2440  Bead:       0 forces_component_raw{ase}  cell{ase}" pbc="T T T"
O        0.00000000       0.00000000       0.00000000       0.21272749       0.04415825       0.61657262
H        0.00000000       0.00000000       0.00000000       0.29469633       0.15318221      -0.27329773
H        0.00000000       0.00000000       0.00000000      -0.42564315      -0.20240936      -0.53319574
O        0.00000000       0.00000000       0.00000000       0.20912454      -1.43874705       0.51047814
H        0.00000000       0.00000000       0.00000000      -0.18119186      -0.12753119       0.08059881
H        0.00000000       0.00000000       0.00000000       0.55340517       0.23999786       0.07249673
H        0.00000000       0.00000000       0.00000000      -0.66311836       1.33134938      -0.47365275
7
Lattice="529.1772105638412 0.0 0.0 0.0 529.1772105638412 0.0 0.0 0.0 529.1772105638412" Properties=species:S:1:pos:R:3:forces_component_raw:R:3 ipi_comment="Step:        2460  Bead:       0 forces_component_raw{ase}  cell{ase}" pbc="T T T"
O        0.00000000       0.00000000       0.00000000      -0.87993443      -0.65022177       0.80206436
H        0.00000000       0.00000000       0.00000000       0.19130006      -0.14233920       0.03444703
H        0.00000000       0.00000000       0.00000000       0.44857562       0.54644847      -0.75225598
O        0.00000000       0.00000000       0.00000000      -0.01139829      -1.38637042       0.80203039
H        0.00000000       0.00000000       0.00000000       0.22452958       0.15959010      -0.19811305
H        0.00000000       0.00000000       0.00000000       0.56637275       0.32736936      -0.09419625
H        0.00000000       0.00000000       0.00000000      -0.53944540       1.14552355      -0.59397638
7
Lattice="529.1772105638412 0.0 0.0 0.0 529.1772105638412 0.0 0.0 0.0 529.1772105638412" Properties=species:S:1:pos:R:3:forces_component_raw:R:3 ipi_comment="Step:        2480  Bead:       0 forces_component_raw{ase}  cell{ase}" pbc="T T T"
O        0.00000000       0.00000000       0.00000000       1.00618184      -0.28674385       0.03294456
H        0.00000000       0.00000000       0.00000000      -0.55134928       0.26589990      -0.42192239
H        0.00000000       0.00000000       0.00000000      -0.43403912      -0.08522877       0.27035475
O        0.00000000       0.00000000       0.00000000      -0.41335571      -0.24806194       0.05595386
H        0.00000000       0.00000000       0.00000000      -0.31202591       0.00295483       0.20925972
H        0.00000000       0.00000000       0.00000000       0.76553804       0.48510325      -0.19128406
H        0.00000000       0.00000000       0.00000000      -0.06094995      -0.13392329       0.04469365
7
Lattice="529.1772105638412 0.0 0.0 0.0 529.1772105638412 0.0 0.0 0.0 529.1772105638412" Properties=species:S:1:pos:R:3:forces_component_raw:R:3 ipi_comment="Step:        2500  Bead:       0 forces_component_raw{ase}  cell{ase}" pbc="T T T"
O        0.00000000       0.00000000       0.00000000       0.03514331       0.50590873      -1.39458835
H        0.00000000       0.00000000       0.00000000      -0.70026815      -0.14202391       0.40052807
H        0.00000000       0.00000000       0.00000000       0.36072964      -0.45201942       0.91249097
O        0.00000000       0.00000000       0.00000000      -1.37515199       0.24419308      -0.82755429
H        0.00000000       0.00000000       0.00000000       0.37066615       0.03159815       0.00045048
H        0.00000000       0.00000000       0.00000000       0.91637016       0.48088375      -0.47516507
H        0.00000000       0.00000000       0.00000000       0.39251071      -0.66854036       1.38383818
7
Lattice="529.1772105638412 0.0 0.0 0.0 529.1772105638412 0.0 0.0 0.0 529.1772105638412" Properties=species:S:1:pos:R:3:forces_component_raw:R:3 ipi_comment="Step:        2520  Bead:       0 forces_component_raw{ase}  cell{ase}" pbc="T T T"
O        0.00000000       0.00000000       0.00000000       1.63284970       0.75154007      -0.64896095
H        0.00000000       0.00000000       0.00000000      -0.33718503       0.34155989      -0.08396368
H        0.00000000       0.00000000       0.00000000      -0.73767740      -0.58601642       1.09359360
O        0.00000000       0.00000000       0.00000000      -1.04734743       0.27122399      -1.88359571
H        0.00000000       0.00000000       0.00000000      -0.35850450      -0.55225921      -0.25574997
H        0.00000000       0.00000000       0.00000000       0.65179610       0.32459647      -0.33207899
H        0.00000000       0.00000000       0.00000000       0.19606845      -0.55064476       2.11075545
7
Lattice="529.1772105638412 0.0 0.0 0.0 529.1772105638412 0.0 0.0 0.0 529.1772105638412" Properties=species:S:1:pos:R:3:forces_component_raw:R:3 ipi_comment="Step:        2540  Bead:       0 forces_component_raw{ase}  cell{ase}" pbc="T T T"
O        0.00000000       0.00000000       0.00000000       0.70193833       0.38576782      -1.99800730
H        0.00000000       0.00000000       0.00000000      -0.33963677       0.12017964       0.52923882
H        0.00000000       0.00000000       0.00000000      -0.13999581      -0.53614456       1.49980557
O        0.00000000       0.00000000       0.00000000      -0.07066143      -0.05711374      -2.09944201
H        0.00000000       0.00000000       0.00000000       0.19164206       0.37488875       0.30734009
H        0.00000000       0.00000000       0.00000000       0.09307361       0.10656843      -0.18455900
H        0.00000000       0.00000000       0.00000000      -0.43636003      -0.39414632       1.94562388
7
Lattice="529.1772105638412 0.0 0.0 0.0 529.1772105638412 0.0 0.0 0.0 529.1772105638412" Properties=species:S:1:pos:R:3:forces_component_raw:R:3 ipi_comment="Step:        2560  Bead:       0 forces_component_raw{ase}  cell{ase}" pbc="T T T"
O        0.00000000       0.00000000       0.00000000      -0.05057436       0.14699900      -0.33301908
H        0.00000000       0.00000000       0.00000000       0.63512409      -0.04465376      -0.57992125
H        0.00000000       0.00000000       0.00000000      -0.73273337      -0.22297345       0.96859020
O        0.00000000       0.00000000       0.00000000       2.16338993       0.81128317      -1.24003768
H        0.00000000       0.00000000       0.00000000      -0.04968849       0.19985661      -0.21056446
H        0.00000000       0.00000000       0.00000000      -1.10927797      -0.33155125      -0.08115168
H        0.00000000       0.00000000       0.00000000      -0.85623980      -0.55896032       1.47610391
7
Lattice="529.1772105638412 0.0 0.0 0.0 529.1772105638412 0.0 0.0 0.0 529.1772105638412" Properties=species:S:1:pos:R:3:forces_component_raw:R:3 ipi_comment="Step:        2580  Bead:       0 forces_component_raw{ase}  cell{ase}" pbc="T T T"
O        0.00000000       0.00000000       0.00000000      -1.59344173      -0.11807466      -1.37400329
H        0.00000000       0.00000000       0.00000000       1.11344290       0.05390318       0.27481696
H        0.00000000       0.00000000       0.00000000       0.11486900       0.07046200       1.00786102
O        0.00000000       0.00000000       0.00000000       2.75882149       0.90675456      -0.69276083
H        0.00000000       0.00000000       0.00000000       0.00009745      -0.23234057       0.17962091
H        0.00000000       0.00000000       0.00000000      -1.90062523      -0.34225616       0.00864708
H        0.00000000       0.00000000       0.00000000      -0.49316391      -0.33844838       0.59581822
7
Lattice="529.1772105638412 0.0 0.0 0.0 529.1772105638412 0.0 0.0 0.0 529.1772105638412" Properties=species:S:1:pos:R:3:forces_component_raw:R:3 ipi_comment="Step:        2600  Bead:       0 forces_component_raw{ase}  cell{ase}" pbc="T T T"
O        0.00000000       0.00000000       0.00000000      -0.92466295       0.12369716       0.54946703
H        0.00000000       0.00000000       0.00000000       1.34073508       0.00792503      -0.59611172
H        0.00000000       0.00000000       0.00000000      -0.58745468      -0.14983130       0.04265237
O        0.00000000       0.00000000       0.00000000       1.05980397      -0.04490268       0.78753650
H        0.00000000       0.00000000       0.00000000       0.08886972      -0.03657167      -0.46685255
H        0.00000000       0.00000000       0.00000000      -1.22927642      -0.14724293       0.14054716
H        0.00000000       0.00000000       0.00000000       0.25198522       0.24692643      -0.45723856
7
Lattice="529.1772105638412 0.0 0.0 0.0 529.1772105638412 0.0 0.0 0.0 529.1772105638412" Properties=species:S:1:pos:R:3:forces_component_raw:R:3 ipi_comment="Step:        2620  Bead:       0 forces_component_raw{ase}  cell{ase}" pbc="T T T"
O        0.00000000       0.00000000       0.00000000      -1.06645596      -0.25673407      -0.12678465
H        0.00000000       0.00000000       0.00000000       0.64888948       0.27845940       0.54399425
H        0.00000000       0.00000000       0.00000000       0.72635424      -0.20336257      -0.81281442
O        0.00000000       0.00000000       0.00000000      -0.01075023      -0.88016534       3.11711193
H        0.00000000       0.00000000       0.00000000      -0.25576329       0.45311669       0.40567482
H        0.00000000       0.00000000       0.00000000      -0.25634825      -0.03345251      -0.20771200
H        0.00000000       0.00000000       0.00000000       0.21407390       0.64213824      -2.91946984
7
Lattice="529.1772105638412 0.0 0.0 0.0 529.1772105638412 0.0 0.0 0.0 529.1772105638412" Properties=species:S:1:pos:R:3:forces_component_raw:R:3 ipi_comment="Step:        2640  Bead:       0 forces_component_raw{ase}  cell{ase}" pbc="T T T"
O        0.00000000       0.00000000       0.00000000       0.17599633       0.68244165       1.48734439
H        0.00000000       0.00000000       0.00000000      -0.74814522      -0.35408342      -0.50652230
H        0.00000000       0.00000000       0.00000000       0.36866212      -0.36542714      -1.34492266
O        0.00000000       0.00000000       0.00000000      -0.97587818      -0.15229118       3.76897622
H        0.00000000       0.00000000       0.00000000       0.30103076      -0.33427146       0.07993397
H        0.00000000       0.00000000       0.00000000       0.49340388      -0.42560738      -0.09059832
H        0.00000000       0.00000000       0.00000000       0.38493040       0.94923890      -3.39421154
7
Lattice="529.1772105638412 0.0 0.0 0.0 529.1772105638412 0.0 0.0 0.0 529.1772105638412" Properties=species:S:1:pos:R:3:forces_component_raw:R:3 ipi_comment="Step:        2660  Bead:       0 forces_component_raw{ase}  cell{ase}" pbc="T T T"
O        0.00000000       0.00000000       0.00000000       0.90918541       0.35746193      -0.16660073
H        0.00000000       0.00000000       0.00000000      -2.05572772      -0.73624027       0.28025743
H        0.00000000       0.00000000       0.00000000       0.90070200       0.19036788      -0.42408776
O        0.00000000       0.00000000       0.00000000      -0.83889395      -0.73735225       2.29552699
H        0.00000000       0.00000000       0.00000000      -0.09692922      -0.01444316       0.51135433
H        0.00000000       0.00000000       0.00000000       1.13301814       0.23432542      -0.22335634
H        0.00000000       0.00000000       0.00000000       0.04864550       0.70588046      -2.27309394
7
Lattice="529.1772105638412 0.0 0.0 0.0 529.1772105638412 0.0 0.0 0.0 529.1772105638412" Properties=species:S:1:pos:R:3:forces_component_raw:R:3 ipi_comment="Step:        2680  Bead:       0 forces_component_raw{ase}  cell{ase}" pbc="T T T"
O        0.00000000       0.00000000       0.00000000       1.86232782       0.92599601       0.11943924
H        0.00000000       0.00000000       0.00000000      -1.77756286      -1.14890552      -0.46009588
H        0.00000000       0.00000000       0.00000000      -0.29615477      -0.02763573       0.50331080
O        0.00000000       0.00000000       0.00000000      -0.68611741      -0.81126881       0.36608994
H        0.00000000       0.00000000       0.00000000      -0.13463888       0.37304145      -0.30941352
H        0.00000000       0.00000000       0.00000000       0.94981277       0.42634630       0.16490558
H        0.00000000       0.00000000       0.00000000       0.08233321       0.26242644      -0.38423622
7
Lattice="529.1772105638412 0.0 0.0 0.0 529.1772105638412 0.0 0.0 0.0 529.1772105638412" Properties=species:S:1:pos:R:3:forces_component_raw:R:3 ipi_comment="Step:        2700  Bead:       0 forces_component_raw{ase}  cell{ase}" pbc="T T T"
O        0.00000000       0.00000000       0.00000000       0.77834410       0.61039055      -0.82989633
H        0.00000000       0.00000000       0.00000000      -0.80361134      -0.37086773       0.23348196
H        0.00000000       0.00000000       0.00000000       0.00058079       0.04988775       0.91082126
O        0.00000000       0.00000000       0.00000000       0.21983458       1.72567404      -1.83832515
H        0.00000000       0.00000000       0.00000000       0.21475165      -0.41798622       0.13446553
H        0.00000000       0.00000000       0.00000000      -0.52346945      -0.23228782       0.12849510
H        0.00000000       0.00000000       0.00000000       0.11356960      -1.36481059       1.26095748
7
Lattice="529.1772105638412 0.0 0.0 0.0 529.1772105638412 0.0 0.0 0.0 529.1772105638412" Properties=species:S:1:pos:R:3:forces_component_raw:R:3 ipi_comment="Step:        2720  Bead:       0 forces_component_raw{ase}  cell{ase}" pbc="T T T"
O        0.00000000       0.00000000       0.00000000       0.22446400       0.24969563      -0.83032406
H        0.00000000       0.00000000       0.00000000       0.50051785       0.23081155       0.03881150
H        0.00000000       0.00000000       0.00000000      -0.12923208      -0.13326952       1.21582175
O        0.00000000       0.00000000       0.00000000      -1.65110696       1.58411908      -2.16739607
H        0.00000000       0.00000000       0.00000000      -0.14630584       0.33151883      -0.23104537
H        0.00000000       0.00000000       0.00000000      -0.52611685      -0.89875025       0.24929988
H        0.00000000       0.00000000       0.00000000       1.72777987      -1.36412525       1.72483230
7
Lattice="529.1772105638412 0.0 0.0 0.0 529.1772105638412 0.0 0.0 0.0 529.1772105638412" Properties=species:S:1:pos:R:3:forces_component_raw:R:3 ipi_comment="Step:        2740  Bead:       0 forces_component_raw{ase}  cell{ase}" pbc="T T T"
O        0.00000000       0.00000000       0.00000000      -1.68824554       0.43005282      -0.39665753
H        0.00000000       0.00000000       0.00000000       2.45638061      -0.04713517      -0.69970411
H        0.00000000       0.00000000       0.00000000      -0.39181355      -0.12870809       1.05090070
O        0.00000000       0.00000000       0.00000000      -1.00866807       2.77349520      -1.65651954
H        0.00000000       0.00000000       0.00000000       0.14340985      -0.39992264       0.23445624
H        0.00000000       0.00000000       0.00000000      -0.80809242      -0.74563331       0.07708737
H        0.00000000       0.00000000       0.00000000       1.29702890      -1.88214899       1.39043701
7
Lattice="529.1772105638412 0.0 0.0 0.0 529.1772105638412 0.0 0.0 0.0 529.1772105638412" Properties=species:S:1:pos:R:3:forces_component_raw:R:3 ipi_comment="Step:        2760  Bead:       0 forces_component_raw{ase}  cell{ase}" pbc="T T T"
O        0.00000000       0.00000000       0.00000000      -2.43872738      -0.26950067      -0.28226861
H        0.00000000       0.00000000       0.00000000       2.04026914       0.06446552      -0.40940356
H        0.00000000       0.00000000       0.00000000       0.05218208       0.00131684       0.66597724
O        0.00000000       0.00000000       0.00000000      -2.13546420       0.34990877      -1.71152985
H        0.00000000       0.00000000       0.00000000       0.31288457      -0.03308727      -0.17913836
H        0.00000000       0.00000000       0.00000000       0.41274238       0.12470627       0.36668134
H        0.00000000       0.00000000       0.00000000       1.75611329      -0.23780954       1.54968167
7
Lattice="529.1772105638412 0.0 0.0 0.0 529.1772105638412 0.0 0.0 0.0 529.1772105638412" Properties=species:S:1:pos:R:3:forces_component_raw:R:3 ipi_comment="Step:        2780  Bead:       0 forces_component_raw{ase}  cell{ase}" pbc="T T T"
O        0.00000000       0.00000000       0.00000000      -0.18498753      -0.11674714      -0.56058800
H        0.00000000       0.00000000       0.00000000       0.65320718       0.24426410      -0.05098304
H        0.00000000       0.00000000       0.00000000      -0.18451530      -0.17868778       0.38447392
O        0.00000000       0.00000000       0.00000000       0.22739551       0.09850264       0.17959723
H        0.00000000       0.00000000       0.00000000      -0.73962057      -0.06370997      -0.14271848
H        0.00000000       0.00000000       0.00000000      -0.36514995       0.55919600      -0.59420031
H        0.00000000       0.00000000       0.00000000       0.59367067      -0.54281771       0.78441858
7
Lattice="529.1772105638412 0.0 0.0 0.0 529.1772105638412 0.0 0.0 0.0 529.1772105638412" Properties=species:S:1:pos:R:3:forces_component_raw:R:3 ipi_comment="Step:        2800  Bead:       0 forces_component_raw{ase}  cell{ase}" pbc="T T T"
O        0.00000000       0.00000000       0.00000000      -0.03955181      -0.23421517      -0.23703343
H        0.00000000       0.00000000       0.00000000      -0.48797175      -0.27043092      -0.21081223
H        0.00000000       0.00000000       0.00000000       0.01562399       0.09663375       0.02658582
O        0.00000000       0.00000000       0.00000000       0.89837599      -1.85928989       0.62871713
H        0.00000000       0.00000000       0.00000000       0.45539245       0.08641355       0.25772288
H        0.00000000       0.00000000       0.00000000      -0.07287589       1.54627347       0.30456877
H        0.00000000       0.00000000       0.00000000      -0.76899290       0.63461524      -0.76974905
7
Lattice="529.1772105638412 0.0 0.0 0.0 529.1772105638412 0.0 0.0 0.0 529.1772105638412" Properties=species:S:1:pos:R:3:forces_component_raw:R:3 ipi_comment="Step:        2820  Bead:       0 forces_component_raw{ase}  cell{ase}" pbc="T T T"
O        0.00000000       0.00000000       0.00000000       1.00638068       0.43698371      -0.26821169
H        0.00000000       0.00000000       0.00000000      -1.24862707      -0.67026568       0.10663646
H        0.00000000       0.00000000       0.00000000       0.15163916       0.08853200       0.04717398
O        0.00000000       0.00000000       0.00000000       2.48287225      -0.63893032       2.05826879
H        0.00000000       0.00000000       0.00000000      -0.15771917       0.17762530       0.00639962
H        0.00000000       0.00000000       0.00000000      -0.52845240       0.28223753      -0.33643156
H        0.00000000       0.00000000       0.00000000      -1.70609332       0.32381725      -1.61383558
7
Lattice="529.1772105638412 0.0 0.0 0.0 529.1772105638412 0.0 0.0 0.0 529.1772105638412" Properties=species:S:1:pos:R:3:forces_component_raw:R:3 ipi_comment="Step:        2840  Bead:       0 forces_component_raw{ase}  cell{ase}" pbc="T T T"
O        0.00000000       0.00000000       0.00000000       1.51025284       1.36984539       1.60626829
H        0.00000000       0.00000000       0.00000000      -1.13479460      -0.64601243      -0.00668772
H        0.00000000       0.00000000       0.00000000       0.03313267       0.04404752      -0.99936617
O        0.00000000       0.00000000       0.00000000       1.09691715      -1.07627070       0.11354071
H        0.00000000       0.00000000       0.00000000      -0.32520068      -0.33526480      -0.21587861
H        0.00000000       0.00000000       0.00000000       0.36895961      -0.09635925       0.18141629
H        0.00000000       0.00000000       0.00000000      -1.54926682       0.74001396      -0.67929304
7
Lattice="529.1772105638412 0.0 0.0 0.0 529.1772105638412 0.0 0.0 0.0 529.1772105638412" Properties=species:S:1:pos:R:3:forces_component_raw:R:3 ipi_comment="Step:        2860  Bead:       0 forces_component_raw{ase}  cell{ase}" pbc="T T T"
O        0.00000000       0.00000000       0.00000000       0.51016629       0.24124247       0.57527685
H        0.00000000       0.00000000       0.00000000      -0.49438793      -0.38770878       0.10430810
H        0.00000000       0.00000000       0.00000000       0.08752711       0.24013445      -0.58773899
O        0.00000000       0.00000000       0.00000000      -0.81302750       0.78438366       1.18659020
H        0.00000000       0.00000000       0.00000000       0.10267025      -0.13316648       0.03339769
H        0.00000000       0.00000000       0.00000000       0.51963365      -0.41097885      -0.94510293
H        0.00000000       0.00000000       0.00000000       0.08741820      -0.33390659      -0.36673075
7
Lattice="529.1772105638412 0.0 0.0 0.0 529.1772105638412 0.0 0.0 0.0 529.1772105638412" Properties=species:S:1:pos:R:3:forces_component_raw:R:3 ipi_comment="Step:        2880  Bead:       0 forces_component_raw{ase}  cell{ase}" pbc="T T T"
O        0.00000000       0.00000000       0.00000000      -0.06537737      -0.92342138       0.43390021
H        0.00000000       0.00000000       0.00000000       0.02888730      -0.07061815      -0.05950710
H        0.00000000       0.00000000       0.00000000       0.02751824       0.46004027      -0.61258626
O        0.00000000       0.00000000       0.00000000      -1.94326592       1.47714568       0.71906829
H        0.00000000       0.00000000       0.00000000      -0.08253306       0.25132209       0.06752011
H        0.00000000       0.00000000       0.00000000       1.52644658      -0.51185620      -1.35894883
H        0.00000000       0.00000000       0.00000000       0.50832403      -0.68261224       0.81055331
7
Lattice="529.1772105638412 0.0 0.0 0.0 529.1772105638412 0.0 0.0 0.0 529.1772105638412" Properties=species:S:1:pos:R:3:forces_component_raw:R:3 ipi_comment="Step:        2900  Bead:       0 forces_component_raw{ase}  cell{ase}" pbc="T T T"
O        0.00000000       0.00000000       0.00000000       0.45840025       0.13425787      -0.43806958
H        0.00000000       0.00000000       0.00000000      -0.45942989      -0.45457968      -0.15698713
H        0.00000000       0.00000000       0.00000000      -0.04793164      -0.12725793       0.25263035
O        0.00000000       0.00000000       0.00000000      -0.95448268       1.04629398       1.78462315
H        0.00000000       0.00000000       0.00000000      -0.12916714      -0.09638681       0.15330669
H        0.00000000       0.00000000       0.00000000       0.14316285      -0.03299993      -1.16434181
H        0.00000000       0.00000000       0.00000000       0.98944843      -0.46932757      -0.43116167
7
Lattice="529.1772105638412 0.0 0.0 0.0 529.1772105638412 0.0 0.0 0.0 529.1772105638412" Properties=species:S:1:pos:R:3:forces_component_raw:R:3 ipi_comment="Step:        2920  Bead:       0 forces_component_raw{ase}  cell{ase}" pbc="T T T"
O        0.00000000       0.00000000       0.00000000      -0.00578400       0.34483624      -1.36818683
H        0.00000000       0.00000000       0.00000000      -0.23714311      -0.26122361       0.17621875
H        0.00000000       0.00000000       0.00000000       0.19050443      -0.28294563       1.00216115
O        0.00000000       0.00000000       0.00000000      -1.47623802      -0.76521754      -1.01767469
H        0.00000000       0.00000000       0.00000000       0.14546746       0.50495148       0.20892328
H        0.00000000       0.00000000       0.00000000       0.51029873       0.23643342       0.31160837
H        0.00000000       0.00000000       0.00000000       0.87289447       0.22316556       0.68694997
7
Lattice="529.1772105638412 0.0 0.0 0.0 529.1772105638412 0.0 0.0 0.0 529.1772105638412" Properties=species:S:1:pos:R:3:forces_component_raw:R:3 ipi_comment="Step:        2940  Bead:       0 forces_component_raw{ase}  cell{ase}" pbc="T T T"
O        0.00000000       0.00000000       0.00000000      -0.25189567       1.36049271      -0.81897992
H        0.00000000       0.00000000       0.00000000       0.11103681       0.12597817       0.21139500
H        0.00000000       0.00000000       0.00000000       0.34305722      -0.46394622       1.27543223
O        0.00000000       0.00000000       0.00000000       0.07674336      -0.16814810      -1.32719088
H        0.00000000       0.00000000       0.00000000      -0.01571427      -0.89296252      -0.55437386
H        0.00000000       0.00000000       0.00000000      -1.32211185      -0.30338937       1.61741376
H        0.00000000       0.00000000       0.00000000       1.05888438       0.34197536      -0.40369624
7
Lattice="529.1772105638412 0.0 0.0 0.0 529.1772105638412 0.0 0.0 0.0 529.1772105638412" Properties=species:S:1:pos:R:3:forces_component_raw:R:3 ipi_comment="Step:        2960  Bead:       0 forces_component_raw{ase}  cell{ase}" pbc="T T T"
O        0.00000000       0.00000000       0.00000000      -0.48250514      -0.89351416       0.29397026
H        0.00000000       0.00000000       0.00000000       0.76064634       0.99440903      -0.58194292
H        0.00000000       0.00000000       0.00000000      -0.09373393      -0.13654093       0.62823498
O        0.00000000       0.00000000       0.00000000       1.77440572      -0.56802994      -2.94250251
H        0.00000000       0.00000000       0.00000000      -0.16532902       0.83587837       0.26415291
H        0.00000000       0.00000000       0.00000000      -1.48604811      -0.15085521       2.31506920
H        0.00000000       0.00000000       0.00000000      -0.30743587      -0.08134735       0.02301811
7
Lattice="529.1772105638412 0.0 0.0 0.0 529.1772105638412 0.0 0.0 0.0 529.1772105638412" Properties=species:S:1:pos:R:3:forces_component_raw:R:3 ipi_comment="Step:        2980  Bead:       0 forces_component_raw{ase}  cell{ase}" pbc="T T T"
O        0.00000000       0.00000000       0.00000000      -0.98408586      -0.25852889       0.39725357
H        0.00000000       0.00000000       0.00000000       0.84619278       0.95331156      -0.28735083
H        0.00000000       0.00000000       0.00000000       0.18478897      -0.06670442       0.27589995
O        0.00000000       0.00000000       0.00000000       2.18302107       1.49905193      -1.29108739
H        0.00000000       0.00000000       0.00000000       0.01179332      -0.63814211      -0.29679444
H        0.00000000       0.00000000       0.00000000      -0.83741105      -0.22331685       1.33624578
H        0.00000000       0.00000000       0.00000000      -1.40429926      -1.26567114      -0.13416658
7
Lattice="529.1772105638412 0.0 0.0 0.0 529.1772105638412 0.0 0.0 0.0 529.1772105638412" Properties=species:S:1:pos:R:3:forces_component_raw:R:3 ipi_comment="Step:        3000  Bead:       0 forces_component_raw{ase}  cell{ase}" pbc="T T T"
O        0.00000000       0.00000000       0.00000000      -0.56231099      -0.81129724       0.35587329
H        0.00000000       0.00000000       0.00000000       0.29902271       0.37502951      -0.24193031
H        0.00000000       0.00000000       0.00000000      -0.08986519       0.14225712      -0.28153908
O        0.00000000       0.00000000       0.00000000       0.40021709       0.51034278       0.37728357
H        0.00000000       0.00000000       0.00000000       0.63134372       0.23870416      -0.14085636
H        0.00000000       0.00000000       0.00000000       0.20351368       0.35368359      -0.39072731
H        0.00000000       0.00000000       0.00000000      -0.88192100      -0.80872005       0.32189608
7
Lattice="529.1772105638412 0.0 0.0 0.0 529.1772105638412 0.0 0.0 0.0 529.1772105638412" Properties=species:S:1:pos:R:3:forces_component_raw:R:3 ipi_comment="Step:        3020  Bead:       0 forces_component_raw{ase}  cell{ase}" pbc="T T T"
O        0.00000000       0.00000000       0.00000000       0.85976339      -0.47015628      -0.02457193
H        0.00000000       0.00000000       0.00000000      -0.23887107      -0.35451746       0.17966995
H        0.00000000       0.00000000       0.00000000      -0.32054120       0.46322739      -0.50012112
O        0.00000000       0.00000000       0.00000000       0.22506760      -0.15666008       3.70206071
H        0.00000000       0.00000000       0.00000000      -0.60325301       0.05460857       0.35359314
H        0.00000000       0.00000000       0.00000000      -0.05956250       0.22278643      -3.63074351
H        0.00000000       0.00000000       0.00000000       0.13739681       0.24071154      -0.07988721
7
Lattice="529.1772105638412 0.0 0.0 0.0 529.1772105638412 0.0 0.0 0.0 529.1772105638412" Properties=species:S:1:pos:R:3:forces_component_raw:R:3 ipi_comment="Step:        3040  Bead:       0 forces_component_raw{ase}  cell{ase}" pbc="T T T"
O        0.00000000       0.00000000       0.00000000       0.79952860       1.06085515       0.66809017
H        0.00000000       0.00000000       0.00000000      -0.41540897      -1.22525168       0.20684347
H        0.00000000       0.00000000       0.00000000      -0.51546359       0.18550310      -0.93814469
O        0.00000000       0.00000000       0.00000000       0.00326926      -0.54808009       4.98390723
H        0.00000000       0.00000000       0.00000000       0.52885062       0.01780315       0.09579781
H        0.00000000       0.00000000       0.00000000      -0.92262280       0.57260490      -4.71130086
H        0.00000000       0.00000000       0.00000000       0.52184689      -0.06343457      -0.30519289
7
Lattice="529.1772105638412 0.0 0.0 0.0 529.1772105638412 0.0 0.0 0.0 529.1772105638412" Properties=species:S:1:pos:R:3:forces_component_raw:R:3 ipi_comment="Step:        3060  Bead:       0 forces_component_raw{ase}  cell{ase}" pbc="T T T"
O        0.00000000       0.00000000       0.00000000       0.13260065       1.08233774      -0.03826338
H        0.00000000       0.00000000       0.00000000       0.22025183      -1.20757735       0.67783523
H        0.00000000       0.00000000       0.00000000      -0.21216463       0.37904084      -0.46558824
O        0.00000000       0.00000000       0.00000000      -0.18141308      -1.49396360       2.05678273
H        0.00000000       0.00000000       0.00000000      -0.28390840       0.07938837       0.28527582
H        0.00000000       0.00000000       0.00000000      -0.43063265       0.41201627      -2.36515785
H        0.00000000       0.00000000       0.00000000       0.75526619       0.74875760      -0.15088427
7
Lattice="529.1772105638412 0.0 0.0 0.0 529.1772105638412 0.0 0.0 0.0 529.1772105638412" Properties=species:S:1:pos:R:3:forces_component_raw:R:3 ipi_comment="Step:        3080  Bead:       0 forces_component_raw{ase}  cell{ase}" pbc="T T T"
O        0.00000000       0.00000000       0.00000000      -0.30974007       2.15695143       0.25938678
H        0.00000000       0.00000000       0.00000000       0.45466033      -1.53484393       0.54991794
H        0.00000000       0.00000000       0.00000000      -0.21189278      -0.25165761      -0.44049910
O        0.00000000       0.00000000       0.00000000      -0.13259769      -0.44557506      -0.19469154
H        0.00000000       0.00000000       0.00000000      -0.03109718      -0.18320629      -0.23183334
H        0.00000000       0.00000000       0.00000000       0.02652633      -0.23976959       0.34072071
H        0.00000000       0.00000000       0.00000000       0.20414114       0.49810094      -0.28300160
7
Lattice="529.1772105638412 0.0 0.0 0.0 529.1772105638412 0.0 0.0 0.0 529.1772105638412" Properties=species:S:1:pos:R:3:forces_component_raw:R:3 ipi_comment="Step:        3100  Bead:       0 forces_component_raw{ase}  cell{ase}" pbc="T T T"
O        0.00000000       0.00000000       0.00000000      -0.79674113       0.75018662      -0.45464519
H        0.00000000       0.00000000       0.00000000       0.74407739      -0.88197613       0.76266116
H        0.00000000       0.00000000       0.00000000      -0.24965416      -0.06465246      -0.39709628
O        0.00000000       0.00000000       0.00000000      -0.49871886       0.71195024      -2.05033493
H        0.00000000       0.00000000       0.00000000       0.43973222       0.03168097      -0.13259269
H        0.00000000       0.00000000       0.00000000       0.50430000      -0.35659880       2.19268108
H        0.00000000       0.00000000       0.00000000      -0.14299558      -0.19059050       0.07932696
7
Lattice="529.1772105638412 0.0 0.0 0.0 529.1772105638412 0.0 0.0 0.0 529.1772105638412" Properties=species:S:1:pos:R:3:forces_component_raw:R:3 ipi_comment="Step:        3120  Bead:       0 forces_component_raw{ase}  cell{ase}" pbc="T T T"
O        0.00000000       0.00000000       0.00000000       0.42653084       0.52795661      -0.51358426
H        0.00000000       0.00000000       0.00000000       0.13372171      -0.73337573       0.16235498
H        0.00000000       0.00000000       0.00000000      -0.17558259      -0.21206184       0.10066071
O        0.00000000       0.00000000       0.00000000      -0.24520540       1.30293870      -2.85648800
H        0.00000000       0.00000000       0.00000000      -0.52276540      -0.19814755       0.17455889
H        0.00000000       0.00000000       0.00000000       0.61458463      -0.49810603       2.80681444
H        0.00000000       0.00000000       0.00000000      -0.23128372      -0.18920422       0.12568292
7
Lattice="529.1772105638412 0.0 0.0 0.0 529.1772105638412 0.0 0.0 0.0 529.1772105638412" Properties=species:S:1:pos:R:3:forces_component_raw:R:3 ipi_comment="Step:        3140  Bead:       0 forces_component_raw{ase}  cell{ase}" pbc="T T T"
O        0.00000000       0.00000000       0.00000000      -0.83896983      -0.80399692      -0.75264418
H        0.00000000       0.00000000       0.00000000       0.45421016       0.01427202       0.31927112
H        0.00000000       0.00000000       0.00000000       0.37473643       0.51189864       0.07569012
O        0.00000000       0.00000000       0.00000000      -0.77406889       0.47680134      -2.68699122
H        0.00000000       0.00000000       0.00000000       0.14210795      -0.05702871       0.11878154
H        0.00000000       0.00000000       0.00000000       0.79015237       0.37574172       2.51942206
H        0.00000000       0.00000000       0.00000000      -0.14816828      -0.51768804       0.40647087
7
Lattice="529.1772105638412 0.0 0.0 0.0 529.1772105638412 0.0 0.0 0.0 529.1772105638412" Properties=species:S:1:pos:R:3:forces_component_raw:R:3 ipi_comment="Step:        3160  Bead:       0 forces_component_raw{ase}  cell{ase}" pbc="T T T"
O        0.00000000       0.00000000       0.00000000      -0.54731310       0.23625302       0.37824464
H        0.00000000       0.00000000       0.00000000      -0.36050224      -0.06693774      -0.13971671
H        0.00000000       0.00000000       0.00000000       0.83007199       0.29792064       0.16487470
O        0.00000000       0.00000000       0.00000000      -0.29599446       0.02826798      -1.18233907
H        0.00000000       0.00000000       0.00000000       0.13251488      -0.23958826      -0.65010661
H        0.00000000       0.00000000       0.00000000       0.30546603       0.45183396       1.24043751
H        0.00000000       0.00000000       0.00000000      -0.06424312      -0.70774949       0.18860531
7
Lattice="529.1772105638412 0.0 0.0 0.0 529.1772105638412 0.0 0.0 0.0 529.1772105638412" Properties=species:S:1:pos:R:3:forces_component_raw:R:3 ipi_comment="Step:        3180  Bead:       0 forces_component_raw{ase}  cell{ase}" pbc="T T T"
O        0.00000000       0.00000000       0.00000000       0.38198644      -1.13650000      -0.27476901
H        0.00000000       0.00000000       0.00000000      -0.75228173       0.77687097      -0.02264681
H        0.00000000       0.00000000       0.00000000       0.47122848       0.99894506       0.25716832
O        0.00000000       0.00000000       0.00000000       0.59412146      -0.57790184       0.06437361
H        0.00000000       0.00000000       0.00000000      -0.46401972       0.13261530       0.93199581
H        0.00000000       0.00000000       0.00000000      -0.20782010      -0.36992100      -0.84216589
H        0.00000000       0.00000000       0.00000000      -0.02321478       0.17589149      -0.11395600
7
Lattice="529.1772105638412 0.0 0.0 0.0 529.1772105638412 0.0 0.0 0.0 529.1772105638412" Properties=species:S:1:pos:R:3:forces_component_raw:R:3 ipi_comment="Step:        3200  Bead:       0 forces_component_raw{ase}  cell{ase}" pbc="T T T"
O        0.00000000       0.00000000       0.00000000      -0.44994933      -0.06517315       0.65135741
H        0.00000000       0.00000000       0.00000000      -1.11467994       0.17886667       0.09221637
H        0.00000000       0.00000000       0.00000000       1.05609000       0.53255624      -0.18210211
O        0.00000000       0.00000000       0.00000000       0.32553095      -0.53970093       3.65740491
H        0.00000000       0.00000000       0.00000000       0.60712373      -0.03631847      -0.58184022
H        0.00000000       0.00000000       0.00000000      -0.83854175      -0.80869299      -2.77765084
H        0.00000000       0.00000000       0.00000000       0.41442603       0.73846245      -0.85938537
7
Lattice="529.1772105638412 0.0 0.0 0.0 529.1772105638412 0.0 0.0 0.0 529.1772105638412" Properties=species:S:1:pos:R:3:forces_component_raw:R:3 ipi_comment="Step:        3220  Bead:       0 forces_component_raw{ase}  cell{ase}" pbc="T T T"
O        0.00000000       0.00000000       0.00000000       0.86004186      -1.46131409      -0.38109198
H        0.00000000       0.00000000       0.00000000      -0.79014749       0.58883011       0.14170595
H        0.00000000       0.00000000       0.00000000       0.15260887       0.95550466       0.15041423
O        0.00000000       0.00000000       0.00000000       1.11904168       0.13489413       3.34197331
H        0.00000000       0.00000000       0.00000000      -0.27515334      -0.05883718       0.16710295
H        0.00000000       0.00000000       0.00000000      -0.92233789      -0.88011110      -2.73049975
H        0.00000000       0.00000000       0.00000000      -0.14405355       0.72103363      -0.68960476
7
Lattice="529.1772105638412 0.0 0.0 0.0 529.1772105638412 0.0 0.0 0.0 529.1772105638412" Properties=species:S:1:pos:R:3:forces_component_raw:R:3 ipi_comment="Step:        3240  Bead:       0 forces_component_raw{ase}  cell{ase}" pbc="T T T"
O        0.00000000       0.00000000       0.00000000       0.47053391       0.31789821      -0.04587120
H        0.00000000       0.00000000       0.00000000      -0.80365253      -0.27941305       0.10276745
H        0.00000000       0.00000000       0.00000000       0.29439896      -0.64788091      -0.17946978
O        0.00000000       0.00000000       0.00000000      -0.24041128       0.48009920      -0.43951231
H        0.00000000       0.00000000       0.00000000       0.29510516       0.15814573      -0.09733567
H        0.00000000       0.00000000       0.00000000      -0.16376117       0.32226932      -0.07814688
H        0.00000000       0.00000000       0.00000000       0.14778698      -0.35111860       0.73756838
7
Lattice="529.1772105638412 0.0 0.0 0.0 529.1772105638412 0.0 0.0 0.0 529.1772105638412" Properties=species:S:1:pos:R:3:forces_component_raw:R:3 ipi_comment="Step:        3260  Bead:       0 forces_component_raw{ase}  cell{ase}" pbc="T T T"
O        0.00000000       0.00000000       0.00000000       1.60765076      -0.16945213      -0.50225377
H        0.00000000       0.00000000       0.00000000      -0.29242683       0.59044951      -0.00661452
H        0.00000000       0.00000000       0.00000000      -1.09574175      -1.10880316       0.27253974
O        0.00000000       0.00000000       0.00000000      -0.91678530       1.34466815      -1.05371428
H        0.00000000       0.00000000       0.00000000      -0.02056398       0.08410388      -0.06163966
H        0.00000000       0.00000000       0.00000000       0.57544023       0.09719039       0.87989658
H        0.00000000       0.00000000       0.00000000       0.14242667      -0.83815658       0.47178590
7
Lattice="529.1772105638412 0.0 0.0 0.0 529.1772105638412 0.0 0.0 0.0 529.1772105638412" Properties=species:S:1:pos:R:3:forces_component_raw:R:3 ipi_comment="Step:        3280  Bead:       0 forces_component_raw{ase}  cell{ase}" pbc="T T T"
O        0.00000000       0.00000000       0.00000000       0.36043638       1.66761244      -0.34847483
H        0.00000000       0.00000000       0.00000000      -0.00515932      -0.44046319       0.00732723
H        0.00000000       0.00000000       0.00000000      -0.05733533      -1.46586418       0.33530819
O        0.00000000       0.00000000       0.00000000      -1.54312826       0.11791790      -1.50113845
H        0.00000000       0.00000000       0.00000000      -0.17570232      -0.31547943      -0.24350846
H        0.00000000       0.00000000       0.00000000       1.07201004       0.94720173       0.97066891
H        0.00000000       0.00000000       0.00000000       0.34887853      -0.51092547       0.77981746
7
Lattice="529.1772105638412 0.0 0.0 0.0 529.1772105638412 0.0 0.0 0.0 529.1772105638412" Properties=species:S:1:pos:R:3:forces_component_raw:R:3 ipi_comment="Step:        3300  Bead:       0 forces_component_raw{ase}  cell{ase}" pbc="T T T"
O        0.00000000       0.00000000       0.00000000       0.10689481      -0.20189072      -0.54796851
H        0.00000000       0.00000000       0.00000000       0.47609589       0.42682317      -0.06600222
H        0.00000000       0.00000000       0.00000000      -0.51957226      -0.51739955       0.36566600
O        0.00000000       0.00000000       0.00000000      -1.41629076      -0.04625748      -1.42636514
H        0.00000000       0.00000000       0.00000000       0.11539185      -0.01221937       0.07777470
H        0.00000000       0.00000000       0.00000000       1.29952598       0.73319280       1.85980535
H        0.00000000       0.00000000       0.00000000      -0.06204563      -0.38224888      -0.26291007
7
Lattice="529.1772105638412 0.0 0.0 0.0 529.1772105638412 0.0 0.0 0.0 529.1772105638412" Properties=species:S:1:pos:R:3:forces_component_raw:R:3 ipi_comment="Step:        3320  Bead:       0 forces_component_raw{ase}  cell{ase}" pbc="T T T"
O        0.00000000       0.00000000       0.00000000      -1.77378011       0.09206533      -0.32714054
H        0.00000000       0.00000000       0.00000000       1.56304241      -0.24958101       0.24941111
H        0.00000000       0.00000000       0.00000000       0.35087973       0.25425512      -0.02067985
O        0.00000000       0.00000000       0.00000000       0.25640136      -1.71918607       0.17174608
H        0.00000000       0.00000000       0.00000000      -0.48052785       0.02960633       0.07597654
H        0.00000000       0.00000000       0.00000000       0.34819210       0.76935274       0.99871326
H        0.00000000       0.00000000       0.00000000      -0.26420742       0.82348764      -1.14802647
7
Lattice="529.1772105638412 0.0 0.0 0.0 529.1772105638412 0.0 0.0 0.0 529.1772105638412" Properties=species:S:1:pos:R:3:forces_component_raw:R:3 ipi_comment="Step:        3340  Bead:       0 forces_component_raw{ase}  cell{ase}" pbc="T T T"
O        0.00000000       0.00000000       0.00000000      -1.95648444      -0.36952949       0.74837524
H        0.00000000       0.00000000       0.00000000       1.31278754       0.38194847      -0.07267723
H        0.00000000       0.00000000       0.00000000       0.11191255       0.41113776      -0.32880828
O        0.00000000       0.00000000       0.00000000       0.23819552      -1.15029085       0.87725580
H        0.00000000       0.00000000       0.00000000       0.50207913      -0.26300275      -0.37591454
H        0.00000000       0.00000000       0.00000000       0.16419801       0.11812890       0.31081212
H        0.00000000       0.00000000       0.00000000      -0.37268823       0.87160784      -1.15904308
7
Lattice="529.1772105638412 0.0 0.0 0.0 529.1772105638412 0.0 0.0 0.0 529.1772105638412" Properties=species:S:1:pos:R:3:forces_component_raw:R:3 ipi_comment="Step:        3360  Bead:       0 forces_component_raw{ase}  cell{ase}" pbc="T T T"
O        0.00000000       0.00000000       0.00000000      -1.16571117       0.04075050       0.19328576
H        0.00000000       0.00000000       0.00000000       1.01523173      -0.47249809      -0.07060124
H        0.00000000       0.00000000       0.00000000       0.35766089       0.38934341      -0.17911226
O        0.00000000       0.00000000       0.00000000       1.05895519      -0.30902001       1.37421227
H        0.00000000       0.00000000       0.00000000      -0.33178794       0.11137401       0.23544957
H        0.00000000       0.00000000       0.00000000      -0.33684087      -0.57259208      -0.61483836
H        0.00000000       0.00000000       0.00000000      -0.59750760       0.81264234      -0.93839568
7
Lattice="529.1772105638412 0.0 0.0 0.0 529.1772105638412 0.0 0.0 0.0 529.1772105638412" Properties=species:S:1:pos:R:3:forces_component_raw:R:3 ipi_comment="Step:        3380  Bead:       0 forces_component_raw{ase}  cell{ase}" pbc="T T T"
O        0.00000000       0.00000000       0.00000000       0.43164039      -1.01658941       0.14368938
H        0.00000000       0.00000000       0.00000000      -0.32888371       0.08726174      -0.00230530
H        0.00000000       0.00000000       0.00000000       0.05676073       0.13540676      -0.14658159
O        0.00000000       0.00000000       0.00000000       0.16219014       1.14250136       1.33842564
H        0.00000000       0.00000000       0.00000000       0.44418001       0.24089833      -0.24468750
H        0.00000000       0.00000000       0.00000000      -0.40476742      -0.81754840      -0.62588745
H        0.00000000       0.00000000       0.00000000      -0.36112019       0.22806989      -0.46265301
7
Lattice="529.1772105638412 0.0 0.0 0.0 529.1772105638412 0.0 0.0 0.0 529.1772105638412" Properties=species:S:1:pos:R:3:forces_component_raw:R:3 ipi_comment="Step:        3400  Bead:       0 forces_component_raw{ase}  cell{ase}" pbc="T T T"
O        0.00000000       0.00000000       0.00000000       3.10076667       0.30921781      -0.33789867
H        0.00000000       0.00000000       0.00000000      -2.86806489       0.11364909       0.32940793
H        0.00000000       0.00000000       0.00000000      -0.03685215       0.00085062       0.01584931
O        0.00000000       0.00000000       0.00000000      -0.81051088       1.03517497      -0.63947106
H        0.00000000       0.00000000       0.00000000       0.10247266      -0.79115504      -0.07072990
H        0.00000000       0.00000000       0.00000000       0.02289599      -0.19313169      -0.07580239
H        0.00000000       0.00000000       0.00000000       0.48929289      -0.47460559       0.77864462
7
Lattice="529.1772105638412 0.0 0.0 0.0 529.1772105638412 0.0 0.0 0.0 529.1772105638412" Properties=species:S:1:pos:R:3:forces_component_raw:R:3 ipi_comment="Step:        3420  Bead:       0 forces_component_raw{ase}  cell{ase}" pbc="T T T"
O        0.00000000       0.00000000       0.00000000       3.01606274       0.85108155      -0.73708284
H        0.00000000       0.00000000       0.00000000      -3.03630686       0.10744949       0.40297973
H        0.00000000       0.00000000       0.00000000      -0.20511994      -0.85427314       0.35451770
O        0.00000000       0.00000000       0.00000000      -0.18479735      -1.33974183      -0.72700578
H        0.00000000       0.00000000       0.00000000      -0.12596685       0.70589769       0.27597559
H        0.00000000       0.00000000       0.00000000       0.39690709       0.47228986       0.13629505
H        0.00000000       0.00000000       0.00000000       0.13922155       0.05729644       0.29432061
7
Lattice="529.1772105638412 0.0 0.0 0.0 529.1772105638412 0.0 0.0 0.0 529.1772105638412" Properties=species:S:1:pos:R:3:forces_component_raw:R:3 ipi_comment="Step:        3440  Bead:       0 forces_component_raw{ase}  cell{ase}" pbc="T T T"
O        0.00000000       0.00000000       0.00000000       0.66532910       1.05387807      -0.14740896
H        0.00000000       0.00000000       0.00000000      -1.24927473      -0.28645489       0.18265134
H        0.00000000       0.00000000       0.00000000       0.33519533      -0.48357371       0.10363451
O        0.00000000       0.00000000       0.00000000      -0.55098754      -0.21096677      -0.40347576
H        0.00000000       0.00000000       0.00000000       0.03398107      -0.34061611      -0.25606442
H        0.00000000       0.00000000       0.00000000       0.74004883       0.76968718       0.53019995
H        0.00000000       0.00000000       0.00000000       0.02570790      -0.50195372      -0.00953674
7
Lattice="529.1772105638412 0.0 0.0 0.0 529.1772105638412 0.0 0.0 0.0 529.1772105638412" Properties=species:S:1:pos:R:3:forces_component_raw:R:3 ipi_comment="Step:        3460  Bead:       0 forces_component_raw{ase}  cell{ase}" pbc="T T T"
O        0.00000000       0.00000000       0.00000000       0.26905039      -0.59491843      -0.07850480
H        0.00000000       0.00000000       0.00000000      -0.15300638       0.31331283      -0.07286134
H        0.00000000       0.00000000       0.00000000      -0.14057708       0.39745191      -0.26250354
O        0.00000000       0.00000000       0.00000000      -0.97864664      -1.43600500      -0.62962186
H        0.00000000       0.00000000       0.00000000       0.04402235      -0.29606220       0.80767578
H        0.00000000       0.00000000       0.00000000       0.81341750       1.39974785       0.09116566
H        0.00000000       0.00000000       0.00000000       0.14573973       0.21647310       0.14465004
7
Lattice="529.1772105638412 0.0 0.0 0.0 529.1772105638412 0.0 0.0 0.0 529.1772105638412" Properties=species:S:1:pos:R:3:forces_component_raw:R:3 ipi_comment="Step:        3480  Bead:       0 forces_component_raw{ase}  cell{ase}" pbc="T T T"
O        0.00000000       0.00000000       0.00000000      -1.70930040      -0.80803585       0.52372134
H        0.00000000       0.00000000       0.00000000       1.23506975       0.09397777       0.19924343
H        0.00000000       0.00000000       0.00000000       0.49329621       0.40411693      -0.48184762
O        0.00000000       0.00000000       0.00000000      -0.83442271      -0.89446181      -0.49928519
H        0.00000000       0.00000000       0.00000000      -0.27505845       0.13196024      -0.64417601
H        0.00000000       0.00000000       0.00000000       0.61088026       1.45138002       0.41484368
H        0.00000000       0.00000000       0.00000000       0.47953507      -0.37893730       0.48750046
7
Lattice="529.1772105638412 0.0 0.0 0.0 529.1772105638412 0.0 0.0 0.0 529.1772105638412" Properties=species:S:1:pos:R:3:forces_component_raw:R:3 ipi_comment="Step:        3500  Bead:       0 forces_component_raw{ase}  cell{ase}" pbc="T T T"
O        0.00000000       0.00000000       0.00000000      -1.62904168      -0.83363199       0.30862939
H        0.00000000       0.00000000       0.00000000       1.93254376       0.06899657      -0.06228614
H        0.00000000       0.00000000       0.00000000      -0.03615123       0.42932785      -0.35570607
O        0.00000000       0.00000000       0.00000000      -1.33011079      -0.72317475      -0.99234480
H        0.00000000       0.00000000       0.00000000      -0.06522405       0.16028571       0.16925226
H        0.00000000       0.00000000       0.00000000       0.61769927       0.93868441       0.19119015
H        0.00000000       0.00000000       0.00000000       0.51028466      -0.04048780       0.74126506
7
Lattice="529.1772105638412 0.0 0.0 0.0 529.1772105638412 0.0 0.0 0.0 529.1772105638412" Properties=species:S:1:pos:R:3:forces_component_raw:R:3 ipi_comment="Step:        3520  Bead:       0 forces_component_raw{ase}  cell{ase}" pbc="T T T"
O        0.00000000       0.00000000       0.00000000      -1.57602764       0.10637212       0.36300737
H        0.00000000       0.00000000       0.00000000       1.63679612      -0.24161308      -0.10755888
H        0.00000000       0.00000000       0.00000000       0.00137526       0.13567033      -0.18493885
O        0.00000000       0.00000000       0.00000000      -0.60112351       0.31104660      -0.16186765
H        0.00000000       0.00000000       0.00000000       0.30321926      -0.17037550      -0.10508791
H        0.00000000       0.00000000       0.00000000       0.19956958      -0.10244823       0.05814692
H        0.00000000       0.00000000       0.00000000       0.03619117      -0.03865214       0.13829902
7
Lattice="529.1772105638412 0.0 0.0 0.0 529.1772105638412 0.0 0.0 0.0 529.1772105638412" Properties=species:S:1:pos:R:3:forces_component_raw:R:3 ipi_comment="Step:        3540  Bead:       0 forces_component_raw{ase}  cell{ase}" pbc="T T T"
O        0.00000000       0.00000000       0.00000000      -0.47980082       0.30204493      -0.27855676
H        0.00000000       0.00000000       0.00000000       0.89619637      -0.20940495      -0.07103273
H        0.00000000       0.00000000       0.00000000      -0.30304775      -0.33085334       0.43600288
O        0.00000000       0.00000000       0.00000000       0.94884420      -0.47388864       0.67368549
H        0.00000000       0.00000000       0.00000000      -0.09443128       0.30815533      -0.05674613
H        0.00000000       0.00000000       0.00000000      -0.43484449      -0.11142957      -0.24388337
H        0.00000000       0.00000000       0.00000000      -0.53291607       0.51537639      -0.45946926
7
Lattice="529.1772105638412 0.0 0.0 0.0 529.1772105638412 0.0 0.0 0.0 529.1772105638412" Properties=species:S:1:pos:R:3:forces_component_raw:R:3 ipi_comment="Step:        3560  Bead:       0 forces_component_raw{ase}  cell{ase}" pbc="T T T"
O        0.00000000       0.00000000       0.00000000      -0.17295894      -0.01401955      -0.01460707
H        0.00000000       0.00000000       0.00000000       0.25118750      -0.13536239      -0.03672054
H        0.00000000       0.00000000       0.00000000      -0.06879774       0.02726862      -0.03201732
O        0.00000000       0.00000000       0.00000000       0.72223038       0.99274385       0.33938193
H        0.00000000       0.00000000       0.00000000       0.11276019       0.25135619       0.21188310
H        0.00000000       0.00000000       0.00000000       0.00625667      -0.72016066       0.16399440
H        0.00000000       0.00000000       0.00000000      -0.85067791      -0.40182614      -0.63191462
7
Lattice="529.1772105638412 0.0 0.0 0.0 529.1772105638412 0.0 0.0 0.0 529.1772105638412" Properties=species:S:1:pos:R:3:forces_component_raw:R:3 ipi_comment="Step:        3580  Bead:       0 forces_component_raw{ase}  cell{ase}" pbc="T T T"
O        0.00000000       0.00000000       0.00000000       1.22604549       0.10574543      -0.10080044
H        0.00000000       0.00000000       0.00000000      -1.06780529       0.06857139       0.14362019
H        0.00000000       0.00000000       0.00000000      -0.07458067      -0.05575892      -0.01432559
O        0.00000000       0.00000000       0.00000000       1.10014510       0.07178736       0.91530603
H        0.00000000       0.00000000       0.00000000      -0.25751025      -0.27995241      -0.13178450
H        0.00000000       0.00000000       0.00000000      -0.71820808      -0.35449970      -0.49477121
H        0.00000000       0.00000000       0.00000000      -0.20808637       0.44410676      -0.31724447
7
Lattice="529.1772105638412 0.0 0.0 0.0 529.1772105638412 0.0 0.0 0.0 529.1772105638412" Properties=species:S:1:pos:R:3:forces_component_raw:R:3 ipi_comment="Step:        3600  Bead:       0 forces_component_raw{ase}  cell{ase}" pbc="T T T"
O        0.00000000       0.00000000       0.00000000       0.31138355      -0.82549024       0.46779853
H        0.00000000       0.00000000       0.00000000      -0.38811129       0.05879523      -0.01307744
H        0.00000000       0.00000000       0.00000000       0.16450685       0.28851265      -0.42357296
O        0.00000000       0.00000000       0.00000000      -0.46756441       1.13508821      -0.59326905
H        0.00000000       0.00000000       0.00000000       0.31700760       0.01133204       0.14793922
H        0.00000000       0.00000000       0.00000000       0.05626063      -0.26569223       0.25478500
H        0.00000000       0.00000000       0.00000000       0.00651705      -0.40254569       0.15939677
7
Lattice="529.1772105638412 0.0 0.0 0.0 529.1772105638412 0.0 0.0 0.0 529.1772105638412" Properties=species:S:1:pos:R:3:forces_component_raw:R:3 ipi_comment="Step:        3620  Bead:       0 forces_component_raw{ase}  cell{ase}" pbc="T T T"
O        0.00000000       0.00000000       0.00000000       0.01557156       0.16394657      -0.25150743
H        0.00000000       0.00000000       0.00000000      -0.20546114      -0.37513864       0.31414193
H        0.00000000       0.00000000       0.00000000       0.42419934      -0.11271247      -0.09173012
O        0.00000000       0.00000000       0.00000000       0.12933624      -0.52475286      -0.50272834
H        0.00000000       0.00000000       0.00000000      -0.53699571       0.36667016      -0.02997606
H        0.00000000       0.00000000       0.00000000      -0.11316481       0.41421980      -0.10338277
H        0.00000000       0.00000000       0.00000000       0.28651434       0.06776725       0.66518271
7
Lattice="529.1772105638412 0.0 0.0 0.0 529.1772105638412 0.0 0.0 0.0 529.1772105638412" Properties=species:S:1:pos:R:3:forces_component_raw:R:3 ipi_comment="Step:        3640  Bead:       0 forces_component_raw{ase}  cell{ase}" pbc="T T T"
O        0.00000000       0.00000000       0.00000000       2.24668289      -0.95310414      -0.31510931
H        0.00000000       0.00000000       0.00000000      -1.38878167       0.62060803      -0.14719629
H        0.00000000       0.00000000       0.00000000      -0.78647196      -0.19785352       0.56443739
O        0.00000000       0.00000000       0.00000000      -0.84837073      -0.00571141      -0.16702125
H        0.00000000       0.00000000       0.00000000       0.29671639       0.05921385      -0.02799848
H        0.00000000       0.00000000       0.00000000       0.23813060       0.43159518      -0.12668231
H        0.00000000       0.00000000       0.00000000       0.24209434       0.04525211       0.21957028
7
Lattice="529.1772105638412 0.0 0.0 0.0 529.1772105638412 0.0 0.0 0.0 529.1772105638412" Properties=species:S:1:pos:R:3:forces_component_raw:R:3 ipi_comment="Step:        3660  Bead:       0 forces_component_raw{ase}  cell{ase}" pbc="T T T"
O        0.00000000       0.00000000       0.00000000       0.52529180       1.04925537      -1.15409947
H        0.00000000       0.00000000       0.00000000      -0.97176397      -0.13777901       0.59095883
H        0.00000000       0.00000000       0.00000000       0.42252284      -0.51283491       0.64699203
O        0.00000000       0.00000000       0.00000000      -0.64129883       0.07131052      -0.23840800
H        0.00000000       0.00000000       0.00000000       0.15310964      -0.77504713      -0.07169730
H        0.00000000       0.00000000       0.00000000       0.17689884       0.22586399      -0.15418708
H        0.00000000       0.00000000       0.00000000       0.33523983       0.07923105       0.38044086
7
Lattice="529.1772105638412 0.0 0.0 0.0 529.1772105638412 0.0 0.0 0.0 529.1772105638412" Properties=species:S:1:pos:R:3:forces_component_raw:R:3 ipi_comment="Step:        3680  Bead:       0 forces_component_raw{ase}  cell{ase}" pbc="T T T"
O        0.00000000       0.00000000       0.00000000       1.32703018      -0.86214209      -0.21225046
H        0.00000000       0.00000000       0.00000000      -0.78140885       0.38124907      -0.23400718
H        0.00000000       0.00000000       0.00000000      -0.47906700       0.20481801       0.37629068
O        0.00000000       0.00000000       0.00000000       0.12393290      -0.54352737      -0.11315259
H        0.00000000       0.00000000       0.00000000      -0.24627082       0.91655922       0.10431884
H        0.00000000       0.00000000       0.00000000       0.26419789      -0.08722365       0.28237870
H        0.00000000       0.00000000       0.00000000      -0.20841408      -0.00973321      -0.20357800
7
Lattice="529.1772105638412 0.0 0.0 0.0 529.1772105638412 0.0 0.0 0.0 529.1772105638412" Properties=species:S:1:pos:R:3:forces_component_raw:R:3 ipi_comment="Step:        3700  Bead:       0 forces_component_raw{ase}  cell{ase}" pbc="T T T"
O        0.00000000       0.00000000       0.00000000      -1.15427757       0.13602394      -0.70200044
H        0.00000000       0.00000000       0.00000000       0.63833082      -0.13985084       0.50805843
H        0.00000000       0.00000000       0.00000000       0.64026249      -0.12294951       0.28077009
O        0.00000000       0.00000000       0.00000000      -0.58940184      -0.18778998       0.63145232
H        0.00000000       0.00000000       0.00000000       0.01079142      -0.33637154      -0.05312364
H        0.00000000       0.00000000       0.00000000       0.45001581       0.45088065      -0.07985303
H        0.00000000       0.00000000       0.00000000       0.00427896       0.20005715      -0.58530378
7
Lattice="529.1772105638412 0.0 0.0 0.0 529.1772105638412 0.0 0.0 0.0 529.1772105638412" Properties=species:S:1:pos:R:3:forces_component_raw:R:3 ipi_comment="Step:        3720  Bead:       0 forces_component_raw{ase}  cell{ase}" pbc="T T T"
O        0.00000000       0.00000000       0.00000000      -0.02854332      -1.35810852       1.19529176
H        0.00000000       0.00000000       0.00000000       0.56236595       0.09890704      -0.73958945
H        0.00000000       0.00000000       0.00000000      -0.44706884       0.43925810      -0.38167936
O        0.00000000       0.00000000       0.00000000      -0.74872500       0.64986289      -0.04325020
H        0.00000000       0.00000000       0.00000000       0.29172367       0.12784326       0.00440516
H        0.00000000       0.00000000       0.00000000       0.39292181       0.25670049       0.15422404
H        0.00000000       0.00000000       0.00000000      -0.02267432      -0.21446325      -0.18940204
7
Lattice="529.1772105638412 0.0 0.0 0.0 529.1772105638412 0.0 0.0 0.0 529.1772105638412" Properties=species:S:1:pos:R:3:forces_component_raw:R:3 ipi_comment="Step:        3740  Bead:       0 forces_component_raw{ase}  cell{ase}" pbc="T T T"
O        0.00000000       0.00000000       0.00000000      -0.68757177       0.51883465       0.29520744
H        0.00000000       0.00000000       0.00000000       0.35707647      -0.76494807       0.46080804
H        0.00000000       0.00000000       0.00000000       0.58264810      -0.13912830      -0.72632754
O        0.00000000       0.00000000       0.00000000      -0.05954975      -0.64875269       0.16950126
H        0.00000000       0.00000000       0.00000000      -0.45781347       0.06537434      -0.03748499
H        0.00000000       0.00000000       0.00000000       0.22625062       0.89118582      -0.12001345
H        0.00000000       0.00000000       0.00000000       0.03895974       0.07743403      -0.04169074
7
Lattice="529.1772105638412 0.0 0.0 0.0 529.1772105638412 0.0 0.0 0.0 529.1772105638412" Properties=species:S:1:pos:R:3:forces_component_raw:R:3 ipi_comment="Step:        3760  Bead:       0 forces_component_raw{ase}  cell{ase}" pbc="T T T"
O        0.00000000       0.00000000       0.00000000      -0.53239179      -0.77831042       1.38785065
H        0.00000000       0.00000000       0.00000000       0.47257692      -0.05726445      -0.90658075
H        0.00000000       0.00000000       0.00000000      -0.23886967       0.43484748      -0.22793090
O        0.00000000       0.00000000       0.00000000      -0.71751559       0.24189067      -0.64544588
H        0.00000000       0.00000000       0.00000000       0.88596600       0.38136026      -0.04631369
H        0.00000000       0.00000000       0.00000000       0.37968052      -0.08841097       0.38073483
H        0.00000000       0.00000000       0.00000000      -0.24944639      -0.13411260       0.05768582
7
Lattice="529.1772105638412 0.0 0.0 0.0 529.1772105638412 0.0 0.0 0.0 529.1772105638412" Properties=species:S:1:pos:R:3:forces_component_raw:R:3 ipi_comment="Step:        3780  Bead:       0 forces_component_raw{ase}  cell{ase}" pbc="T T T"
O        0.00000000       0.00000000       0.00000000      -0.17941931       1.73429609      -0.94549942
H        0.00000000       0.00000000       0.00000000       0.06723830      -0.25190321       0.16262102
H        0.00000000       0.00000000       0.00000000      -0.00203487      -0.15989466       0.17877126
O        0.00000000       0.00000000       0.00000000       1.47410763      -0.36317766       1.01937056
H        0.00000000       0.00000000       0.00000000      -0.31434891      -1.06634498       0.44672519
H        0.00000000       0.00000000       0.00000000      -0.91853476      -0.31083870      -0.39136994
H        0.00000000       0.00000000       0.00000000      -0.12700808       0.41786286      -0.47061867
7
Lattice="529.1772105638412 0.0 0.0 0.0 529.1772105638412 0.0 0.0 0.0 529.1772105638412" Properties=species:S:1:pos:R:3:forces_component_raw:R:3 ipi_comment="Step:        3800  Bead:       0 forces_component_raw{ase}  cell{ase}" pbc="T T T"
O        0.00000000       0.00000000       0.00000000       0.38158280       0.12397665      -1.08944738
H        0.00000000       0.00000000       0.00000000       0.00668812       0.39986453      -0.00162786
H        0.00000000       0.00000000       0.00000000      -0.42506185      -0.19452967       1.04982507
O        0.00000000       0.00000000       0.00000000       0.81116492      -0.29559955       0.00674212
H        0.00000000       0.00000000       0.00000000      -0.17605637       0.81586242      -0.25588727
H        0.00000000       0.00000000       0.00000000      -0.17157429      -0.52320373       0.28732824
H        0.00000000       0.00000000       0.00000000      -0.42674324      -0.32637072       0.00306720
7
Lattice="529.1772105638412 0.0 0.0 0.0 529.1772105638412 0.0 0.0 0.0 529.1772105638412" Properties=species:S:1:pos:R:3:forces_component_raw:R:3 ipi_comment="Step:        3820  Bead:       0 forces_component_raw{ase}  cell{ase}" pbc="T T T"
O        0.00000000       0.00000000       0.00000000      -0.24310625       1.05926776       0.17855208
H        0.00000000       0.00000000       0.00000000      -0.03593867      -0.44973925      -0.02346423
H        0.00000000       0.00000000       0.00000000       0.09688213      -0.44921219      -0.07058209
O        0.00000000       0.00000000       0.00000000      -0.36526463       0.63037527      -0.64063460
H        0.00000000       0.00000000       0.00000000       0.40285194      -0.30865300       0.04942630
H        0.00000000       0.00000000       0.00000000      -0.61946553      -0.31306326      -0.11215448
H        0.00000000       0.00000000       0.00000000       0.76404107      -0.16897517       0.61885703
7
Lattice="529.1772105638412 0.0 0.0 0.0 529.1772105638412 0.0 0.0 0.0 529.1772105638412" Properties=species:S:1:pos:R:3:forces_component_raw:R:3 ipi_comment="Step:        3840  Bead:       0 forces_component_raw{ase}  cell{ase}" pbc="T T T"
O        0.00000000       0.00000000       0.00000000       0.27493432      -0.09625506       1.82555330
H        0.00000000       0.00000000       0.00000000      -0.18087500      -0.60518903      -1.20744324
H        0.00000000       0.00000000       0.00000000       0.45782909       0.61688948      -0.64505929
O        0.00000000       0.00000000       0.00000000      -0.90771419       1.37216473      -1.53159809
H        0.00000000       0.00000000       0.00000000      -0.87233722      -0.38719004       0.08323348
H        0.00000000       0.00000000       0.00000000       0.38884968       0.12829520       0.14319059
H        0.00000000       0.00000000       0.00000000       0.83931351      -1.02871514       1.33212316
7
Lattice="529.1772105638412 0.0 0.0 0.0 529.1772105638412 0.0 0.0 0.0 529.1772105638412" Properties=species:S:1:pos:R:3:forces_component_raw:R:3 ipi_comment="Step:        3860  Bead:       0 forces_component_raw{ase}  cell{ase}" pbc="T T T"
O        0.00000000       0.00000000       0.00000000       0.67802715       0.32390159       2.54666353
H        0.00000000       0.00000000       0.00000000      -1.30483342      -1.39521873      -1.21699500
H        0.00000000       0.00000000       0.00000000       0.25594479      -0.20297872      -1.04432810
O        0.00000000       0.00000000       0.00000000      -2.20029331       0.52815455      -1.48882699
H        0.00000000       0.00000000       0.00000000       0.84224785       0.27639628       0.25703913
H        0.00000000       0.00000000       0.00000000       1.39095354       0.41991800       0.32943255
H        0.00000000       0.00000000       0.00000000       0.33795342       0.04982728       0.61701524
7
Lattice="529.1772105638412 0.0 0.0 0.0 529.1772105638412 0.0 0.0 0.0 529.1772105638412" Properties=species:S:1:pos:R:3:forces_component_raw:R:3 ipi_comment="Step:        3880  Bead:       0 forces_component_raw{ase}  cell{ase}" pbc="T T T"
O        0.00000000       0.00000000       0.00000000       0.50356692      -0.66824907       2.28479577
H        0.00000000       0.00000000       0.00000000      -0.78485215      -0.23230965      -1.75325084
H        0.00000000       0.00000000       0.00000000       0.52845073       0.41256315      -0.26601988
O        0.00000000       0.00000000       0.00000000      -0.19783330      -0.40857595       0.79855895
H        0.00000000       0.00000000       0.00000000      -0.50305796      -0.09265590      -0.32899642
H        0.00000000       0.00000000       0.00000000       1.17633260       0.79560185       0.34379634
H        0.00000000       0.00000000       0.00000000      -0.72260690       0.19362558      -1.07888401
7
Lattice="529.1772105638412 0.0 0.0 0.0 529.1772105638412 0.0 0.0 0.0 529.1772105638412" Properties=species:S:1:pos:R:3:forces_component_raw:R:3 ipi_comment="Step:        3900  Bead:       0 forces_component_raw{ase}  cell{ase}" pbc="T T T"
O        0.00000000       0.00000000       0.00000000       0.65317238       0.86773801      -0.00185731
H        0.00000000       0.00000000       0.00000000      -0.69542086      -0.49028540       0.02394584
H        0.00000000       0.00000000       0.00000000      -0.20882057       0.00643058      -0.39583916
O        0.00000000       0.00000000       0.00000000      -0.13027874      -1.82687986       1.70299447
H        0.00000000       0.00000000       0.00000000       0.31713998      -0.11185889       0.32654905
H        0.00000000       0.00000000       0.00000000       0.85138691       1.00770569      -0.07675821
H        0.00000000       0.00000000       0.00000000      -0.78717929       0.54714972      -1.57903469
7
Lattice="529.1772105638412 0.0 0.0 0.0 529.1772105638412 0.0 0.0 0.0 529.1772105638412" Properties=species:S:1:pos:R:3:forces_component_raw:R:3 ipi_comment="Step:        3920  Bead:       0 forces_component_raw{ase}  cell{ase}" pbc="T T T"
O        0.00000000       0.00000000       0.00000000      -0.44282675       0.89149857      -0.50745130
H        0.00000000       0.00000000       0.00000000       0.30956420       0.28968379       0.10837334
H        0.00000000       0.00000000       0.00000000       0.07899393       0.01571870       0.35145247
O        0.00000000       0.00000000       0.00000000      -0.34481907      -1.10243845       1.12739873
H        0.00000000       0.00000000       0.00000000       0.52623654      -0.22459760      -0.28119189
H        0.00000000       0.00000000       0.00000000       1.11034823       0.21157983       0.54704332
H        0.00000000       0.00000000       0.00000000      -1.23749709      -0.08144486      -1.34562481
7
Lattice="529.1772105638412 0.0 0.0 0.0 529.1772105638412 0.0 0.0 0.0 529.1772105638412" Properties=species:S:1:pos:R:3:forces_component_raw:R:3 ipi_comment="Step:        3940  Bead:       0 forces_component_raw{ase}  cell{ase}" pbc="T T T"
O        0.00000000       0.00000000       0.00000000      -1.34092617      -0.46657693      -1.65472818
H        0.00000000       0.00000000       0.00000000       1.31514800       0.82546479       1.00292540
H        0.00000000       0.00000000       0.00000000       0.17038806      -0.02609326       0.51944560
O        0.00000000       0.00000000       0.00000000       0.14910564      -2.35107947       1.90081096
H        0.00000000       0.00000000       0.00000000      -0.16159529       0.17967147       0.25780919
H        0.00000000       0.00000000       0.00000000      -0.01648653       0.48617008      -0.39157841
H        0.00000000       0.00000000       0.00000000      -0.11563361       1.35244298      -1.63468421
7
Lattice="529.1772105638412 0.0 0.0 0.0 529.1772105638412 0.0 0.0 0.0 529.1772105638412" Properties=species:S:1:pos:R:3:forces_component_raw:R:3 ipi_comment="Step:        3960  Bead:       0 forces_component_raw{ase}  cell{ase}" pbc="T T T"
O        0.00000000       0.00000000       0.00000000      -1.26063299      -0.87361080      -1.38957954
H        0.00000000       0.00000000       0.00000000       1.46652246       0.67990840       1.46664644
H        0.00000000       0.00000000       0.00000000      -0.20193812      -0.39151591       0.00977516
O        0.00000000       0.00000000       0.00000000       1.77145243      -0.03334504       0.62519175
H        0.00000000       0.00000000       0.00000000      -0.31287626      -0.19432674       0.10420662
H        0.00000000       0.00000000       0.00000000      -0.35628510      -0.53874093       0.43667659
H        0.00000000       0.00000000       0.00000000      -1.10624242       1.35163093      -1.25291693
7
Lattice="529.1772105638412 0.0 0.0 0.0 529.1772105638412 0.0 0.0 0.0 529.1772105638412" Properties=species:S:1:pos:R:3:forces_component_raw:R:3 ipi_comment="Step:        3980  Bead:       0 forces_component_raw{ase}  cell{ase}" pbc="T T T"
O        0.00000000       0.00000000       0.00000000      -1.48659909      -1.16552329      -1.10296798
H        0.00000000       0.00000000       0.00000000       1.19526541       0.57255608       0.65793836
H        0.00000000       0.00000000       0.00000000       0.18246354      -0.02960972       0.37194425
O        0.00000000       0.00000000       0.00000000      -0.46043956      -1.21993017       0.40213758
H        0.00000000       0.00000000       0.00000000       0.14559451       0.44301599       0.38240188
H        0.00000000       0.00000000       0.00000000      -0.10610348       0.37193629      -0.21311992
H        0.00000000       0.00000000       0.00000000       0.52981866       1.02755463      -0.49833435
7
Lattice="529.1772105638412 0.0 0.0 0.0 529.1772105638412 0.0 0.0 0.0 529.1772105638412" Properties=species:S:1:pos:R:3:forces_component_raw:R:3 ipi_comment="Step:        4000  Bead:       0 forces_component_raw{ase}  cell{ase}" pbc="T T T"
O        0.00000000       0.00000000       0.00000000      -0.13842008       0.16900528       0.22044589
H        0.00000000       0.00000000       0.00000000       0.31413034      -0.11110306       0.48435772
H        0.00000000       0.00000000       0.00000000      -0.15442672       0.02110827      -0.65367091
O        0.00000000       0.00000000       0.00000000       0.65737301       0.77606285       0.05485207
H        0.00000000       0.00000000       0.00000000      -0.26701862      -0.38642919      -0.31908554
H        0.00000000       0.00000000       0.00000000       0.11040640      -0.50493389       0.18603288
H        0.00000000       0.00000000       0.00000000      -0.52204424       0.03628963       0.02706793
7
Lattice="529.1772105638412 0.0 0.0 0.0 529.1772105638412 0.0 0.0 0.0 529.1772105638412" Properties=species:S:1:pos:R:3:forces_component_raw:R:3 ipi_comment="Step:        4020  Bead:       0 forces_component_raw{ase}  cell{ase}" pbc="T T T"
O        0.00000000       0.00000000       0.00000000       0.12229463      -0.13107866       1.73555971
H        0.00000000       0.00000000       0.00000000      -0.50160223      -0.02435322      -0.73077619
H        0.00000000       0.00000000       0.00000000       0.59450728       0.56876940      -1.12258721
O        0.00000000       0.00000000       0.00000000      -1.26050222      -0.28023529       0.08811048
H        0.00000000       0.00000000       0.00000000       0.31333119       0.56268853       0.03533125
H        0.00000000       0.00000000       0.00000000      -0.34272176       0.39523453      -0.18965617
H        0.00000000       0.00000000       0.00000000       1.07469321      -1.09102512       0.18401827
7
Lattice="529.1772105638412 0.0 0.0 0.0 529.1772105638412 0.0 0.0 0.0 529.1772105638412" Properties=species:S:1:pos:R:3:forces_component_raw:R:3 ipi_comment="Step:        4040  Bead:       0 forces_component_raw{ase}  cell{ase}" pbc="T T T"
O        0.00000000       0.00000000       0.00000000       1.58044386       0.51297552       1.40356291
H        0.00000000       0.00000000       0.00000000      -1.12982035       0.02796234      -0.36180791
H        0.00000000       0.00000000       0.00000000      -0.11022599       0.15808675      -0.91291040
O        0.00000000       0.00000000       0.00000000      -1.31222999       2.42510701      -0.43468487
H        0.00000000       0.00000000       0.00000000      -0.11447394      -0.37542260      -0.28192225
H        0.00000000       0.00000000       0.00000000       0.12899005      -0.50835985       0.07772641
H        0.00000000       0.00000000       0.00000000       0.95731640      -2.24034930       0.51003593
7
Lattice="529.1772105638412 0.0 0.0 0.0 529.1772105638412 0.0 0.0 0.0 529.1772105638412" Properties=species:S:1:pos:R:3:forces_component_raw:R:3 ipi_comment="Step:        4060  Bead:       0 forces_component_raw{ase}  cell{ase}" pbc="T T T"
O        0.00000000       0.00000000       0.00000000       0.18559310      -0.62996686       0.43147883
H        0.00000000       0.00000000       0.00000000      -0.57731426       0.30032808      -1.07606519
H        0.00000000       0.00000000       0.00000000       0.17137726       0.01020017       0.38748640
O        0.00000000       0.00000000       0.00000000      -1.16928089       0.51001203       0.15956366
H        0.00000000       0.00000000       0.00000000       0.30386514       0.44406185       0.58424300
H        0.00000000       0.00000000       0.00000000       0.11385453       0.61512256      -0.09398824
H        0.00000000       0.00000000       0.00000000       0.97190500      -1.24975789      -0.39271838
7
Lattice="529.1772105638412 0.0 0.0 0.0 529.1772105638412 0.0 0.0 0.0 529.1772105638412" Properties=species:S:1:pos:R:3:forces_component_raw:R:3 ipi_comment="Step:        4080  Bead:       0 forces_component_raw{ase}  cell{ase}" pbc="T T T"
O        0.00000000       0.00000000       0.00000000       1.17675734       0.63885594       0.55872917
H        0.00000000       0.00000000       0.00000000      -0.68810654      -0.17164284      -0.40423206
H        0.00000000       0.00000000       0.00000000      -0.73548001      -0.78525663       0.24379292
O        0.00000000       0.00000000       0.00000000       1.14445579       1.08695746      -0.47737819
H        0.00000000       0.00000000       0.00000000      -0.17821297      -0.29083860      -0.48913998
H        0.00000000       0.00000000       0.00000000      -0.43213433      -0.38281208       0.33707810
H        0.00000000       0.00000000       0.00000000      -0.28727958      -0.09526330       0.23114997
7
Lattice="529.1772105638412 0.0 0.0 0.0 529.1772105638412 0.0 0.0 0.0 529.1772105638412" Properties=species:S:1:pos:R:3:forces_component_raw:R:3 ipi_comment="Step:        4100  Bead:       0 forces_component_raw{ase}  cell{ase}" pbc="T T T"
O        0.00000000       0.00000000       0.00000000      -1.12401068       0.27515391      -1.98770333
H        0.00000000       0.00000000       0.00000000       0.41504067       0.10456534       0.09064686
H        0.00000000       0.00000000       0.00000000       0.24289461      -0.72531575       1.54078448
O        0.00000000       0.00000000       0.00000000       1.53636504      -1.49341905      -1.28247667
H        0.00000000       0.00000000       0.00000000       0.23226190       0.07475333       0.56362659
H        0.00000000       0.00000000       0.00000000      -1.10684657       0.28707695       0.83796048
H        0.00000000       0.00000000       0.00000000      -0.19570497       1.47718513       0.23716147
7
Lattice="529.1772105638412 0.0 0.0 0.0 529.1772105638412 0.0 0.0 0.0 529.1772105638412" Properties=species:S:1:pos:R:3:forces_component_raw:R:3 ipi_comment="Step:        4120  Bead:       0 forces_component_raw{ase}  cell{ase}" pbc="T T T"
O        0.00000000       0.00000000       0.00000000      -0.24233785       0.68854863      -0.76993120
H        0.00000000       0.00000000       0.00000000       0.53306455       0.03601474       0.44064000
H        0.00000000       0.00000000       0.00000000      -0.10067955      -0.85846472       0.73045689
O        0.00000000       0.00000000       0.00000000       1.53195143      -1.71671701      -0.32256621
H        0.00000000       0.00000000       0.00000000      -0.39090115       0.35882229      -0.76744390
H        0.00000000       0.00000000       0.00000000      -0.34103304      -0.30533949       0.28949678
H        0.00000000       0.00000000       0.00000000      -0.99006438       1.79713548       0.39934772
7
Lattice="529.1772105638412 0.0 0.0 0.0 529.1772105638412 0.0 0.0 0.0 529.1772105638412" Properties=species:S:1:pos:R:3:forces_component_raw:R:3 ipi_comment="Step:        4140  Bead:       0 forces_component_raw{ase}  cell{ase}" pbc="T T T"
O        0.00000000       0.00000000       0.00000000      -0.53757310       1.27090693      -0.63359684
H        0.00000000       0.00000000       0.00000000       0.40046895      -0.19839034       0.13006091
H        0.00000000       0.00000000       0.00000000       0.44505674       0.14947489       0.23568064
O        0.00000000       0.00000000       0.00000000      -0.20381498      -2.16773773       0.04388583
H        0.00000000       0.00000000       0.00000000       0.23167017      -0.74552399       0.48458779
H        0.00000000       0.00000000       0.00000000       0.09832573       0.10139701      -0.10109372
H        0.00000000       0.00000000       0.00000000      -0.43413335       1.58987320      -0.15952449
7
Lattice="529.1772105638412 0.0 0.0 0.0 529.1772105638412 0.0 0.0 0.0 529.1772105638412" Properties=species:S:1:pos:R:3:forces_component_raw:R:3 ipi_comment="Step:        4160  Bead:       0 forces_component_raw{ase}  cell{ase}" pbc="T T T"
O        0.00000000       0.00000000       0.00000000       0.57758606      -0.54181147       0.52328301
H        0.00000000       0.00000000       0.00000000      -0.34081709       0.31676692      -0.18903559
H        0.00000000       0.00000000       0.00000000       0.14785659       0.05908960      -0.17314704
O        0.00000000       0.00000000       0.00000000       0.32988799      -0.42462760       0.70277238
H        0.00000000       0.00000000       0.00000000      -0.73560327       0.60192323      -0.27995816
H        0.00000000       0.00000000       0.00000000       0.57256878      -0.25934088      -0.53211659
H        0.00000000       0.00000000       0.00000000      -0.55147886       0.24800021      -0.05179799
7
Lattice="529.1772105638412 0.0 0.0 0.0 529.1772105638412 0.0 0.0 0.0 529.1772105638412" Properties=species:S:1:pos:R:3:forces_component_raw:R:3 ipi_comment="Step:        4180  Bead:       0 forces_component_raw{ase}  cell{ase}" pbc="T T T"
O        0.00000000       0.00000000       0.00000000       0.10523707      -0.48983669      -0.12066510
H        0.00000000       0.00000000       0.00000000      -0.35045126      -0.04996365       0.09020829
H        0.00000000       0.00000000       0.00000000      -0.22983049       0.28034544      -0.13548119
O        0.00000000       0.00000000       0.00000000      -1.37185014       0.14130861       0.84198511
H        0.00000000       0.00000000       0.00000000       0.79354412      -0.34741944       0.09987512
H        0.00000000       0.00000000       0.00000000       0.66580707      -0.03165250      -0.72794378
H        0.00000000       0.00000000       0.00000000       0.38754380       0.49721825      -0.04797837
7
Lattice="529.1772105638412 0.0 0.0 0.0 529.1772105638412 0.0 0.0 0.0 529.1772105638412" Properties=species:S:1:pos:R:3:forces_component_raw:R:3 ipi_comment="Step:        4200  Bead:       0 forces_component_raw{ase}  cell{ase}" pbc="T T T"
O        0.00000000       0.00000000       0.00000000      -0.09988415      -1.55460751      -0.48167652
H        0.00000000       0.00000000       0.00000000       0.20403919       0.61135256       0.26877505
H        0.00000000       0.00000000       0.00000000      -0.20390938      -0.07311612      -0.20592368
O        0.00000000       0.00000000       0.00000000       0.09261447       0.93865741       0.43989313
H        0.00000000       0.00000000       0.00000000      -0.64758474       0.33646029       0.41453108
H        0.00000000       0.00000000       0.00000000       0.98039890      -0.20078057      -0.58870745
H        0.00000000       0.00000000       0.00000000      -0.32567418      -0.05796605       0.15310848
7
Lattice="529.1772105638412 0.0 0.0 0.0 529.1772105638412 0.0 0.0 0.0 529.1772105638412" Properties=species:S:1:pos:R:3:forces_component_raw:R:3 ipi_comment="Step:        4220  Bead:       0 forces_component_raw{ase}  cell{ase}" pbc="T T T"
O        0.00000000       0.00000000       0.00000000      -0.07350791       1.03821624      -0.36396325
H        0.00000000       0.00000000       0.00000000      -0.43792480      -0.27094996       0.15181784
H        0.00000000       0.00000000       0.00000000      -0.22837845      -0.62517214       0.38211688
O        0.00000000       0.00000000       0.00000000      -0.24566165       0.25631726       0.71949768
H        0.00000000       0.00000000       0.00000000       0.70460582      -0.77160722      -0.50701618
H        0.00000000       0.00000000       0.00000000      -0.14475477       0.38825920      -0.14305815
H        0.00000000       0.00000000       0.00000000       0.42562163      -0.01506341      -0.23939484
7
Lattice="529.1772105638412 0.0 0.0 0.0 529.1772105638412 0.0 0.0 0.0 529.1772105638412" Properties=species:S:1:pos:R:3:forces_component_raw:R:3 ipi_comment="Step:        4240  Bead:       0 forces_component_raw{ase}  cell{ase}" pbc="T T T"
O        0.00000000       0.00000000       0.00000000      -1.08021736       0.29109389      -0.41740006
H        0.00000000       0.00000000       0.00000000       0.64301646       0.21363309      -0.15621530
H        0.00000000       0.00000000       0.00000000       0.36353505      -0.94554264       0.28946850
O        0.00000000       0.00000000       0.00000000       2.05955744       0.20455062      -0.73072255
H        0.00000000       0.00000000       0.00000000      -0.58356667       0.56669527       0.35255542
H        0.00000000       0.00000000       0.00000000      -0.75292826      -0.15193747       0.67004472
H        0.00000000       0.00000000       0.00000000      -0.64939636      -0.17849267      -0.00773072
7
Lattice="529.1772105638412 0.0 0.0 0.0 529.1772105638412 0.0 0.0 0.0 529.1772105638412" Properties=species:S:1:pos:R:3:forces_component_raw:R:3 ipi_comment="Step:        4260  Bead:       0 forces_component_raw{ase}  cell{ase}" pbc="T T T"
O        0.00000000       0.00000000       0.00000000      -1.34039676       1.94736958      -0.06607291
H        0.00000000       0.00000000       0.00000000       0.82809687      -0.55109954      -0.21131176
H        0.00000000       0.00000000       0.00000000       0.25007260      -1.19534624       0.61360580
O        0.00000000       0.00000000       0.00000000      -0.37798596       0.07034892       0.10403806
H        0.00000000       0.00000000       0.00000000       0.85936988      -0.11542174      -0.63896674
H        0.00000000       0.00000000       0.00000000      -0.58312774       0.03854539       0.25919226
H        0.00000000       0.00000000       0.00000000       0.36397109      -0.19439620      -0.06048465
7
Lattice="529.1772105638412 0.0 0.0 0.0 529.1772105638412 0.0 0.0 0.0 529.1772105638412" Properties=species:S:1:pos:R:3:forces_component_raw:R:3 ipi_comment="Step:        4280  Bead:       0 forces_component_raw{ase}  cell{ase}" pbc="T T T"
O        0.00000000       0.00000000       0.00000000       0.86157000       0.73035419       0.24523738
H        0.00000000       0.00000000       0.00000000      -0.37986517       0.36098874       0.03053677
H        0.00000000       0.00000000       0.00000000       0.52326864      -0.63742197       0.01861358
O        0.00000000       0.00000000       0.00000000       0.44801116      -0.26410502      -0.60236061
H        0.00000000       0.00000000       0.00000000      -0.68021935       0.30542463       0.00652051
H        0.00000000       0.00000000       0.00000000      -0.32229447      -0.31881076       0.20335642
H        0.00000000       0.00000000       0.00000000      -0.45047084      -0.17642981       0.09809604
7
Lattice="529.1772105638412 0.0 0.0 0.0 529.1772105638412 0.0 0.0 0.0 529.1772105638412" Properties=species:S:1:pos:R:3:forces_component_raw:R:3 ipi_comment="Step:        4300  Bead:       0 forces_component_raw{ase}  cell{ase}" pbc="T T T"
O        0.00000000       0.00000000       0.00000000       1.38247681       0.93298811      -0.16001233
H        0.00000000       0.00000000       0.00000000      -1.06207752      -0.02121191       0.09842095
H        0.00000000       0.00000000       0.00000000       0.23302481      -0.28741574       0.15039164
O        0.00000000       0.00000000       0.00000000      -2.57647157      -1.23384702      -0.20877010
H        0.00000000       0.00000000       0.00000000       0.62890554       0.12410197       0.35649800
H        0.00000000       0.00000000       0.00000000       0.87233800       0.08286041      -0.31001243
H        0.00000000       0.00000000       0.00000000       0.52180410       0.40252426       0.07348421
7
Lattice="529.1772105638412 0.0 0.0 0.0 529.1772105638412 0.0 0.0 0.0 529.1772105638412" Properties=species:S:1:pos:R:3:forces_component_raw:R:3 ipi_comment="Step:        4320  Bead:       0 forces_component_raw{ase}  cell{ase}" pbc="T T T"
O        0.00000000       0.00000000       0.00000000       1.06277752      -1.15149045      -0.10841560
H        0.00000000       0.00000000       0.00000000      -1.30004061       0.60726011       0.04565917
H        0.00000000       0.00000000       0.00000000       0.13927570       0.06388122      -0.14058556
O        0.00000000       0.00000000       0.00000000       0.12224647       0.63271129       0.67665374
H        0.00000000       0.00000000       0.00000000      -0.25994209       0.31636673       0.02814370
H        0.00000000       0.00000000       0.00000000       0.52409518      -0.85921020      -1.02471411
H        0.00000000       0.00000000       0.00000000      -0.28841218       0.39048123       0.52325857
7
Lattice="529.1772105638412 0.0 0.0 0.0 529.1772105638412 0.0 0.0 0.0 529.1772105638412" Properties=species:S:1:pos:R:3:forces_component_raw:R:3 ipi_comment="Step:        4340  Bead:       0 forces_component_raw{ase}  cell{ase}" pbc="T T T"
O        0.00000000       0.00000000       0.00000000      -0.04921600      -0.42545825       0.04149276
H        0.00000000       0.00000000       0.00000000      -0.88037849       0.35053247      -0.24614245
H        0.00000000       0.00000000       0.00000000       0.19453183       0.04702383      -0.03136806
O        0.00000000       0.00000000       0.00000000      -0.67477262       0.07545364       0.18795273
H        0.00000000       0.00000000       0.00000000       0.29772344      -0.43477666      -0.01993933
H        0.00000000       0.00000000       0.00000000       0.54938251       0.21395460       0.13069969
H        0.00000000       0.00000000       0.00000000       0.56272924       0.17327029      -0.06269526
7
Lattice="529.1772105638412 0.0 0.0 0.0 529.1772105638412 0.0 0.0 0.0 529.1772105638412" Properties=species:S:1:pos:R:3:forces_component_raw:R:3 ipi_comment="Step:        4360  Bead:       0 forces_component_raw{ase}  cell{ase}" pbc="T T T"
O        0.00000000       0.00000000       0.00000000      -1.39350784      -1.68347073       0.32159048
H        0.00000000       0.00000000       0.00000000       0.20887210       0.31290078      -0.00410953
H        0.00000000       0.00000000       0.00000000       0.23503789       0.47715682      -0.54487413
O        0.00000000       0.00000000       0.00000000       2.23091984       0.63084048      -0.18808211
H        0.00000000       0.00000000       0.00000000      -0.02777660       0.37010011       0.18572235
H        0.00000000       0.00000000       0.00000000      -0.61040008      -0.03829248      -0.00430089
H        0.00000000       0.00000000       0.00000000      -0.64314497      -0.06923515       0.23405397
7
Lattice="529.1772105638412 0.0 0.0 0.0 529.1772105638412 0.0 0.0 0.0 529.1772105638412" Properties=species:S:1:pos:R:3:forces_component_raw:R:3 ipi_comment="Step:        4380  Bead:       0 forces_component_raw{ase}  cell{ase}" pbc="T T T"
O        0.00000000       0.00000000       0.00000000      -1.17462826       0.15140864       0.30484825
H        0.00000000       0.00000000       0.00000000       0.54803163      -1.23031068       0.61566341
H        0.00000000       0.00000000       0.00000000      -0.05881497       0.92214531      -0.86167985
O        0.00000000       0.00000000       0.00000000       1.16649485       0.05528325      -1.02428222
H        0.00000000       0.00000000       0.00000000       0.05766645      -0.27745631      -0.13217282
H        0.00000000       0.00000000       0.00000000      -0.92799449       0.26609534       0.88225043
H        0.00000000       0.00000000       0.00000000       0.38924459       0.11283444       0.21537286
7
Lattice="529.1772105638412 0.0 0.0 0.0 529.1772105638412 0.0 0.0 0.0 529.1772105638412" Properties=species:S:1:pos:R:3:forces_component_raw:R:3 ipi_comment="Step:        4400  Bead:       0 forces_component_raw{ase}  cell{ase}" pbc="T T T"
O        0.00000000       0.00000000       0.00000000      -3.03570128       0.45356694      -0.41425514
H        0.00000000       0.00000000       0.00000000       1.83623720      -1.20061839       0.59073460
H        0.00000000       0.00000000       0.00000000       0.79515380       0.36731309      -0.43652323
O        0.00000000       0.00000000       0.00000000       1.87820876       0.12416810      -0.42653471
H        0.00000000       0.00000000       0.00000000      -0.11392654       0.16680826       0.28327042
H        0.00000000       0.00000000       0.00000000      -0.80212987       0.14140609       0.09359732
H        0.00000000       0.00000000       0.00000000      -0.55784238      -0.05264415       0.30971074
7
Lattice="529.1772105638412 0.0 0.0 0.0 529.1772105638412 0.0 0.0 0.0 529.1772105638412" Properties=species:S:1:pos:R:3:forces_component_raw:R:3 ipi_comment="Step:        4420  Bead:       0 forces_component_raw{ase}  cell{ase}" pbc="T T T"
O        0.00000000       0.00000000       0.00000000      -0.45437229       0.52510035      -0.07440579
H        0.00000000       0.00000000       0.00000000       0.76032627      -1.16893447       1.14323521
H        0.00000000       0.00000000       0.00000000      -0.05691114       0.99337304      -0.93069655
O        0.00000000       0.00000000       0.00000000      -1.10869456      -0.59178567       0.83727282
H        0.00000000       0.00000000       0.00000000       1.13725984       0.27268171      -0.11390537
H        0.00000000       0.00000000       0.00000000      -0.27691108      -0.06202729       0.04830432
H        0.00000000       0.00000000       0.00000000      -0.00069715       0.03159228      -0.90980452
7
Lattice="529.1772105638412 0.0 0.0 0.0 529.1772105638412 0.0 0.0 0.0 529.1772105638412" Properties=species:S:1:pos:R:3:forces_component_raw:R:3 ipi_comment="Step:        4440  Bead:       0 forces_component_raw{ase}  cell{ase}" pbc="T T T"
O        0.00000000       0.00000000       0.00000000      -0.69990677      -0.71503627       0.66527420
H        0.00000000       0.00000000       0.00000000       0.39398399       0.22864659      -0.24168015
H        0.00000000       0.00000000       0.00000000       1.09895742       0.79589677      -0.47327840
O        0.00000000       0.00000000       0.00000000      -0.62697309       0.24159925       1.03393412
H        0.00000000       0.00000000       0.00000000      -0.71678895      -0.02469392       0.41929001
H        0.00000000       0.00000000       0.00000000       0.84634900      -0.37347126      -0.40391535
H        0.00000000       0.00000000       0.00000000      -0.29562151      -0.15294117      -0.99962443
7
Lattice="529.1772105638412 0.0 0.0 0.0 529.1772105638412 0.0 0.0 0.0 529.1772105638412" Properties=species:S:1:pos:R:3:forces_component_raw:R:3 ipi_comment="Step:        4460  Bead:       0 forces_component_raw{ase}  cell{ase}" pbc="T T T"
O        0.00000000       0.00000000       0.00000000       1.07256735      -0.20039955       0.83683080
H        0.00000000       0.00000000       0.00000000      -0.72597742       0.01472950      -0.44745523
H        0.00000000       0.00000000       0.00000000      -0.32641465       0.20615548      -0.33097613
O        0.00000000       0.00000000       0.00000000      -0.51503849       0.74965674       2.75407458
H        0.00000000       0.00000000       0.00000000       0.44680274      -0.11797734      -0.45354346
H        0.00000000       0.00000000       0.00000000       0.42536122      -0.79864049      -1.05994785
H        0.00000000       0.00000000       0.00000000      -0.37730074       0.14647567      -1.29898274
7
Lattice="529.1772105638412 0.0 0.0 0.0 529.1772105638412 0.0 0.0 0.0 529.1772105638412" Properties=species:S:1:pos:R:3:forces_component_raw:R:3 ipi_comment="Step:        4480  Bead:       0 forces_component_raw{ase}  cell{ase}" pbc="T T T"
O        0.00000000       0.00000000       0.00000000       0.22246710       0.16243903       0.00743069
H        0.00000000       0.00000000       0.00000000      -0.34802947       1.20437670      -0.65707058
H        0.00000000       0.00000000       0.00000000      -0.26402214      -1.51419962       0.17057262
O        0.00000000       0.00000000       0.00000000      -0.83499497       0.36981613      -0.17715727
H        0.00000000       0.00000000       0.00000000      -0.03624687       0.15389812       1.03891719
H        0.00000000       0.00000000       0.00000000       1.10840881      -0.14423417      -0.02842885
H        0.00000000       0.00000000       0.00000000       0.15241751      -0.23209631      -0.35426372
7
Lattice="529.1772105638412 0.0 0.0 0.0 529.1772105638412 0.0 0.0 0.0 529.1772105638412" Properties=species:S:1:pos:R:3:forces_component_raw:R:3 ipi_comment="Step:        4500  Bead:       0 forces_component_raw{ase}  cell{ase}" pbc="T T T"
O        0.00000000       0.00000000       0.00000000       1.26802075       0.05975278       1.41290081
H        0.00000000       0.00000000       0.00000000      -0.83333147       1.11345363      -0.92372608
H        0.00000000       0.00000000       0.00000000      -0.89805949      -1.59342885      -0.45644266
O        0.00000000       0.00000000       0.00000000       0.95185691       0.31192246       0.81727696
H        0.00000000       0.00000000       0.00000000       0.03176817      -0.01829170      -0.69872672
H        0.00000000       0.00000000       0.00000000      -0.23693383      -0.32915235      -0.66523230
H        0.00000000       0.00000000       0.00000000      -0.28332096       0.45574436       0.51394987
7
Lattice="529.1772105638412 0.0 0.0 0.0 529.1772105638412 0.0 0.0 0.0 529.1772105638412" Properties=species:S:1:pos:R:3:forces_component_raw:R:3 ipi_comment="Step:        4520  Bead:       0 forces_component_raw{ase}  cell{ase}" pbc="T T T"
O        0.00000000       0.00000000       0.00000000       0.33340299       0.67356783       1.18734622
H        0.00000000       0.00000000       0.00000000      -0.93205714       1.00651276      -0.66186738
H        0.00000000       0.00000000       0.00000000       0.14705396      -1.38211131      -0.52452797
O        0.00000000       0.00000000       0.00000000       0.80687523      -1.28666485      -1.91541601
H        0.00000000       0.00000000       0.00000000       0.21175709      -0.39464384      -0.20419902
H        0.00000000       0.00000000       0.00000000      -1.19623351       0.89204055       0.72779524
H        0.00000000       0.00000000       0.00000000       0.62920141       0.49129874       1.39086867
7
Lattice="529.1772105638412 0.0 0.0 0.0 529.1772105638412 0.0 0.0 0.0 529.1772105638412" Properties=species:S:1:pos:R:3:forces_component_raw:R:3 ipi_comment="Step:        4540  Bead:       0 forces_component_raw{ase}  cell{ase}" pbc="T T T"
O        0.00000000       0.00000000       0.00000000      -0.25316590       0.20683101       0.27110106
H        0.00000000       0.00000000       0.00000000       0.00362492       0.29430786       0.01348361
H        0.00000000       0.00000000       0.00000000       0.32591897      -0.45499104      -0.23462391
O        0.00000000       0.00000000       0.00000000       3.52877284      -2.08164788      -1.18698573
H        0.00000000       0.00000000       0.00000000      -0.40813178       0.20294043       0.30340540
H        0.00000000       0.00000000       0.00000000      -2.16826678       1.00798476      -0.19012943
H        0.00000000       0.00000000       0.00000000      -1.02875269       0.82457495       1.02374912
7
Lattice="529.1772105638412 0.0 0.0 0.0 529.1772105638412 0.0 0.0 0.0 529.1772105638412" Properties=species:S:1:pos:R:3:forces_component_raw:R:3 ipi_comment="Step:        4560  Bead:       0 forces_component_raw{ase}  cell{ase}" pbc="T T T"
O        0.00000000       0.00000000       0.00000000      -0.47934711       0.20316678       0.22019124
H        0.00000000       0.00000000       0.00000000       0.12422746      -0.29458129      -0.08486626
H        0.00000000       0.00000000       0.00000000       0.13977072       0.31898272      -0.00619733
O        0.00000000       0.00000000       0.00000000      -0.14857090      -1.21728063      -0.80660945
H        0.00000000       0.00000000       0.00000000       0.62432718      -0.26978332      -0.20668925
H        0.00000000       0.00000000       0.00000000      -1.02690542       1.14086676       0.43978083
H        0.00000000       0.00000000       0.00000000       0.76649833       0.11862898       0.44439021
7
Lattice="529.1772105638412 0.0 0.0 0.0 529.1772105638412 0.0 0.0 0.0 529.1772105638412" Properties=species:S:1:pos:R:3:forces_component_raw:R:3 ipi_comment="Step:        4580  Bead:       0 forces_component_raw{ase}  cell{ase}" pbc="T T T"
O        0.00000000       0.00000000       0.00000000      -0.37889898      -0.25043890      -0.96881616
H        0.00000000       0.00000000       0.00000000       0.82959575      -0.48852652       0.49435806
H        0.00000000       0.00000000       0.00000000       0.02596509       0.41748720       0.41130495
O        0.00000000       0.00000000       0.00000000       0.65419734       1.39021778       1.77959180
H        0.00000000       0.00000000       0.00000000      -0.37545055       0.20101017       0.13769341
H        0.00000000       0.00000000       0.00000000      -0.20354828      -0.66580129      -0.57940155
H        0.00000000       0.00000000       0.00000000      -0.55186027      -0.60394842      -1.27473045
7
Lattice="529.1772105638412 0.0 0.0 0.0 529.1772105638412 0.0 0.0 0.0 529.1772105638412" Properties=species:S:1:pos:R:3:forces_component_raw:R:3 ipi_comment="Step:        4600  Bead:       0 forces_component_raw{ase}  cell{ase}" pbc="T T T"
O        0.00000000       0.00000000       0.00000000      -0.61046922       0.30536985      -0.25272983
H        0.00000000       0.00000000       0.00000000       0.68095005      -0.53715885       0.25830981
H        0.00000000       0.00000000       0.00000000      -0.09582204       0.01477921       0.00646368
O        0.00000000       0.00000000       0.00000000      -0.82729173       2.88029195       1.82122350
H        0.00000000       0.00000000       0.00000000       0.28093973       0.05829205      -0.22351034
H        0.00000000       0.00000000       0.00000000       0.43605387      -0.24658936       0.54821026
H        0.00000000       0.00000000       0.00000000       0.13563946      -2.47498465      -2.15796710
7
Lattice="529.1772105638412 0.0 0.0 0.0 529.1772105638412 0.0 0.0 0.0 529.1772105638412" Properties=species:S:1:pos:R:3:forces_component_raw:R:3 ipi_comment="Step:        4620  Bead:       0 forces_component_raw{ase}  cell{ase}" pbc="T T T"
O        0.00000000       0.00000000       0.00000000      -0.01219726       0.50016368       0.03722703
H        0.00000000       0.00000000       0.00000000      -0.06563830      -0.30172157      -0.10303898
H        0.00000000       0.00000000       0.00000000       0.02175453       0.00910503       0.03796420
O        0.00000000       0.00000000       0.00000000       0.61367941       2.02870656       2.19350863
H        0.00000000       0.00000000       0.00000000      -0.17019141      -0.16174549       0.15968436
H        0.00000000       0.00000000       0.00000000      -0.09580827      -0.34988535      -0.31965631
H        0.00000000       0.00000000       0.00000000      -0.29159868      -1.72462285      -2.00568915
7
Lattice="529.1772105638412 0.0 0.0 0.0 529.1772105638412 0.0 0.0 0.0 529.1772105638412" Properties=species:S:1:pos:R:3:forces_component_raw:R:3 ipi_comment="Step:        4640  Bead:       0 forces_component_raw{ase}  cell{ase}" pbc="T T T"
O        0.00000000       0.00000000       0.00000000       0.68534351       0.31405988      -0.14693940
H        0.00000000       0.00000000       0.00000000      -1.09088230       0.29121625      -0.21952558
H        0.00000000       0.00000000       0.00000000       0.20116583      -0.28631771       0.25354847
O        0.00000000       0.00000000       0.00000000      -0.49039126      -1.05495227      -0.57334608
H        0.00000000       0.00000000       0.00000000       0.55324131       0.04939578       0.21446848
H        0.00000000       0.00000000       0.00000000      -0.27249432       1.12764681       0.24159609
H        0.00000000       0.00000000       0.00000000       0.41401729      -0.44104868       0.23019785
7
Lattice="529.1772105638412 0.0 0.0 0.0 529.1772105638412 0.0 0.0 0.0 529.1772105638412" Properties=species:S:1:pos:R:3:forces_component_raw:R:3 ipi_comment="Step:        4660  Bead:       0 forces_component_raw{ase}  cell{ase}" pbc="T T T"
O        0.00000000       0.00000000       0.00000000       1.21070838      -0.31967837      -0.15661341
H        0.00000000       0.00000000       0.00000000      -1.08886028       1.01903832       0.04921779
H        0.00000000       0.00000000       0.00000000      -0.25220785      -0.97644139       0.07959787
O        0.00000000       0.00000000       0.00000000       1.83439923      -2.24617148       0.27852491
H        0.00000000       0.00000000       0.00000000      -0.29130867       0.27818301      -0.13567874
H        0.00000000       0.00000000       0.00000000      -1.16572798       1.05820132      -0.73184097
H        0.00000000       0.00000000       0.00000000      -0.24700289       1.18686843       0.61679256
7
Lattice="529.1772105638412 0.0 0.0 0.0 529.1772105638412 0.0 0.0 0.0 529.1772105638412" Properties=species:S:1:pos:R:3:forces_component_raw:R:3 ipi_comment="Step:        4680  Bead:       0 forces_component_raw{ase}  cell{ase}" pbc="T T T"
O        0.00000000       0.00000000       0.00000000       0.91779942      -1.00889194      -0.42697099
H        0.00000000       0.00000000       0.00000000      -1.12833309       1.34516263       0.20317301
H        0.00000000       0.00000000       0.00000000      -0.17124854      -0.44484419      -0.01485822
O        0.00000000       0.00000000       0.00000000      -0.63389754      -1.20992053      -1.28315807
H        0.00000000       0.00000000       0.00000000       0.31202012      -0.33791792       0.04054925
H        0.00000000       0.00000000       0.00000000      -0.46650219       0.94676280       0.12595293
H        0.00000000       0.00000000       0.00000000       1.17016185       0.70964927       1.35531199
7
Lattice="529.1772105638412 0.0 0.0 0.0 529.1772105638412 0.0 0.0 0.0 529.1772105638412" Properties=species:S:1:pos:R:3:forces_component_raw:R:3 ipi_comment="Step:        4700  Bead:       0 forces_component_raw{ase}  cell{ase}" pbc="T T T"
O        0.00000000       0.00000000       0.00000000       0.95971453      -0.93638063      -0.06294918
H        0.00000000       0.00000000       0.00000000      -0.40895954       1.00284338       0.21217570
H        0.00000000       0.00000000       0.00000000      -0.33214116      -0.44844446      -0.05954848
O        0.00000000       0.00000000       0.00000000       0.57724506      -0.55490887      -0.17866474
H        0.00000000       0.00000000       0.00000000      -0.42433441       0.30330592      -0.09393242
H        0.00000000       0.00000000       0.00000000      -0.08628489      -0.75442517      -0.35553300
H        0.00000000       0.00000000       0.00000000      -0.28523964       1.38801003       0.53845191
7
Lattice="529.1772105638412 0.0 0.0 0.0 529.1772105638412 0.0 0.0 0.0 529.1772105638412" Properties=species:S:1:pos:R:3:forces_component_raw:R:3 ipi_comment="Step:        4720  Bead:       0 forces_component_raw{ase}  cell{ase}" pbc="T T T"
O        0.00000000       0.00000000       0.00000000       0.30582643       0.75653529       0.02902007
H        0.00000000       0.00000000       0.00000000       0.22347522      -0.36226812       0.14169195
H        0.00000000       0.00000000       0.00000000      -0.12869127      -0.18836546       0.13959150
O        0.00000000       0.00000000       0.00000000      -2.08240653       0.38620687      -1.96360076
H        0.00000000       0.00000000       0.00000000       0.65748018       0.06799518      -0.02948266
H        0.00000000       0.00000000       0.00000000       0.86288154      -0.86098165       1.09129548
H        0.00000000       0.00000000       0.00000000       0.16143467       0.20087791       0.59148431
7
Lattice="529.1772105638412 0.0 0.0 0.0 529.1772105638412 0.0 0.0 0.0 529.1772105638412" Properties=species:S:1:pos:R:3:forces_component_raw:R:3 ipi_comment="Step:        4740  Bead:       0 forces_component_raw{ase}  cell{ase}" pbc="T T T"
O        0.00000000       0.00000000       0.00000000      -1.04299188       0.92518747      -0.40521655
H        0.00000000       0.00000000       0.00000000       0.74123836      -0.78380239       0.48144421
H        0.00000000       0.00000000       0.00000000       0.54587203       0.08902127      -0.02301261
O        0.00000000       0.00000000       0.00000000      -0.39451924       2.35910631       0.24361908
H        0.00000000       0.00000000       0.00000000      -0.41469410      -0.12647149       0.00941932
H        0.00000000       0.00000000       0.00000000       0.93506599      -1.83301247       0.66741395
H        0.00000000       0.00000000       0.00000000      -0.36997116      -0.63002873      -0.97366733
7
Lattice="529.1772105638412 0.0 0.0 0.0 529.1772105638412 0.0 0.0 0.0 529.1772105638412" Properties=species:S:1:pos:R:3:forces_component_raw:R:3 ipi_comment="Step:        4760  Bead:       0 forces_component_raw{ase}  cell{ase}" pbc="T T T"
O        0.00000000       0.00000000       0.00000000      -0.83549714       0.29170352      -0.46386892
H        0.00000000       0.00000000       0.00000000       0.32541999      -0.72843242       0.87148202
H        0.00000000       0.00000000       0.00000000       0.06798881       0.24020070      -0.36611587
O        0.00000000       0.00000000       0.00000000      -1.10794044       2.22636128       0.18316686
H        0.00000000       0.00000000       0.00000000       0.69456792       0.19758977      -0.24758133
H        0.00000000       0.00000000       0.00000000       0.69783372      -0.92047745       0.84277642
H        0.00000000       0.00000000       0.00000000       0.15762711      -1.30694533      -0.81985903
7
Lattice="529.1772105638412 0.0 0.0 0.0 529.1772105638412 0.0 0.0 0.0 529.1772105638412" Properties=species:S:1:pos:R:3:forces_component_raw:R:3 ipi_comment="Step:        4780  Bead:       0 forces_component_raw{ase}  cell{ase}" pbc="T T T"
O        0.00000000       0.00000000       0.00000000      -1.81962049       0.26450351      -1.20714593
H        0.00000000       0.00000000       0.00000000       0.51497561      -0.52728564       0.66831070
H        0.00000000       0.00000000       0.00000000       0.45505738      -0.07739469       0.02169454
O        0.00000000       0.00000000       0.00000000       2.01728225       0.96567953       1.66341937
H        0.00000000       0.00000000       0.00000000      -0.31377637       0.07958668       0.29332328
H        0.00000000       0.00000000       0.00000000      -0.42737535      -0.23195207      -0.43852365
H        0.00000000       0.00000000       0.00000000      -0.42654291      -0.47313720      -1.00107837
7
Lattice="529.1772105638412 0.0 0.0 0.0 529.1772105638412 0.0 0.0 0.0 529.1772105638412" Properties=species:S:1:pos:R:3:forces_component_raw:R:3 ipi_comment="Step:        4800  Bead:       0 forces_component_raw{ase}  cell{ase}" pbc="T T T"
O        0.00000000       0.00000000       0.00000000      -0.12947553      -0.41589820       0.01424298
H        0.00000000       0.00000000       0.00000000      -0.47258091       0.16699091      -0.28014797
H        0.00000000       0.00000000       0.00000000      -0.10591409       0.11849974      -0.11735427
O        0.00000000       0.00000000       0.00000000       0.23849082      -0.54888106       0.31167567
H        0.00000000       0.00000000       0.00000000       0.44954929      -0.21046689       0.08780319
H        0.00000000       0.00000000       0.00000000      -0.49861857       1.37887717      -0.06404063
H        0.00000000       0.00000000       0.00000000       0.51854903      -0.48912168       0.04782102
7
Lattice="529.1772105638412 0.0 0.0 0.0 529.1772105638412 0.0 0.0 0.0 529.1772105638412" Properties=species:S:1:pos:R:3:forces_component_raw:R:3 ipi_comment="Step:        4820  Bead:       0 forces_component_raw{ase}  cell{ase}" pbc="T T T"
O        0.00000000       0.00000000       0.00000000      -0.91721642       0.00471562       0.41564417
H        0.00000000       0.00000000       0.00000000       0.24391677       0.01541673      -0.56608552
H        0.00000000       0.00000000       0.00000000       0.26539654      -0.12595136       0.12519610
O        0.00000000       0.00000000       0.00000000       2.25202179      -2.49598075       0.76022178
H        0.00000000       0.00000000       0.00000000       0.10552945       0.14978664      -0.03874862
H        0.00000000       0.00000000       0.00000000      -1.55031228       1.82420588      -0.76368183
H        0.00000000       0.00000000       0.00000000      -0.39933574       0.62780726       0.06745397
7
Lattice="529.1772105638412 0.0 0.0 0.0 529.1772105638412 0.0 0.0 0.0 529.1772105638412" Properties=species:S:1:pos:R:3:forces_component_raw:R:3 ipi_comment="Step:        4840  Bead:       0 forces_component_raw{ase}  cell{ase}" pbc="T T T"
O        0.00000000       0.00000000       0.00000000       2.28903699       0.31530261       0.64043224
H        0.00000000       0.00000000       0.00000000      -0.26285720       0.02921598       0.03959972
H        0.00000000       0.00000000       0.00000000      -0.52975571       0.10124946      -0.12273002
O        0.00000000       0.00000000       0.00000000       0.64493537      -2.65898133      -0.77358276
H        0.00000000       0.00000000       0.00000000      -0.69320810      -0.17686015      -0.25081545
H        0.00000000       0.00000000       0.00000000      -1.93642068       2.78192616       0.04519342
H        0.00000000       0.00000000       0.00000000       0.48826936      -0.39185292       0.42190284
7
Lattice="529.1772105638412 0.0 0.0 0.0 529.1772105638412 0.0 0.0 0.0 529.1772105638412" Properties=species:S:1:pos:R:3:forces_component_raw:R:3 ipi_comment="Step:        4860  Bead:       0 forces_component_raw{ase}  cell{ase}" pbc="T T T"
O        0.00000000       0.00000000       0.00000000       0.25764445       0.51215863      -0.14740817
H        0.00000000       0.00000000       0.00000000       0.50714296      -0.17187117      -0.00537390
H        0.00000000       0.00000000       0.00000000       0.04021791       0.02031042       0.41838813
O        0.00000000       0.00000000       0.00000000       0.69562227      -1.17666996       0.30031446
H        0.00000000       0.00000000       0.00000000       0.69728995      -0.48786461       0.27357978
H        0.00000000       0.00000000       0.00000000      -1.50099659       0.89152920      -0.66455358
H        0.00000000       0.00000000       0.00000000      -0.69692111       0.41240746      -0.17494667
7
Lattice="529.1772105638412 0.0 0.0 0.0 529.1772105638412 0.0 0.0 0.0 529.1772105638412" Properties=species:S:1:pos:R:3:forces_component_raw:R:3 ipi_comment="Step:        4880  Bead:       0 forces_component_raw{ase}  cell{ase}" pbc="T T T"
O        0.00000000       0.00000000       0.00000000       0.31056750      -0.21121138       1.17170036
H        0.00000000       0.00000000       0.00000000      -0.15797450       0.36985800       0.13721019
H        0.00000000       0.00000000       0.00000000       0.43912089      -0.25036585      -0.81117642
O        0.00000000       0.00000000       0.00000000      -1.50434494       0.48457599      -0.62704992
H        0.00000000       0.00000000       0.00000000      -0.33782196       0.44005263      -0.55812431
H        0.00000000       0.00000000       0.00000000       0.75346434      -0.00645667       0.81625033
H        0.00000000       0.00000000       0.00000000       0.49698857      -0.82645261      -0.12881029
7
Lattice="529.1772105638412 0.0 0.0 0.0 529.1772105638412 0.0 0.0 0.0 529.1772105638412" Properties=species:S:1:pos:R:3:forces_component_raw:R:3 ipi_comment="Step:        4900  Bead:       0 forces_component_raw{ase}  cell{ase}" pbc="T T T"
O        0.00000000       0.00000000       0.00000000      -1.77786553       0.28367418       0.68181431
H        0.00000000       0.00000000       0.00000000       0.06502052      -0.08723529      -0.52746916
H        0.00000000       0.00000000       0.00000000       1.04940129      -0.51172602      -0.44818187
O        0.00000000       0.00000000       0.00000000       1.06540215       2.27675915       1.67628289
H        0.00000000       0.00000000       0.00000000      -0.17733492      -0.09568359       0.11559004
H        0.00000000       0.00000000       0.00000000       0.27883750      -2.19262314      -0.94693035
H        0.00000000       0.00000000       0.00000000      -0.50346118       0.32683468      -0.55110586
7
Lattice="529.1772105638412 0.0 0.0 0.0 529.1772105638412 0.0 0.0 0.0 529.1772105638412" Properties=species:S:1:pos:R:3:forces_component_raw:R:3 ipi_comment="Step:        4920  Bead:       0 forces_component_raw{ase}  cell{ase}" pbc="T T T"
O        0.00000000       0.00000000       0.00000000      -0.51094335      -0.16051298       0.62731040
H        0.00000000       0.00000000       0.00000000      -0.40699509       0.11030654      -0.22568810
H        0.00000000       0.00000000       0.00000000       0.37718111      -0.12550443      -0.61814559
O        0.00000000       0.00000000       0.00000000      -2.52477551       2.49136830       0.30531517
H        0.00000000       0.00000000       0.00000000       0.82830560       0.37555301       0.18266898
H        0.00000000       0.00000000       0.00000000       1.85816002      -1.76575232       0.60464198
H        0.00000000       0.00000000       0.00000000       0.37906742      -0.92545825      -0.87610275
7
Lattice="529.1772105638412 0.0 0.0 0.0 529.1772105638412 0.0 0.0 0.0 529.1772105638412" Properties=species:S:1:pos:R:3:forces_component_raw:R:3 ipi_comment="Step:        4940  Bead:       0 forces_component_raw{ase}  cell{ase}" pbc="T T T"
O        0.00000000       0.00000000       0.00000000      -0.27427927      -0.02512701      -0.62557805
H        0.00000000       0.00000000       0.00000000       0.05445299      -0.05410812      -0.00428194
H        0.00000000       0.00000000       0.00000000      -0.80121899      -0.06683505       0.52358389
O        0.00000000       0.00000000       0.00000000       0.65224064       2.17874861       1.78969503
H        0.00000000       0.00000000       0.00000000      -0.32662314      -0.28267762      -0.15831535
H        0.00000000       0.00000000       0.00000000       1.34242404      -1.99431944      -1.08331180
H        0.00000000       0.00000000       0.00000000      -0.64699638       0.24431866      -0.44179177
7
Lattice="529.1772105638412 0.0 0.0 0.0 529.1772105638412 0.0 0.0 0.0 529.1772105638412" Properties=species:S:1:pos:R:3:forces_component_raw:R:3 ipi_comment="Step:        4960  Bead:       0 forces_component_raw{ase}  cell{ase}" pbc="T T T"
O        0.00000000       0.00000000       0.00000000      -0.17821580       0.41636792      -1.17996800
H        0.00000000       0.00000000       0.00000000       0.19154339      -0.17264891       0.44397998
H        0.00000000       0.00000000       0.00000000      -0.36897010      -0.16827911       0.50218713
O        0.00000000       0.00000000       0.00000000      -1.92565072       0.23822081      -1.53466714
H        0.00000000       0.00000000       0.00000000       0.26423162      -0.06421182       0.19580621
H        0.00000000       0.00000000       0.00000000       1.21010649      -0.40385535       0.45772016
H        0.00000000       0.00000000       0.00000000       0.80695522       0.15440643       1.11494172
7
Lattice="529.1772105638412 0.0 0.0 0.0 529.1772105638412 0.0 0.0 0.0 529.1772105638412" Properties=species:S:1:pos:R:3:forces_component_raw:R:3 ipi_comment="Step:        4980  Bead:       0 forces_component_raw{ase}  cell{ase}" pbc="T T T"
O        0.00000000       0.00000000       0.00000000       1.03529370       0.71538210      -0.42251757
H        0.00000000       0.00000000       0.00000000       0.22534899      -0.29410368       0.60588551
H        0.00000000       0.00000000       0.00000000      -0.21975680      -0.10669002       0.12629762
O        0.00000000       0.00000000       0.00000000       0.59451783      -2.18196393      -2.01967335
H        0.00000000       0.00000000       0.00000000      -0.25295216      -0.13603936      -0.12170301
H        0.00000000       0.00000000       0.00000000      -0.98806006       0.44563735      -0.41339165
H        0.00000000       0.00000000       0.00000000      -0.39439181       1.55777753       2.24510265
7
Lattice="529.1772105638412 0.0 0.0 0.0 529.1772105638412 0.0 0.0 0.0 529.1772105638412" Properties=species:S:1:pos:R:3:forces_component_raw:R:3 ipi_comment="Step:        5000  Bead:       0 forces_component_raw{ase}  cell{ase}" pbc="T T T"
O        0.00000000       0.00000000       0.00000000      -0.10375959      -0.41409987       0.95289415
H        0.00000000       0.00000000       0.00000000       0.34136242       0.10471782      -0.03006685
H        0.00000000       0.00000000       0.00000000       0.70113981       0.37537545      -0.41712636
O        0.00000000       0.00000000       0.00000000      -1.49316240      -2.52653552      -2.97092772
H        0.00000000       0.00000000       0.00000000       0.27654064       0.40988126      -0.37959898
H        0.00000000       0.00000000       0.00000000      -0.75996334       1.25507474       0.52546996
H        0.00000000       0.00000000       0.00000000       1.03784263       0.79558605       2.31935597
7
Lattice="529.1772105638412 0.0 0.0 0.0 529.1772105638412 0.0 0.0 0.0 529.1772105638412" Properties=species:S:1:pos:R:3:forces_component_raw:R:3 ipi_comment="Step:        5020  Bead:       0 forces_component_raw{ase}  cell{ase}" pbc="T T T"
O        0.00000000       0.00000000       0.00000000      -0.00235635      -0.17282724       0.08475405
H        0.00000000       0.00000000       0.00000000      -0.35696405      -0.02368510      -0.14567810
H        0.00000000       0.00000000       0.00000000       0.39981967       0.43618924      -0.27269590
O        0.00000000       0.00000000       0.00000000       1.45430410      -2.34755087      -1.85188079
H        0.00000000       0.00000000       0.00000000      -0.26600355      -0.38322634       0.61844480
H        0.00000000       0.00000000       0.00000000      -1.19382942       1.07117462      -0.23533070
H        0.00000000       0.00000000       0.00000000      -0.03497051       1.41992557       1.80238676
7
Lattice="529.1772105638412 0.0 0.0 0.0 529.1772105638412 0.0 0.0 0.0 529.1772105638412" Properties=species:S:1:pos:R:3:forces_component_raw:R:3 ipi_comment="Step:        5040  Bead:       0 forces_component_raw{ase}  cell{ase}" pbc="T T T"
O        0.00000000       0.00000000       0.00000000      -0.78997714      -0.60505360       0.03064457
H        0.00000000       0.00000000       0.00000000       0.15423739       0.59251630      -0.14487401
H        0.00000000       0.00000000       0.00000000      -0.04319406      -0.49674249       0.11769298
O        0.00000000       0.00000000       0.00000000      -0.16866040      -0.36241633      -0.07920696
H        0.00000000       0.00000000       0.00000000       0.40508044       0.41670942      -0.49736950
H        0.00000000       0.00000000       0.00000000      -0.19666034       0.58411724       0.34730700
H        0.00000000       0.00000000       0.00000000       0.63917405      -0.12913078       0.22580588
7
Lattice="529.1772105638412 0.0 0.0 0.0 529.1772105638412 0.0 0.0 0.0 529.1772105638412" Properties=species:S:1:pos:R:3:forces_component_raw:R:3 ipi_comment="Step:        5060  Bead:       0 forces_component_raw{ase}  cell{ase}" pbc="T T T"
O        0.00000000       0.00000000       0.00000000       0.88075710       0.47172469      -0.85254288
H        0.00000000       0.00000000       0.00000000      -0.50123108      -0.32498413       0.23138441
H        0.00000000       0.00000000       0.00000000      -1.04745198      -0.22634441       0.29921162
O        0.00000000       0.00000000       0.00000000       1.05004978       2.01421524       2.09464050
H        0.00000000       0.00000000       0.00000000      -0.16916479      -0.20081538       0.24452984
H        0.00000000       0.00000000       0.00000000       0.29312778      -0.57761335      -0.23346078
H        0.00000000       0.00000000       0.00000000      -0.50608659      -1.15618253      -1.78376258
7
Lattice="529.1772105638412 0.0 0.0 0.0 529.1772105638412 0.0 0.0 0.0 529.1772105638412" Properties=species:S:1:pos:R:3:forces_component_raw:R:3 ipi_comment="Step:        5080  Bead:       0 forces_component_raw{ase}  cell{ase}" pbc="T T T"
O        0.00000000       0.00000000       0.00000000      -0.41694295      -0.14277805      -0.41546610
H        0.00000000       0.00000000       0.00000000       0.22064550       0.80570412      -0.06684916
H        0.00000000       0.00000000       0.00000000      -0.26684618      -0.90496040       0.33014619
O        0.00000000       0.00000000       0.00000000      -1.22160697       2.85327197       1.78290582
H        0.00000000       0.00000000       0.00000000       0.38662821       0.23034848       0.02546862
H        0.00000000       0.00000000       0.00000000       1.17467356      -0.33749849       0.77139568
H        0.00000000       0.00000000       0.00000000       0.12344879      -2.50408769      -2.42760134
7
Lattice="529.1772105638412 0.0 0.0 0.0 529.1772105638412 0.0 0.0 0.0 529.1772105638412" Properties=species:S:1:pos:R:3:forces_component_raw:R:3 ipi_comment="Step:        5100  Bead:       0 forces_component_raw{ase}  cell{ase}" pbc="T T T"
O        0.00000000       0.00000000       0.00000000       1.83988667      -0.44476605       0.54559678
H        0.00000000       0.00000000       0.00000000      -0.65429497       0.28314775       0.26783714
H        0.00000000       0.00000000       0.00000000      -0.29369700       0.42391762      -0.08392237
O        0.00000000       0.00000000       0.00000000      -0.10485128       2.43969226       2.49216819
H        0.00000000       0.00000000       0.00000000      -0.20341906      -0.41584018      -0.85555732
H        0.00000000       0.00000000       0.00000000      -0.04097554      -0.71674717      -0.38714618
H        0.00000000       0.00000000       0.00000000      -0.54264885      -1.56940437      -1.97897637
7
Lattice="529.1772105638412 0.0 0.0 0.0 529.1772105638412 0.0 0.0 0.0 529.1772105638412" Properties=species:S:1:pos:R:3:forces_component_raw:R:3 ipi_comment="Step:        5120  Bead:       0 forces_component_raw{ase}  cell{ase}" pbc="T T T"
O        0.00000000       0.00000000       0.00000000       0.66865182      -1.25149477       0.29200539
H        0.00000000       0.00000000       0.00000000      -0.48119885       0.96113080      -0.01890072
H        0.00000000       0.00000000       0.00000000       0.98860455       0.66690666      -0.28832951
O        0.00000000       0.00000000       0.00000000      -1.77277327      -0.50732982      -1.07857752
H        0.00000000       0.00000000       0.00000000       0.19235328       0.30310029       0.67130745
H        0.00000000       0.00000000       0.00000000       0.41841516       0.25646144       0.45133451
H        0.00000000       0.00000000       0.00000000      -0.01405299      -0.42877454      -0.02883953
7
Lattice="529.1772105638412 0.0 0.0 0.0 529.1772105638412 0.0 0.0 0.0 529.1772105638412" Properties=species:S:1:pos:R:3:forces_component_raw:R:3 ipi_comment="Step:        5140  Bead:       0 forces_component_raw{ase}  cell{ase}" pbc="T T T"
O        0.00000000       0.00000000       0.00000000      -0.12398177      -2.59409571       1.20844150
H        0.00000000       0.00000000       0.00000000      -0.92217535       0.63424736       0.03669454
H        0.00000000       0.00000000       0.00000000       1.01188076       1.99360717      -0.99859750
O        0.00000000       0.00000000       0.00000000       0.79297120      -1.77589441      -0.21662980
H        0.00000000       0.00000000       0.00000000      -0.09161953      -0.05574572      -0.50808323
H        0.00000000       0.00000000       0.00000000      -0.68566096       0.74993181      -0.36900717
H        0.00000000       0.00000000       0.00000000       0.01858580       1.04794932       0.84718174
7
Lattice="529.1772105638412 0.0 0.0 0.0 529.1772105638412 0.0 0.0 0.0 529.1772105638412" Properties=species:S:1:pos:R:3:forces_component_raw:R:3 ipi_comment="Step:        5160  Bead:       0 forces_component_raw{ase}  cell{ase}" pbc="T T T"
O        0.00000000       0.00000000       0.00000000      -2.36783886      -0.71325553       0.08345146
H        0.00000000       0.00000000       0.00000000       0.60282970      -0.14848256       0.03073165
H        0.00000000       0.00000000       0.00000000       0.87134052       0.63062447      -0.32197490
O        0.00000000       0.00000000       0.00000000       0.98280394      -2.58576871      -1.02335298
H        0.00000000       0.00000000       0.00000000       0.02656798       0.01703478      -0.18738917
H        0.00000000       0.00000000       0.00000000      -0.78963602       1.73202932      -0.27153784
H        0.00000000       0.00000000       0.00000000       0.67393291       1.06781805       1.69007171
7
Lattice="529.1772105638412 0.0 0.0 0.0 529.1772105638412 0.0 0.0 0.0 529.1772105638412" Properties=species:S:1:pos:R:3:forces_component_raw:R:3 ipi_comment="Step:        5180  Bead:       0 forces_component_raw{ase}  cell{ase}" pbc="T T T"
O        0.00000000       0.00000000       0.00000000      -0.77600330       0.46002057      -0.32301408
H        0.00000000       0.00000000       0.00000000       0.17003715      -1.17687416       0.33023161
H        0.00000000       0.00000000       0.00000000       0.01365906       0.72416687      -0.28479487
O        0.00000000       0.00000000       0.00000000       1.22718990      -1.12476218      -0.89162004
H        0.00000000       0.00000000       0.00000000      -0.23035982      -0.06301559       0.44552082
H        0.00000000       0.00000000       0.00000000      -0.25267878       0.24355555      -0.17155281
H        0.00000000       0.00000000       0.00000000      -0.15184420       0.93690896       0.89522958
7
Lattice="529.1772105638412 0.0 0.0 0.0 529.1772105638412 0.0 0.0 0.0 529.1772105638412" Properties=species:S:1:pos:R:3:forces_component_raw:R:3 ipi_comment="Step:        5200  Bead:       0 forces_component_raw{ase}  cell{ase}" pbc="T T T"
O        0.00000000       0.00000000       0.00000000      -1.05829370       1.75303853      -0.81023538
H        0.00000000       0.00000000       0.00000000       0.66537237      -0.97230977       0.57055724
H        0.00000000       0.00000000       0.00000000      -0.44491318      -0.65114278       0.16118220
O        0.00000000       0.00000000       0.00000000       0.18949676       0.80208218       0.49694812
H        0.00000000       0.00000000       0.00000000       0.05592847      -0.36780679      -0.42530042
H        0.00000000       0.00000000       0.00000000       0.50406897      -0.58360183       0.10862961
H        0.00000000       0.00000000       0.00000000       0.08834052       0.01974040      -0.10178134
7
Lattice="529.1772105638412 0.0 0.0 0.0 529.1772105638412 0.0 0.0 0.0 529.1772105638412" Properties=species:S:1:pos:R:3:forces_component_raw:R:3 ipi_comment="Step:        5220  Bead:       0 forces_component_raw{ase}  cell{ase}" pbc="T T T"
O        0.00000000       0.00000000       0.00000000       1.06584907       1.26175320      -0.34875870
H        0.00000000       0.00000000       0.00000000      -0.04345961      -0.25988710       0.26721883
H        0.00000000       0.00000000       0.00000000      -1.11161351      -1.02424944       0.04441980
O        0.00000000       0.00000000       0.00000000      -0.41626924       1.34325588       0.45370799
H        0.00000000       0.00000000       0.00000000      -0.29105854       0.14164186      -0.09201695
H        0.00000000       0.00000000       0.00000000       0.99743498      -0.78273606       0.28444409
H        0.00000000       0.00000000       0.00000000      -0.20088321      -0.67977846      -0.60901505
7
Lattice="529.1772105638412 0.0 0.0 0.0 529.1772105638412 0.0 0.0 0.0 529.1772105638412" Properties=species:S:1:pos:R:3:forces_component_raw:R:3 ipi_comment="Step:        5240  Bead:       0 forces_component_raw{ase}  cell{ase}" pbc="T T T"
O        0.00000000       0.00000000       0.00000000       1.39918375       0.67373288       1.59527302
H        0.00000000       0.00000000       0.00000000      -0.21046159       0.64507872      -1.29519189
H        0.00000000       0.00000000       0.00000000      -0.72639078      -1.20592690      -0.28361613
O        0.00000000       0.00000000       0.00000000      -0.43483141       1.71649111       0.72063911
H        0.00000000       0.00000000       0.00000000      -0.10324293      -0.25166780       0.12870185
H        0.00000000       0.00000000       0.00000000       0.50934863      -1.29945481      -0.22278139
H        0.00000000       0.00000000       0.00000000      -0.43360561      -0.27825320      -0.64302468
7
Lattice="529.1772105638412 0.0 0.0 0.0 529.1772105638412 0.0 0.0 0.0 529.1772105638412" Properties=species:S:1:pos:R:3:forces_component_raw:R:3 ipi_comment="Step:        5260  Bead:       0 forces_component_raw{ase}  cell{ase}" pbc="T T T"
O        0.00000000       0.00000000       0.00000000      -0.06182706       0.82619286       1.80647064
H        0.00000000       0.00000000       0.00000000       0.83367056       0.51639336      -1.43523443
H        0.00000000       0.00000000       0.00000000      -0.66799754      -1.43175245      -0.07533918
O        0.00000000       0.00000000       0.00000000      -1.48062921       0.97078425      -0.20562924
H        0.00000000       0.00000000       0.00000000       0.60555542       0.06580281      -0.14195237
H        0.00000000       0.00000000       0.00000000       0.56485689      -0.56681985       0.21354577
H        0.00000000       0.00000000       0.00000000       0.20637110      -0.38060093      -0.16186130
7
Lattice="529.1772105638412 0.0 0.0 0.0 529.1772105638412 0.0 0.0 0.0 529.1772105638412" Properties=species:S:1:pos:R:3:forces_component_raw:R:3 ipi_comment="Step:        5280  Bead:       0 forces_component_raw{ase}  cell{ase}" pbc="T T T"
O        0.00000000       0.00000000       0.00000000       1.26633454       0.39070982       2.01740241
H        0.00000000       0.00000000       0.00000000       0.22535589       0.62327504      -2.23987961
H        0.00000000       0.00000000       0.00000000      -0.52975422      -1.11784077       0.14663246
O        0.00000000       0.00000000       0.00000000       0.16888985      -0.00800457      -0.77649409
H        0.00000000       0.00000000       0.00000000      -1.03059578       0.17156363       0.50093603
H        0.00000000       0.00000000       0.00000000      -0.07943793      -0.39376062      -0.02842216
H        0.00000000       0.00000000       0.00000000      -0.02079247       0.33405763       0.37982503
7
Lattice="529.1772105638412 0.0 0.0 0.0 529.1772105638412 0.0 0.0 0.0 529.1772105638412" Properties=species:S:1:pos:R:3:forces_component_raw:R:3 ipi_comment="Step:        5300  Bead:       0 forces_component_raw{ase}  cell{ase}" pbc="T T T"
O        0.00000000       0.00000000       0.00000000      -0.42934275       0.67325020       1.66156257
H        0.00000000       0.00000000       0.00000000       0.34596729       0.31937805      -1.56141758
H        0.00000000       0.00000000       0.00000000      -0.79044795      -1.02860427       0.07397175
O        0.00000000       0.00000000       0.00000000      -0.33817053      -0.02633232      -0.55773038
H        0.00000000       0.00000000       0.00000000       0.37105507      -0.16299695      -0.64307732
H        0.00000000       0.00000000       0.00000000      -0.01989985      -0.06739849       0.12195465
H        0.00000000       0.00000000       0.00000000       0.86083865       0.29270369       0.90473652
7
Lattice="529.1772105638412 0.0 0.0 0.0 529.1772105638412 0.0 0.0 0.0 529.1772105638412" Properties=species:S:1:pos:R:3:forces_component_raw:R:3 ipi_comment="Step:        5320  Bead:       0 forces_component_raw{ase}  cell{ase}" pbc="T T T"
O        0.00000000       0.00000000       0.00000000       0.35994983       0.17172545       0.09957676
H        0.00000000       0.00000000       0.00000000      -0.37563914       0.10286480      -0.38148648
H        0.00000000       0.00000000       0.00000000      -0.28784603      -0.22866485      -0.05557066
O        0.00000000       0.00000000       0.00000000       0.04886526      -1.70264817      -0.86068607
H        0.00000000       0.00000000       0.00000000       0.14916453       0.19967556       0.50525987
H        0.00000000       0.00000000       0.00000000      -0.16014369       0.10919726      -0.32681811
H        0.00000000       0.00000000       0.00000000       0.26564911       1.34784985       1.01972461
7
Lattice="529.1772105638412 0.0 0.0 0.0 529.1772105638412 0.0 0.0 0.0 529.1772105638412" Properties=species:S:1:pos:R:3:forces_component_raw:R:3 ipi_comment="Step:        5340  Bead:       0 forces_component_raw{ase}  cell{ase}" pbc="T T T"
O        0.00000000       0.00000000       0.00000000      -0.12264335       0.03564170       0.03833443
H        0.00000000       0.00000000       0.00000000      -0.23497081      -0.22801116       0.23494440
H        0.00000000       0.00000000       0.00000000       0.30469799       0.36022997      -0.29177192
O        0.00000000       0.00000000       0.00000000      -0.50173074      -0.97582603      -0.96618736
H        0.00000000       0.00000000       0.00000000      -0.05124294      -0.21690263      -0.16849881
H        0.00000000       0.00000000       0.00000000       0.01946539       0.50494790       0.16297041
H        0.00000000       0.00000000       0.00000000       0.58642441       0.51991999       0.99020881
7
Lattice="529.1772105638412 0.0 0.0 0.0 529.1772105638412 0.0 0.0 0.0 529.1772105638412" Properties=species:S:1:pos:R:3:forces_component_raw:R:3 ipi_comment="Step:        5360  Bead:       0 forces_component_raw{ase}  cell{ase}" pbc="T T T"
O        0.00000000       0.00000000       0.00000000      -0.61290813       0.87076920       0.65919912
H        0.00000000       0.00000000       0.00000000       0.30607244      -1.37091387       0.70264572
H        0.00000000       0.00000000       0.00000000       1.10088432       0.22357965      -0.80896813
O        0.00000000       0.00000000       0.00000000       0.20474482      -0.51914924       0.21322019
H        0.00000000       0.00000000       0.00000000      -0.40658757       0.10286738      -0.46881345
H        0.00000000       0.00000000       0.00000000      -0.39856201       0.20796114      -0.33733714
H        0.00000000       0.00000000       0.00000000      -0.19364388       0.48488566       0.04005381
7
Lattice="529.1772105638412 0.0 0.0 0.0 529.1772105638412 0.0 0.0 0.0 529.1772105638412" Properties=species:S:1:pos:R:3:forces_component_raw:R:3 ipi_comment="Step:        5380  Bead:       0 forces_component_raw{ase}  cell{ase}" pbc="T T T"
O        0.00000000       0.00000000       0.00000000      -1.19745708       0.44303069       0.12677875
H        0.00000000       0.00000000       0.00000000      -0.31799200      -1.27828241       0.95058543
H        0.00000000       0.00000000       0.00000000       1.95773650       0.67012262      -1.42555046
O        0.00000000       0.00000000       0.00000000      -1.03760064       0.40238947      -0.52965760
H        0.00000000       0.00000000       0.00000000       0.05146489       0.10276674       0.64609885
H        0.00000000       0.00000000       0.00000000       0.35623598       0.07221174       0.37621749
H        0.00000000       0.00000000       0.00000000       0.18761215      -0.41223890      -0.14447269
7
Lattice="529.1772105638412 0.0 0.0 0.0 529.1772105638412 0.0 0.0 0.0 529.1772105638412" Properties=species:S:1:pos:R:3:forces_component_raw:R:3 ipi_comment="Step:        5400  Bead:       0 forces_component_raw{ase}  cell{ase}" pbc="T T T"
O        0.00000000       0.00000000       0.00000000      -1.12557590       0.43661779       1.62204016
H        0.00000000       0.00000000       0.00000000       0.49518052      -0.92823601       0.25976980
H        0.00000000       0.00000000       0.00000000       1.33356393       0.03449243      -1.19191265
O        0.00000000       0.00000000       0.00000000       0.68709028       0.39011043       1.57313812
H        0.00000000       0.00000000       0.00000000      -0.53428286       0.05249405      -1.02619362
H        0.00000000       0.00000000       0.00000000      -0.51089639       0.04643309      -0.36093441
H        0.00000000       0.00000000       0.00000000      -0.34507969      -0.03191191      -0.87590754
7
Lattice="529.1772105638412 0.0 0.0 0.0 529.1772105638412 0.0 0.0 0.0 529.1772105638412" Properties=species:S:1:pos:R:3:forces_component_raw:R:3 ipi_comment="Step:        5420  Bead:       0 forces_component_raw{ase}  cell{ase}" pbc="T T T"
O        0.00000000       0.00000000       0.00000000      -0.47071892       0.13195117      -0.83552182
H        0.00000000       0.00000000       0.00000000      -0.34247533      -0.29665372       0.25974730
H        0.00000000       0.00000000       0.00000000       0.23557329       0.29044852      -0.11021420
O        0.00000000       0.00000000       0.00000000       0.60390723      -0.39528024       0.37679088
H        0.00000000       0.00000000       0.00000000      -0.09459382       0.47033078       0.89923442
H        0.00000000       0.00000000       0.00000000       0.30008033       0.24583343       0.60180736
H        0.00000000       0.00000000       0.00000000      -0.23177259      -0.44662991      -1.19184399
7
Lattice="529.1772105638412 0.0 0.0 0.0 529.1772105638412 0.0 0.0 0.0 529.1772105638412" Properties=species:S:1:pos:R:3:forces_component_raw:R:3 ipi_comment="Step:        5440  Bead:       0 forces_component_raw{ase}  cell{ase}" pbc="T T T"
O        0.00000000       0.00000000       0.00000000       0.36198250       0.58203524      -0.70770049
H        0.00000000       0.00000000       0.00000000      -0.05727656       0.04847330      -0.06459001
H        0.00000000       0.00000000       0.00000000      -0.98880148      -0.34788907       0.66680306
O        0.00000000       0.00000000       0.00000000       0.27522659       0.11219820       1.48657382
H        0.00000000       0.00000000       0.00000000       0.54824895      -0.58263266      -0.86183948
H        0.00000000       0.00000000       0.00000000      -0.41504103       0.01555055      -0.61206418
H        0.00000000       0.00000000       0.00000000       0.27566087       0.17226428       0.09281725
7
Lattice="529.1772105638412 0.0 0.0 0.0 529.1772105638412 0.0 0.0 0.0 529.1772105638412" Properties=species:S:1:pos:R:3:forces_component_raw:R:3 ipi_comment="Step:        5460  Bead:       0 forces_component_raw{ase}  cell{ase}" pbc="T T T"
O        0.00000000       0.00000000       0.00000000       1.24318004       0.19091092      -0.32926685
H        0.00000000       0.00000000       0.00000000      -0.51994312       0.52249080      -0.88546777
H        0.00000000       0.00000000       0.00000000      -1.31249869      -0.51065904       0.57266003
O        0.00000000       0.00000000       0.00000000       0.75485766       0.34940958      -1.16085124
H        0.00000000       0.00000000       0.00000000      -0.47912917       0.50361985       1.05913210
H        0.00000000       0.00000000       0.00000000       0.53624052      -0.66832137       0.10641813
H        0.00000000       0.00000000       0.00000000      -0.22270711      -0.38745070       0.63737553
7
Lattice="529.1772105638412 0.0 0.0 0.0 529.1772105638412 0.0 0.0 0.0 529.1772105638412" Properties=species:S:1:pos:R:3:forces_component_raw:R:3 ipi_comment="Step:        5480  Bead:       0 forces_component_raw{ase}  cell{ase}" pbc="T T T"
O        0.00000000       0.00000000       0.00000000       0.07378729      -0.38771764       1.15397120
H        0.00000000       0.00000000       0.00000000       0.35630578       0.56333512      -1.40127003
H        0.00000000       0.00000000       0.00000000      -0.85563952      -0.19619449       0.55377704
O        0.00000000       0.00000000       0.00000000       0.42906308       0.78047151       0.99914837
H        0.00000000       0.00000000       0.00000000       0.26277262      -0.21854568      -1.07476783
H        0.00000000       0.00000000       0.00000000      -0.27229312      -0.43743000      -1.02424884
H        0.00000000       0.00000000       0.00000000       0.00600380      -0.10391884       0.79339010
7
Lattice="529.1772105638412 0.0 0.0 0.0 529.1772105638412 0.0 0.0 0.0 529.1772105638412" Properties=species:S:1:pos:R:3:forces_component_raw:R:3 ipi_comment="Step:        5500  Bead:       0 forces_component_raw{ase}  cell{ase}" pbc="T T T"
O        0.00000000       0.00000000       0.00000000       2.00112343      -0.61050511       0.80816829
H        0.00000000       0.00000000       0.00000000      -0.53004074       0.32699990      -0.99441159
H        0.00000000       0.00000000       0.00000000      -0.47477257      -0.06108564       0.05039290
O        0.00000000       0.00000000       0.00000000      -0.83602363       1.17030514      -1.10923136
H        0.00000000       0.00000000       0.00000000      -0.51588220       0.18780375       1.12066555
H        0.00000000       0.00000000       0.00000000       0.71378100      -0.67716229      -0.29965407
H        0.00000000       0.00000000       0.00000000      -0.35818535      -0.33635572       0.42407036
7
Lattice="529.1772105638412 0.0 0.0 0.0 529.1772105638412 0.0 0.0 0.0 529.1772105638412" Properties=species:S:1:pos:R:3:forces_component_raw:R:3 ipi_comment="Step:        5520  Bead:       0 forces_component_raw{ase}  cell{ase}" pbc="T T T"
O        0.00000000       0.00000000       0.00000000       1.11061371      -0.65796489       1.06506086
H        0.00000000       0.00000000       0.00000000       0.58326090       0.11622429      -0.79397655
H        0.00000000       0.00000000       0.00000000      -0.97248763      -0.17124237       0.66882658
O        0.00000000       0.00000000       0.00000000      -0.85155553       0.17210668       0.71490204
H        0.00000000       0.00000000       0.00000000       0.21139985       0.50705755      -1.29060197
H        0.00000000       0.00000000       0.00000000      -0.08921571       0.03946952      -0.78241968
H        0.00000000       0.00000000       0.00000000       0.00798427      -0.00565078       0.41820884
7
Lattice="529.1772105638412 0.0 0.0 0.0 529.1772105638412 0.0 0.0 0.0 529.1772105638412" Properties=species:S:1:pos:R:3:forces_component_raw:R:3 ipi_comment="Step:        5540  Bead:       0 forces_component_raw{ase}  cell{ase}" pbc="T T T"
O        0.00000000       0.00000000       0.00000000       0.82422102       0.87769205      -2.07105780
H        0.00000000       0.00000000       0.00000000      -0.21904689       0.08806935       0.76127470
H        0.00000000       0.00000000       0.00000000      -0.48602444      -0.50459236       0.47012335
O        0.00000000       0.00000000       0.00000000      -0.38243389       0.50563550      -0.83645117
H        0.00000000       0.00000000       0.00000000      -0.61685205      -0.43768033       1.03931391
H        0.00000000       0.00000000       0.00000000       0.33893782      -0.13387485       0.22787440
H        0.00000000       0.00000000       0.00000000       0.54119837      -0.39524934       0.40892279
7
Lattice="529.1772105638412 0.0 0.0 0.0 529.1772105638412 0.0 0.0 0.0 529.1772105638412" Properties=species:S:1:pos:R:3:forces_component_raw:R:3 ipi_comment="Step:        5560  Bead:       0 forces_component_raw{ase}  cell{ase}" pbc="T T T"
O        0.00000000       0.00000000       0.00000000      -0.60737574       0.28825611      -1.19524420
H        0.00000000       0.00000000       0.00000000       0.43618921      -0.05992623       1.08927500
H        0.00000000       0.00000000       0.00000000      -0.68595410       0.02368348       0.29145342
O        0.00000000       0.00000000       0.00000000       1.16222894      -0.52733064      -0.40204001
H        0.00000000       0.00000000       0.00000000       0.57601369       0.07082732      -1.09439016
H        0.00000000       0.00000000       0.00000000      -1.19541669       0.48390731       0.54020035
H        0.00000000       0.00000000       0.00000000       0.31431475      -0.27941740       0.77074528
7
Lattice="529.1772105638412 0.0 0.0 0.0 529.1772105638412 0.0 0.0 0.0 529.1772105638412" Properties=species:S:1:pos:R:3:forces_component_raw:R:3 ipi_comment="Step:        5580  Bead:       0 forces_component_raw{ase}  cell{ase}" pbc="T T T"
O        0.00000000       0.00000000       0.00000000      -1.09113348       0.18408550      -0.78149915
H        0.00000000       0.00000000       0.00000000       0.16507900       0.08917260       0.44921708
H        0.00000000       0.00000000       0.00000000       0.03153211       0.04615846      -0.10652185
O        0.00000000       0.00000000       0.00000000       1.48487377      -0.36479238      -1.47726524
H        0.00000000       0.00000000       0.00000000       0.09003204       0.10528973       1.10935533
H        0.00000000       0.00000000       0.00000000      -0.45983777      -0.13337816       0.80464399
H        0.00000000       0.00000000       0.00000000      -0.22054564       0.07346418       0.00206977
7
Lattice="529.1772105638412 0.0 0.0 0.0 529.1772105638412 0.0 0.0 0.0 529.1772105638412" Properties=species:S:1:pos:R:3:forces_component_raw:R:3 ipi_comment="Step:        5600  Bead:       0 forces_component_raw{ase}  cell{ase}" pbc="T T T"
O        0.00000000       0.00000000       0.00000000      -0.68077505      -0.02695209       1.09937454
H        0.00000000       0.00000000       0.00000000       0.54169792      -0.19677612       0.44102305
H        0.00000000       0.00000000       0.00000000       0.31542030       0.26895201      -0.61297822
O        0.00000000       0.00000000       0.00000000       0.93200553       0.07826738       1.19564355
H        0.00000000       0.00000000       0.00000000      -0.52155715       0.00551541      -1.16771901
H        0.00000000       0.00000000       0.00000000      -0.12312788      -0.01328462      -0.04477936
H        0.00000000       0.00000000       0.00000000      -0.46366364      -0.11572203      -0.91056472
7
Lattice="529.1772105638412 0.0 0.0 0.0 529.1772105638412 0.0 0.0 0.0 529.1772105638412" Properties=species:S:1:pos:R:3:forces_component_raw:R:3 ipi_comment="Step:        5620  Bead:       0 forces_component_raw{ase}  cell{ase}" pbc="T T T"
O        0.00000000       0.00000000       0.00000000      -1.17903400      -0.30512062       0.42029768
H        0.00000000       0.00000000       0.00000000       0.18664166       0.14419018      -0.01545137
H        0.00000000       0.00000000       0.00000000       1.41034258      -0.05025937      -0.81490946
O        0.00000000       0.00000000       0.00000000      -1.15766323       0.41971558       0.81452948
H        0.00000000       0.00000000       0.00000000       0.39498055      -0.20436825       0.95994294
H        0.00000000       0.00000000       0.00000000       0.72084731       0.13010165      -0.02235800
H        0.00000000       0.00000000       0.00000000      -0.37611488      -0.13425925      -1.34205163
7
Lattice="529.1772105638412 0.0 0.0 0.0 529.1772105638412 0.0 0.0 0.0 529.1772105638412" Properties=species:S:1:pos:R:3:forces_component_raw:R:3 ipi_comment="Step:        5640  Bead:       0 forces_component_raw{ase}  cell{ase}" pbc="T T T"
O        0.00000000       0.00000000       0.00000000       1.05676198      -0.94627238       0.61022020
H        0.00000000       0.00000000       0.00000000      -0.37891665       0.11820622       0.46646509
H        0.00000000       0.00000000       0.00000000       0.17606062       0.08220641      -0.88136268
O        0.00000000       0.00000000       0.00000000       0.00453983      -0.31258488       1.07797575
H        0.00000000       0.00000000       0.00000000      -0.43431026       0.79265577      -0.59644818
H        0.00000000       0.00000000       0.00000000      -0.11884619       0.31077191      -0.84939504
H        0.00000000       0.00000000       0.00000000      -0.30528933      -0.04498313       0.17254472
7
Lattice="529.1772105638412 0.0 0.0 0.0 529.1772105638412 0.0 0.0 0.0 529.1772105638412" Properties=species:S:1:pos:R:3:forces_component_raw:R:3 ipi_comment="Step:        5660  Bead:       0 forces_component_raw{ase}  cell{ase}" pbc="T T T"
O        0.00000000       0.00000000       0.00000000      -1.45325458       0.61028320      -0.01385849
H        0.00000000       0.00000000       0.00000000       0.40586144       0.01085001      -0.05414903
H        0.00000000       0.00000000       0.00000000       0.61122042       0.04211162      -0.03072768
O        0.00000000       0.00000000       0.00000000      -1.02530956      -0.18480983      -1.42160321
H        0.00000000       0.00000000       0.00000000      -0.20091420      -0.68533754       0.12942395
H        0.00000000       0.00000000       0.00000000       0.55408585      -0.03154981       0.46623701
H        0.00000000       0.00000000       0.00000000       1.10831046       0.23845245       0.92467767
7
Lattice="529.1772105638412 0.0 0.0 0.0 529.1772105638412 0.0 0.0 0.0 529.1772105638412" Properties=species:S:1:pos:R:3:forces_component_raw:R:3 ipi_comment="Step:        5680  Bead:       0 forces_component_raw{ase}  cell{ase}" pbc="T T T"
O        0.00000000       0.00000000       0.00000000       0.85259819       0.14038283      -0.16578233
H        0.00000000       0.00000000       0.00000000      -0.21335661      -0.13057011       0.30960107
H        0.00000000       0.00000000       0.00000000      -1.45695436       0.08796296       0.10447072
O        0.00000000       0.00000000       0.00000000       1.48309350      -1.26172936      -2.12519336
H        0.00000000       0.00000000       0.00000000       0.07967415       0.66374946      -0.28825879
H        0.00000000       0.00000000       0.00000000      -0.85256267       0.02075759       0.26221097
H        0.00000000       0.00000000       0.00000000       0.10750765       0.47944671       1.90295184
7
Lattice="529.1772105638412 0.0 0.0 0.0 529.1772105638412 0.0 0.0 0.0 529.1772105638412" Properties=species:S:1:pos:R:3:forces_component_raw:R:3 ipi_comment="Step:        5700  Bead:       0 forces_component_raw{ase}  cell{ase}" pbc="T T T"
O        0.00000000       0.00000000       0.00000000       0.47798988       0.49536920      -1.81475330
H        0.00000000       0.00000000       0.00000000       0.51464963      -0.04136021       0.24700844
H        0.00000000       0.00000000       0.00000000      -1.52418423      -0.36923301       1.41078031
O        0.00000000       0.00000000       0.00000000      -0.97829491       0.31628704      -2.05852914
H        0.00000000       0.00000000       0.00000000       0.74675983      -0.23548165       0.34538132
H        0.00000000       0.00000000       0.00000000      -0.29324022       0.07177770       1.07371664
H        0.00000000       0.00000000       0.00000000       1.05631972      -0.23735905       0.79639608
7
Lattice="529.1772105638412 0.0 0.0 0.0 529.1772105638412 0.0 0.0 0.0 529.1772105638412" Properties=species:S:1:pos:R:3:forces_component_raw:R:3 ipi_comment="Step:        5720  Bead:       0 forces_component_raw{ase}  cell{ase}" pbc="T T T"
O        0.00000000       0.00000000       0.00000000       3.26446248      -0.40020305      -0.74465567
H        0.00000000       0.00000000       0.00000000      -0.31814426       0.10772064      -0.02457684
H        0.00000000       0.00000000       0.00000000      -1.55692077      -0.49591166       0.81483931
O        0.00000000       0.00000000       0.00000000       0.59798277      -0.07327890      -0.67026222
H        0.00000000       0.00000000       0.00000000      -1.27889407       0.55648178      -0.47149727
H        0.00000000       0.00000000       0.00000000      -1.00440049       0.43554399       0.80246926
H        0.00000000       0.00000000       0.00000000       0.29591465      -0.13035275       0.29368377
7
Lattice="529.1772105638412 0.0 0.0 0.0 529.1772105638412 0.0 0.0 0.0 529.1772105638412" Properties=species:S:1:pos:R:3:forces_component_raw:R:3 ipi_comment="Step:        5740  Bead:       0 forces_component_raw{ase}  cell{ase}" pbc="T T T"
O        0.00000000       0.00000000       0.00000000       0.67203242       0.65022189      -0.46970826
H        0.00000000       0.00000000       0.00000000       0.11082160       0.20826647      -0.54184306
H        0.00000000       0.00000000       0.00000000      -0.70649082      -0.82089704       0.85294438
O        0.00000000       0.00000000       0.00000000      -0.83102811       0.79654479       1.19260597
H        0.00000000       0.00000000       0.00000000       0.29404646      -0.43584567      -0.05927247
H        0.00000000       0.00000000       0.00000000       0.36452347       0.03312987      -0.25837582
H        0.00000000       0.00000000       0.00000000       0.09609467      -0.43142018      -0.71635074
7
Lattice="529.1772105638412 0.0 0.0 0.0 529.1772105638412 0.0 0.0 0.0 529.1772105638412" Properties=species:S:1:pos:R:3:forces_component_raw:R:3 ipi_comment="Step:        5760  Bead:       0 forces_component_raw{ase}  cell{ase}" pbc="T T T"
O        0.00000000       0.00000000       0.00000000       0.93349910      -0.01401192       0.73484820
H        0.00000000       0.00000000       0.00000000      -0.12190415      -0.14296922      -0.58600700
H        0.00000000       0.00000000       0.00000000      -0.36406681      -0.28136569      -0.11505222
O        0.00000000       0.00000000       0.00000000      -0.00620526       0.45089263       1.06359887
H        0.00000000       0.00000000       0.00000000       0.08379880       0.47130126       0.37284038
H        0.00000000       0.00000000       0.00000000       0.39889246      -0.33792535      -0.88871682
H        0.00000000       0.00000000       0.00000000      -0.92401421      -0.14592174      -0.58151144
7
Lattice="529.1772105638412 0.0 0.0 0.0 529.1772105638412 0.0 0.0 0.0 529.1772105638412" Properties=species:S:1:pos:R:3:forces_component_raw:R:3 ipi_comment="Step:        5780  Bead:       0 forces_component_raw{ase}  cell{ase}" pbc="T T T"
O        0.00000000       0.00000000       0.00000000      -1.08537066      -0.80853743       1.14810419
H        0.00000000       0.00000000       0.00000000       0.23451726       0.15517861      -0.56447774
H        0.00000000       0.00000000       0.00000000       1.31129647       0.80866683      -0.27877557
O        0.00000000       0.00000000       0.00000000      -1.04067934       0.22523624      -0.08812115
H        0.00000000       0.00000000       0.00000000      -0.22204185      -0.51764536      -0.40309358
H        0.00000000       0.00000000       0.00000000       0.32433409       0.12039323       0.19947928
H        0.00000000       0.00000000       0.00000000       0.47794402       0.01670792      -0.01311535
7
Lattice="529.1772105638412 0.0 0.0 0.0 529.1772105638412 0.0 0.0 0.0 529.1772105638412" Properties=species:S:1:pos:R:3:forces_component_raw:R:3 ipi_comment="Step:        5800  Bead:       0 forces_component_raw{ase}  cell{ase}" pbc="T T T"
O        0.00000000       0.00000000       0.00000000      -1.48486901      -0.48356620      -0.02936602
H        0.00000000       0.00000000       0.00000000       0.14406748      -0.50838685       0.59557831
H        0.00000000       0.00000000       0.00000000       1.14440346       1.01770318      -0.61039388
O        0.00000000       0.00000000       0.00000000      -0.06961784      -0.64688623      -0.39658573
H        0.00000000       0.00000000       0.00000000       0.25767693       0.24816178       0.34279817
H        0.00000000       0.00000000       0.00000000       0.21941847      -0.08443886      -0.46028972
H        0.00000000       0.00000000       0.00000000      -0.21107958       0.45741320       0.55825901
7
Lattice="529.1772105638412 0.0 0.0 0.0 529.1772105638412 0.0 0.0 0.0 529.1772105638412" Properties=species:S:1:pos:R:3:forces_component_raw:R:3 ipi_comment="Step:        5820  Bead:       0 forces_component_raw{ase}  cell{ase}" pbc="T T T"
O        0.00000000       0.00000000       0.00000000      -1.84748817       0.96391237      -0.68046904
H        0.00000000       0.00000000       0.00000000       0.71611583      -1.69633139       1.38597310
H        0.00000000       0.00000000       0.00000000       0.94727278       0.90563029      -0.57677806
O        0.00000000       0.00000000       0.00000000      -0.73536706      -0.72789031       0.08004323
H        0.00000000       0.00000000       0.00000000      -0.03267822      -0.15049465      -0.49795848
H        0.00000000       0.00000000       0.00000000       0.27999035       0.33479178       0.16148508
H        0.00000000       0.00000000       0.00000000       0.67215425       0.37038192       0.12770426
7
Lattice="529.1772105638412 0.0 0.0 0.0 529.1772105638412 0.0 0.0 0.0 529.1772105638412" Properties=species:S:1:pos:R:3:forces_component_raw:R:3 ipi_comment="Step:        5840  Bead:       0 forces_component_raw{ase}  cell{ase}" pbc="T T T"
O        0.00000000       0.00000000       0.00000000      -1.17127443       1.23564625      -0.93283236
H        0.00000000       0.00000000       0.00000000       0.65611750      -1.43987346       0.86184579
H        0.00000000       0.00000000       0.00000000       0.71356589       0.26054967      -0.12512830
O        0.00000000       0.00000000       0.00000000      -0.21097308      -0.05041498      -1.08397401
H        0.00000000       0.00000000       0.00000000       0.15773322      -0.11554602       0.77117765
H        0.00000000       0.00000000       0.00000000       0.06130204      -0.17983857       0.02419120
H        0.00000000       0.00000000       0.00000000      -0.20647109       0.28947711       0.48472017
7
Lattice="529.1772105638412 0.0 0.0 0.0 529.1772105638412 0.0 0.0 0.0 529.1772105638412" Properties=species:S:1:pos:R:3:forces_component_raw:R:3 ipi_comment="Step:        5860  Bead:       0 forces_component_raw{ase}  cell{ase}" pbc="T T T"
O        0.00000000       0.00000000       0.00000000       0.63934362      -0.07059532      -0.09919822
H        0.00000000       0.00000000       0.00000000       0.00100543      -0.59745509       0.33277673
H        0.00000000       0.00000000       0.00000000      -0.44698513       0.27836543       0.00850326
O        0.00000000       0.00000000       0.00000000       0.55519199       0.35174048       0.74709296
H        0.00000000       0.00000000       0.00000000      -0.03772391       0.18136661      -0.81030756
H        0.00000000       0.00000000       0.00000000      -0.34522227       0.28966343       0.59069544
H        0.00000000       0.00000000       0.00000000      -0.36560959      -0.43308553      -0.76956266
7
Lattice="529.1772105638412 0.0 0.0 0.0 529.1772105638412 0.0 0.0 0.0 529.1772105638412" Properties=species:S:1:pos:R:3:forces_component_raw:R:3 ipi_comment="Step:        5880  Bead:       0 forces_component_raw{ase}  cell{ase}" pbc="T T T"
O        0.00000000       0.00000000       0.00000000      -0.08059818       0.76739705      -0.52502918
H        0.00000000       0.00000000       0.00000000       0.21943277       0.47575683      -0.09461297
H        0.00000000       0.00000000       0.00000000      -0.27854922      -0.89072836       0.28249979
O        0.00000000       0.00000000       0.00000000       1.34895099       0.34365803       0.61744899
H        0.00000000       0.00000000       0.00000000       0.01708482      -0.38797605       0.62571073
H        0.00000000       0.00000000       0.00000000      -0.03500426      -0.00630057      -0.00724518
H        0.00000000       0.00000000       0.00000000      -1.19131673      -0.30180705      -0.89877224
7
Lattice="529.1772105638412 0.0 0.0 0.0 529.1772105638412 0.0 0.0 0.0 529.1772105638412" Properties=species:S:1:pos:R:3:forces_component_raw:R:3 ipi_comment="Step:        5900  Bead:       0 forces_component_raw{ase}  cell{ase}" pbc="T T T"
O        0.00000000       0.00000000       0.00000000       0.94605273      -1.06879270       1.51176048
H        0.00000000       0.00000000       0.00000000      -0.44930804       0.89449442      -1.02796531
H        0.00000000       0.00000000       0.00000000      -0.77928335      -0.09304389      -0.34881792
O        0.00000000       0.00000000       0.00000000       1.49263919       0.65337426       1.19535494
H        0.00000000       0.00000000       0.00000000       0.48904410       0.14455372      -0.37051371
H        0.00000000       0.00000000       0.00000000      -0.31914198      -0.00819051      -0.05079144
H        0.00000000       0.00000000       0.00000000      -1.38000250      -0.52239514      -0.90902710
7
Lattice="529.1772105638412 0.0 0.0 0.0 529.1772105638412 0.0 0.0 0.0 529.1772105638412" Properties=species:S:1:pos:R:3:forces_component_raw:R:3 ipi_comment="Step:        5920  Bead:       0 forces_component_raw{ase}  cell{ase}" pbc="T T T"
O        0.00000000       0.00000000       0.00000000       0.67494434       0.50301433       1.15693510
H        0.00000000       0.00000000       0.00000000      -0.05607076       1.18819988      -0.79535961
H        0.00000000       0.00000000       0.00000000      -0.25280261      -1.38426256      -0.22092839
O        0.00000000       0.00000000       0.00000000       0.60394770       0.23371264       0.14073357
H        0.00000000       0.00000000       0.00000000      -0.32396954      -0.40893498      -0.17792916
H        0.00000000       0.00000000       0.00000000      -0.05086377       0.32476509       0.50313211
H        0.00000000       0.00000000       0.00000000      -0.59518510      -0.45649424      -0.60658378
7
Lattice="529.1772105638412 0.0 0.0 0.0 529.1772105638412 0.0 0.0 0.0 529.1772105638412" Properties=species:S:1:pos:R:3:forces_component_raw:R:3 ipi_comment="Step:        5940  Bead:       0 forces_component_raw{ase}  cell{ase}" pbc="T T T"
O        0.00000000       0.00000000       0.00000000       0.57603020      -0.25940716       0.24866298
H        0.00000000       0.00000000       0.00000000      -0.11385570       0.54895532      -0.42228344
H        0.00000000       0.00000000       0.00000000      -0.55945146      -0.58489496      -0.07878253
O        0.00000000       0.00000000       0.00000000       0.34412801      -0.84122563      -0.90154028
H        0.00000000       0.00000000       0.00000000       0.33275634       0.69176126       0.71878082
H        0.00000000       0.00000000       0.00000000      -0.10544346       0.31261349       0.42643890
H        0.00000000       0.00000000       0.00000000      -0.47416377       0.13219789       0.00872362
7
Lattice="529.1772105638412 0.0 0.0 0.0 529.1772105638412 0.0 0.0 0.0 529.1772105638412" Properties=species:S:1:pos:R:3:forces_component_raw:R:3 ipi_comment="Step:        5960  Bead:       0 forces_component_raw{ase}  cell{ase}" pbc="T T T"
O        0.00000000       0.00000000       0.00000000      -0.23355746       0.10161096       0.91267425
H        0.00000000       0.00000000       0.00000000      -0.17419015       0.37906104      -0.33918610
H        0.00000000       0.00000000       0.00000000      -0.03181759      -0.06463927      -0.07911018
O        0.00000000       0.00000000       0.00000000       0.81242150       0.20104033       0.29551774
H        0.00000000       0.00000000       0.00000000      -0.07579508      -0.76788402      -1.00840903
H        0.00000000       0.00000000       0.00000000      -0.37469128       0.43180645       0.37894353
H        0.00000000       0.00000000       0.00000000       0.07763007      -0.28099531      -0.16043025
7
Lattice="529.1772105638412 0.0 0.0 0.0 529.1772105638412 0.0 0.0 0.0 529.1772105638412" Properties=species:S:1:pos:R:3:forces_component_raw:R:3 ipi_comment="Step:        5980  Bead:       0 forces_component_raw{ase}  cell{ase}" pbc="T T T"
O        0.00000000       0.00000000       0.00000000      -1.27838052      -1.08456540       0.14181209
H        0.00000000       0.00000000       0.00000000      -0.02786326      -0.08764768       0.13704309
H        0.00000000       0.00000000       0.00000000       1.19822908       1.05805028      -0.57747215
O        0.00000000       0.00000000       0.00000000      -0.99672121      -0.57685083      -0.61940730
H        0.00000000       0.00000000       0.00000000       0.19514382       0.40882385       0.76956070
H        0.00000000       0.00000000       0.00000000       0.39294946      -0.12622258      -0.09950262
H        0.00000000       0.00000000       0.00000000       0.51664269       0.40841228       0.24796622
7
Lattice="529.1772105638412 0.0 0.0 0.0 529.1772105638412 0.0 0.0 0.0 529.1772105638412" Properties=species:S:1:pos:R:3:forces_component_raw:R:3 ipi_comment="Step:        6000  Bead:       0 forces_component_raw{ase}  cell{ase}" pbc="T T T"
O        0.00000000       0.00000000       0.00000000      -1.44871044      -0.63749272       0.32728908
H        0.00000000       0.00000000       0.00000000       0.67762906      -0.53621286       0.38858119
H        0.00000000       0.00000000       0.00000000       1.54420209       0.85306364      -0.66666979
O        0.00000000       0.00000000       0.00000000      -1.56387997       0.59523636       0.68378270
H        0.00000000       0.00000000       0.00000000      -0.18806225      -0.28442961      -0.41219217
H        0.00000000       0.00000000       0.00000000      -0.08112456      -0.65402514      -0.74926651
H        0.00000000       0.00000000       0.00000000       1.05994618       0.66386020       0.42847538
7
Lattice="529.1772105638412 0.0 0.0 0.0 529.1772105638412 0.0 0.0 0.0 529.1772105638412" Properties=species:S:1:pos:R:3:forces_component_raw:R:3 ipi_comment="Step:        6020  Bead:       0 forces_component_raw{ase}  cell{ase}" pbc="T T T"
O        0.00000000       0.00000000       0.00000000       0.22443378      -0.94444430       0.31795847
H        0.00000000       0.00000000       0.00000000      -0.11396590      -0.65771020       0.64961887
H        0.00000000       0.00000000       0.00000000       0.49369198       1.14423859      -0.96951640
O        0.00000000       0.00000000       0.00000000      -1.74094713       0.41910717       1.20133484
H        0.00000000       0.00000000       0.00000000      -0.09043210       0.23192054      -0.14233089
H        0.00000000       0.00000000       0.00000000       0.40835548      -0.94973487      -1.27006388
H        0.00000000       0.00000000       0.00000000       0.81886393       0.75662291       0.21299905
7
Lattice="529.1772105638412 0.0 0.0 0.0 529.1772105638412 0.0 0.0 0.0 529.1772105638412" Properties=species:S:1:pos:R:3:forces_component_raw:R:3 ipi_comment="Step:        6040  Bead:       0 forces_component_raw{ase}  cell{ase}" pbc="T T T"
O        0.00000000       0.00000000       0.00000000      -1.76075972       0.80458969      -0.60323018
H        0.00000000       0.00000000       0.00000000       0.70951981      -0.14007527       0.49430150
H        0.00000000       0.00000000       0.00000000       0.82043559      -0.08200642      -0.09091145
O        0.00000000       0.00000000       0.00000000      -0.34010536      -0.05366686       1.17279840
H        0.00000000       0.00000000       0.00000000      -0.14007038      -0.32352099       0.49744108
H        0.00000000       0.00000000       0.00000000       0.52085400      -0.72324628      -1.44709528
H        0.00000000       0.00000000       0.00000000       0.19012612       0.51792616      -0.02330419
7
Lattice="529.1772105638412 0.0 0.0 0.0 529.1772105638412 0.0 0.0 0.0 529.1772105638412" Properties=species:S:1:pos:R:3:forces_component_raw:R:3 ipi_comment="Step:        6060  Bead:       0 forces_component_raw{ase}  cell{ase}" pbc="T T T"
O        0.00000000       0.00000000       0.00000000       0.48401129       0.94350475      -0.27685541
H        0.00000000       0.00000000       0.00000000       0.04378873      -0.53986776       0.60357857
H        0.00000000       0.00000000       0.00000000      -1.10150862      -0.26696420       0.15551546
O        0.00000000       0.00000000       0.00000000       1.01003719       0.19536789       1.17149854
H        0.00000000       0.00000000       0.00000000      -0.15484668       0.25228986      -0.59317333
H        0.00000000       0.00000000       0.00000000      -0.03734230      -0.40077555      -0.97674883
H        0.00000000       0.00000000       0.00000000      -0.24413943      -0.18355519      -0.08381510
7
Lattice="529.1772105638412 0.0 0.0 0.0 529.1772105638412 0.0 0.0 0.0 529.1772105638412" Properties=species:S:1:pos:R:3:forces_component_raw:R:3 ipi_comment="Step:        6080  Bead:       0 forces_component_raw{ase}  cell{ase}" pbc="T T T"
O        0.00000000       0.00000000       0.00000000       0.06972572       1.05302978      -1.10868073
H        0.00000000       0.00000000       0.00000000       0.22616613       0.14894846      -0.29640788
H        0.00000000       0.00000000       0.00000000      -0.69128102      -0.94277251       1.31366873
O        0.00000000       0.00000000       0.00000000       0.83119762       0.94195372      -0.04718418
H        0.00000000       0.00000000       0.00000000       0.47547278      -0.38675094       0.31013697
H        0.00000000       0.00000000       0.00000000      -0.09655580      -0.25476411      -0.21094173
H        0.00000000       0.00000000       0.00000000      -0.81472558      -0.55964422       0.03940865
7
Lattice="529.1772105638412 0.0 0.0 0.0 529.1772105638412 0.0 0.0 0.0 529.1772105638412" Properties=species:S:1:pos:R:3:forces_component_raw:R:3 ipi_comment="Step:        6100  Bead:       0 forces_component_raw{ase}  cell{ase}" pbc="T T T"
O        0.00000000       0.00000000       0.00000000       2.57623196      -0.70814634      -0.37902913
H        0.00000000       0.00000000       0.00000000      -0.45755476       0.21925280      -0.77742493
H        0.00000000       0.00000000       0.00000000      -0.79802275      -0.37394542       0.87627417
O        0.00000000       0.00000000       0.00000000       0.36794543       0.22116876      -0.21727440
H        0.00000000       0.00000000       0.00000000      -0.97801256       0.59311301       0.07694806
H        0.00000000       0.00000000       0.00000000      -0.02450925       0.55545795       0.52155686
H        0.00000000       0.00000000       0.00000000      -0.68607783      -0.50690085      -0.10105065
7
Lattice="529.1772105638412 0.0 0.0 0.0 529.1772105638412 0.0 0.0 0.0 529.1772105638412" Properties=species:S:1:pos:R:3:forces_component_raw:R:3 ipi_comment="Step:        6120  Bead:       0 forces_component_raw{ase}  cell{ase}" pbc="T T T"
O        0.00000000       0.00000000       0.00000000       1.54599023      -0.14899746       0.28127733
H        0.00000000       0.00000000       0.00000000      -1.08275163       0.40496427      -0.98181766
H        0.00000000       0.00000000       0.00000000      -0.21210976      -0.39118943       0.51282978
O        0.00000000       0.00000000       0.00000000      -0.16758895      -0.31803149      -1.15940440
H        0.00000000       0.00000000       0.00000000       0.58841801      -0.17034029       0.01558045
H        0.00000000       0.00000000       0.00000000      -0.08424091       0.97935057       1.29053521
H        0.00000000       0.00000000       0.00000000      -0.58771706      -0.35575619       0.04099920
7
Lattice="529.1772105638412 0.0 0.0 0.0 529.1772105638412 0.0 0.0 0.0 529.1772105638412" Properties=species:S:1:pos:R:3:forces_component_raw:R:3 ipi_comment="Step:        6140  Bead:       0 forces_component_raw{ase}  cell{ase}" pbc="T T T"
O        0.00000000       0.00000000       0.00000000       0.78278238      -0.62549842       1.45644999
H        0.00000000       0.00000000       0.00000000      -1.10608781       0.48761964      -0.83499468
H        0.00000000       0.00000000       0.00000000       0.15760967       0.27414137      -0.31360376
O        0.00000000       0.00000000       0.00000000       1.02209783      -0.12587857      -0.52526331
H        0.00000000       0.00000000       0.00000000      -0.25282043      -0.00000619      -0.41605985
H        0.00000000       0.00000000       0.00000000      -0.00273161       0.60570252       0.83811730
H        0.00000000       0.00000000       0.00000000      -0.60085023      -0.61608035      -0.20464575
7
Lattice="529.1772105638412 0.0 0.0 0.0 529.1772105638412 0.0 0.0 0.0 529.1772105638412" Properties=species:S:1:pos:R:3:forces_component_raw:R:3 ipi_comment="Step:        6160  Bead:       0 forces_component_raw{ase}  cell{ase}" pbc="T T T"
O        0.00000000       0.00000000       0.00000000      -0.29156697       0.14975831       0.20996115
H        0.00000000       0.00000000       0.00000000      -0.40419704       0.21242571      -0.09664619
H        0.00000000       0.00000000       0.00000000       0.18392362      -0.03511840      -0.08400530
O        0.00000000       0.00000000       0.00000000       0.96988845      -0.53772742      -0.26287094
H        0.00000000       0.00000000       0.00000000      -0.00447661       0.16474040       0.17195720
H        0.00000000       0.00000000       0.00000000      -0.03346264       0.02281868      -0.01497334
H        0.00000000       0.00000000       0.00000000      -0.42010874       0.02310276       0.07657737
7
Lattice="529.1772105638412 0.0 0.0 0.0 529.1772105638412 0.0 0.0 0.0 529.1772105638412" Properties=species:S:1:pos:R:3:forces_component_raw:R:3 ipi_comment="Step:        6180  Bead:       0 forces_component_raw{ase}  cell{ase}" pbc="T T T"
O        0.00000000       0.00000000       0.00000000      -0.55912930       0.52378595      -0.24846388
H        0.00000000       0.00000000       0.00000000       0.49464306      -0.17515621       0.30335572
H        0.00000000       0.00000000       0.00000000      -0.05100068      -0.19067654       0.10755885
O        0.00000000       0.00000000       0.00000000      -0.73318911       0.08695510       0.97579992
H        0.00000000       0.00000000       0.00000000       0.52044183      -0.37549317      -0.45157641
H        0.00000000       0.00000000       0.00000000      -0.16039315      -0.31724072      -0.81139803
H        0.00000000       0.00000000       0.00000000       0.48862767       0.44782561       0.12472400
7
Lattice="529.1772105638412 0.0 0.0 0.0 529.1772105638412 0.0 0.0 0.0 529.1772105638412" Properties=species:S:1:pos:R:3:forces_component_raw:R:3 ipi_comment="Step:        6200  Bead:       0 forces_component_raw{ase}  cell{ase}" pbc="T T T"
O        0.00000000       0.00000000       0.00000000      -0.87219817       0.34819597      -1.65169251
H        0.00000000       0.00000000       0.00000000       1.17132747      -0.12686747       1.04899764
H        0.00000000       0.00000000       0.00000000      -0.14342639      -0.26601759       0.28554726
O        0.00000000       0.00000000       0.00000000      -0.91050160      -0.36530757       0.76559061
H        0.00000000       0.00000000       0.00000000      -0.21289550       0.10411476       0.50050330
H        0.00000000       0.00000000       0.00000000      -0.10577732      -0.49098203      -1.21273029
H        0.00000000       0.00000000       0.00000000       1.07347143       0.79686392       0.26378366
7
Lattice="529.1772105638412 0.0 0.0 0.0 529.1772105638412 0.0 0.0 0.0 529.1772105638412" Properties=species:S:1:pos:R:3:forces_component_raw:R:3 ipi_comment="Step:        6220  Bead:       0 forces_component_raw{ase}  cell{ase}" pbc="T T T"
O        0.00000000       0.00000000       0.00000000      -2.12483168      -0.31598011      -1.32109404
H        0.00000000       0.00000000       0.00000000       2.18679858       0.04326785       1.28620148
H        0.00000000       0.00000000       0.00000000       0.10281936       0.04695937       0.22103477
O        0.00000000       0.00000000       0.00000000      -1.45527673      -0.15666568       1.10992718
H        0.00000000       0.00000000       0.00000000      -0.12251256       0.33131635      -0.13244514
H        0.00000000       0.00000000       0.00000000       0.15059084      -0.44948030      -1.31047881
H        0.00000000       0.00000000       0.00000000       1.26241195       0.50058252       0.14685465
7
Lattice="529.1772105638412 0.0 0.0 0.0 529.1772105638412 0.0 0.0 0.0 529.1772105638412" Properties=species:S:1:pos:R:3:forces_component_raw:R:3 ipi_comment="Step:        6240  Bead:       0 forces_component_raw{ase}  cell{ase}" pbc="T T T"
O        0.00000000       0.00000000       0.00000000      -0.48027670       0.12841459       0.17685318
H        0.00000000       0.00000000       0.00000000       0.36004210      -0.13205437       0.65828365
H        0.00000000       0.00000000       0.00000000      -0.24793035       0.14184675      -0.74901748
O        0.00000000       0.00000000       0.00000000       0.04710865       0.26181582       0.30445963
H        0.00000000       0.00000000       0.00000000       0.21939901      -0.10967252       0.11654766
H        0.00000000       0.00000000       0.00000000      -0.24275731      -0.36294657      -0.83898902
H        0.00000000       0.00000000       0.00000000       0.34441477       0.07259629       0.33186233
7
Lattice="529.1772105638412 0.0 0.0 0.0 529.1772105638412 0.0 0.0 0.0 529.1772105638412" Properties=species:S:1:pos:R:3:forces_component_raw:R:3 ipi_comment="Step:        6260  Bead:       0 forces_component_raw{ase}  cell{ase}" pbc="T T T"
O        0.00000000       0.00000000       0.00000000      -0.41800058      -0.14666924       1.43901635
H        0.00000000       0.00000000       0.00000000      -0.12088639      -0.04345748      -0.17327842
H        0.00000000       0.00000000       0.00000000       0.19478133       0.39807323      -1.12468958
O        0.00000000       0.00000000       0.00000000       0.22336304       0.07355206      -0.07287979
H        0.00000000       0.00000000       0.00000000       0.09419256      -0.19360693      -0.00661710
H        0.00000000       0.00000000       0.00000000       0.05271465      -0.01182804       0.07075787
H        0.00000000       0.00000000       0.00000000      -0.02616447      -0.07606360      -0.13230932
7
Lattice="529.1772105638412 0.0 0.0 0.0 529.1772105638412 0.0 0.0 0.0 529.1772105638412" Properties=species:S:1:pos:R:3:forces_component_raw:R:3 ipi_comment="Step:        6280  Bead:       0 forces_component_raw{ase}  cell{ase}" pbc="T T T"
O        0.00000000       0.00000000       0.00000000       1.45696342      -0.44289151       2.01210380
H        0.00000000       0.00000000       0.00000000      -1.11153186      -0.20866957      -0.39614081
H        0.00000000       0.00000000       0.00000000      -0.09448814       0.42196745      -1.75306785
O        0.00000000       0.00000000       0.00000000       0.79546100      -0.02692363      -0.54300588
H        0.00000000       0.00000000       0.00000000      -0.36984933       0.28514221       0.24595586
H        0.00000000       0.00000000       0.00000000       0.05210066      -0.06739675       0.84026939
H        0.00000000       0.00000000       0.00000000      -0.72865582       0.03877170      -0.40611446
7
Lattice="529.1772105638412 0.0 0.0 0.0 529.1772105638412 0.0 0.0 0.0 529.1772105638412" Properties=species:S:1:pos:R:3:forces_component_raw:R:3 ipi_comment="Step:        6300  Bead:       0 forces_component_raw{ase}  cell{ase}" pbc="T T T"
O        0.00000000       0.00000000       0.00000000       0.43251202       0.29398942       0.52102900
H        0.00000000       0.00000000       0.00000000      -0.89759600      -0.22528413      -0.32708693
H        0.00000000       0.00000000       0.00000000       0.11929464       0.01436823       0.01163626
O        0.00000000       0.00000000       0.00000000       1.31989861       0.23323822      -0.49520171
H        0.00000000       0.00000000       0.00000000       0.35204506      -0.15450358      -0.21155077
H        0.00000000       0.00000000       0.00000000      -0.04413009      -0.31466502       1.11593175
H        0.00000000       0.00000000       0.00000000      -1.28202439       0.15285680      -0.61475754
7
Lattice="529.1772105638412 0.0 0.0 0.0 529.1772105638412 0.0 0.0 0.0 529.1772105638412" Properties=species:S:1:pos:R:3:forces_component_raw:R:3 ipi_comment="Step:        6320  Bead:       0 forces_component_raw{ase}  cell{ase}" pbc="T T T"
O        0.00000000       0.00000000       0.00000000       0.87638468       0.21333990      -0.70548701
H        0.00000000       0.00000000       0.00000000      -0.90682769      -0.26360172      -0.01469828
H        0.00000000       0.00000000       0.00000000       0.13716820      -0.01707396       0.56271786
O        0.00000000       0.00000000       0.00000000       1.62211943       0.24858125      -0.39753890
H        0.00000000       0.00000000       0.00000000      -0.24303275       0.00555794       0.17489812
H        0.00000000       0.00000000       0.00000000      -0.27285969      -0.30386147       0.67569602
H        0.00000000       0.00000000       0.00000000      -1.21295226       0.11705813      -0.29558775
7
Lattice="529.1772105638412 0.0 0.0 0.0 529.1772105638412 0.0 0.0 0.0 529.1772105638412" Properties=species:S:1:pos:R:3:forces_component_raw:R:3 ipi_comment="Step:        6340  Bead:       0 forces_component_raw{ase}  cell{ase}" pbc="T T T"
O        0.00000000       0.00000000       0.00000000      -0.19511455      -0.06920981      -1.11889744
H        0.00000000       0.00000000       0.00000000      -0.11611348      -0.11367844      -0.20821585
H        0.00000000       0.00000000       0.00000000       0.48990953       0.18144575       1.16462922
O        0.00000000       0.00000000       0.00000000      -1.17062390      -0.32056263       1.35470939
H        0.00000000       0.00000000       0.00000000       0.19308400      -0.23579417      -0.18219644
H        0.00000000       0.00000000       0.00000000       0.53357387       0.40477786      -0.73649866
H        0.00000000       0.00000000       0.00000000       0.26528457       0.15302137      -0.27353051
7
Lattice="529.1772105638412 0.0 0.0 0.0 529.1772105638412 0.0 0.0 0.0 529.1772105638412" Properties=species:S:1:pos:R:3:forces_component_raw:R:3 ipi_comment="Step:        6360  Bead:       0 forces_component_raw{ase}  cell{ase}" pbc="T T T"
O        0.00000000       0.00000000       0.00000000      -0.20653665      -0.56697095      -1.07356000
H        0.00000000       0.00000000       0.00000000       0.56037939       0.54382438       0.11309607
H        0.00000000       0.00000000       0.00000000      -0.14814949       0.00110698       0.98001075
O        0.00000000       0.00000000       0.00000000      -0.56583178      -1.03290367       0.45279116
H        0.00000000       0.00000000       0.00000000      -0.07083535       0.27080020      -0.00941816
H        0.00000000       0.00000000       0.00000000      -0.33595756       1.36714721      -1.41132665
H        0.00000000       0.00000000       0.00000000       0.76693142      -0.58300418       0.94840700
7
Lattice="529.1772105638412 0.0 0.0 0.0 529.1772105638412 0.0 0.0 0.0 529.1772105638412" Properties=species:S:1:pos:R:3:forces_component_raw:R:3 ipi_comment="Step:        6380  Bead:       0 forces_component_raw{ase}  cell{ase}" pbc="T T T"
O        0.00000000       0.00000000       0.00000000      -0.60893035      -0.89726854      -0.18018895
H        0.00000000       0.00000000       0.00000000       0.70137358       0.90252608      -0.18602714
H        0.00000000       0.00000000       0.00000000      -0.15588072       0.18453199       0.43709475
O        0.00000000       0.00000000       0.00000000      -2.55325318      -1.12116122       0.57748354
H        0.00000000       0.00000000       0.00000000       0.03703818      -0.08832613       0.36502218
H        0.00000000       0.00000000       0.00000000       0.79866028       1.47585035      -1.52394605
H        0.00000000       0.00000000       0.00000000       1.78099251      -0.45615235       0.51056147
7
Lattice="529.1772105638412 0.0 0.0 0.0 529.1772105638412 0.0 0.0 0.0 529.1772105638412" Properties=species:S:1:pos:R:3:forces_component_raw:R:3 ipi_comment="Step:        6400  Bead:       0 forces_component_raw{ase}  cell{ase}" pbc="T T T"
O        0.00000000       0.00000000       0.00000000       0.17510521      -0.07174085      -0.00599217
H        0.00000000       0.00000000       0.00000000       0.00612089       0.03517681       0.07160556
H        0.00000000       0.00000000       0.00000000      -0.17008339      -0.08210742       0.06588960
O        0.00000000       0.00000000       0.00000000      -1.07477737      -1.02837336       0.84033483
H        0.00000000       0.00000000       0.00000000      -0.20610470       0.41018498      -0.09085694
H        0.00000000       0.00000000       0.00000000       0.18195806       1.32847941      -1.13286257
H        0.00000000       0.00000000       0.00000000       1.08778143      -0.59161961       0.25188157
7
Lattice="529.1772105638412 0.0 0.0 0.0 529.1772105638412 0.0 0.0 0.0 529.1772105638412" Properties=species:S:1:pos:R:3:forces_component_raw:R:3 ipi_comment="Step:        6420  Bead:       0 forces_component_raw{ase}  cell{ase}" pbc="T T T"
O        0.00000000       0.00000000       0.00000000       0.28066358       0.56531334       0.12411852
H        0.00000000       0.00000000       0.00000000      -0.40056354      -0.46125338       0.10379739
H        0.00000000       0.00000000       0.00000000       0.05177102      -0.04777914      -0.28130436
O        0.00000000       0.00000000       0.00000000       0.23565257      -0.31780559       0.33553159
H        0.00000000       0.00000000       0.00000000       0.17011668      -0.27943713       0.12193397
H        0.00000000       0.00000000       0.00000000      -0.09917995       0.66546011      -0.55752027
H        0.00000000       0.00000000       0.00000000      -0.23846036      -0.12449837       0.15344307
7
Lattice="529.1772105638412 0.0 0.0 0.0 529.1772105638412 0.0 0.0 0.0 529.1772105638412" Properties=species:S:1:pos:R:3:forces_component_raw:R:3 ipi_comment="Step:        6440  Bead:       0 forces_component_raw{ase}  cell{ase}" pbc="T T T"
O        0.00000000       0.00000000       0.00000000       0.08444473      -0.73208702      -0.76866651
H        0.00000000       0.00000000       0.00000000      -0.19425654       0.33362329       0.40639985
H        0.00000000       0.00000000       0.00000000       0.03068660       0.13456374       0.24813680
O        0.00000000       0.00000000       0.00000000       0.31302518      -0.35606244       0.63356614
H        0.00000000       0.00000000       0.00000000       0.23169839       0.23492484      -0.23565209
H        0.00000000       0.00000000       0.00000000       0.28557819      -0.37024438       0.18086407
H        0.00000000       0.00000000       0.00000000      -0.75117642       0.75528205      -0.46464840
7
Lattice="529.1772105638412 0.0 0.0 0.0 529.1772105638412 0.0 0.0 0.0 529.1772105638412" Properties=species:S:1:pos:R:3:forces_component_raw:R:3 ipi_comment="Step:        6460  Bead:       0 forces_component_raw{ase}  cell{ase}" pbc="T T T"
O        0.00000000       0.00000000       0.00000000      -0.57776332      -0.69085074       0.18687439
H        0.00000000       0.00000000       0.00000000       0.00443360      -0.06091470      -0.18755627
H        0.00000000       0.00000000       0.00000000       0.38574979       1.05732060       0.30978090
O        0.00000000       0.00000000       0.00000000       2.44764209       1.02898002      -0.99142778
H        0.00000000       0.00000000       0.00000000      -0.21443942      -0.50252360       0.03357609
H        0.00000000       0.00000000       0.00000000      -0.72953940      -1.19448543       0.62485343
H        0.00000000       0.00000000       0.00000000      -1.31608331       0.36247385       0.02389944
7
Lattice="529.1772105638412 0.0 0.0 0.0 529.1772105638412 0.0 0.0 0.0 529.1772105638412" Properties=species:S:1:pos:R:3:forces_component_raw:R:3 ipi_comment="Step:        6480  Bead:       0 forces_component_raw{ase}  cell{ase}" pbc="T T T"
O        0.00000000       0.00000000       0.00000000       0.15728229      -0.98710001      -1.01797796
H        0.00000000       0.00000000       0.00000000      -0.16325530      -0.04806557       0.29663134
H        0.00000000       0.00000000       0.00000000       0.04596031       0.91642064       0.78363544
O        0.00000000       0.00000000       0.00000000       0.77912653      -0.03946212       0.27217442
H        0.00000000       0.00000000       0.00000000       0.09351456       0.32330883      -0.47922620
H        0.00000000       0.00000000       0.00000000      -0.17982388      -1.53120852       0.59397686
H        0.00000000       0.00000000       0.00000000      -0.73280454       1.36610699      -0.44921392
7
Lattice="529.1772105638412 0.0 0.0 0.0 529.1772105638412 0.0 0.0 0.0 529.1772105638412" Properties=species:S:1:pos:R:3:forces_component_raw:R:3 ipi_comment="Step:        6500  Bead:       0 forces_component_raw{ase}  cell{ase}" pbc="T T T"
O        0.00000000       0.00000000       0.00000000      -0.06669593      -0.90558213      -0.06135598
H        0.00000000       0.00000000       0.00000000       0.39501476       0.43107575      -0.61756188
H        0.00000000       0.00000000       0.00000000      -0.14104578       0.64813107       0.43992794
O        0.00000000       0.00000000       0.00000000       1.61238301      -0.38526285      -0.50027359
H        0.00000000       0.00000000       0.00000000       0.17378378      -0.24028944       0.23489928
H        0.00000000       0.00000000       0.00000000      -0.77055836      -0.70853365       0.45962009
H        0.00000000       0.00000000       0.00000000      -1.20288158       1.16046119       0.04474409
7
Lattice="529.1772105638412 0.0 0.0 0.0 529.1772105638412 0.0 0.0 0.0 529.1772105638412" Properties=species:S:1:pos:R:3:forces_component_raw:R:3 ipi_comment="Step:        6520  Bead:       0 forces_component_raw{ase}  cell{ase}" pbc="T T T"
O        0.00000000       0.00000000       0.00000000       0.31948978      -0.74385494      -0.18469262
H        0.00000000       0.00000000       0.00000000       0.24240613       0.91168827      -0.12958720
H        0.00000000       0.00000000       0.00000000      -0.20882814      -0.42422682       0.17779234
O        0.00000000       0.00000000       0.00000000       0.38026244      -0.36750585       0.22805268
H        0.00000000       0.00000000       0.00000000      -0.21300829       0.50568766      -0.20202957
H        0.00000000       0.00000000       0.00000000      -0.32850224      -0.64457941       0.28346625
H        0.00000000       0.00000000       0.00000000      -0.19181973       0.76279128      -0.17300166
7
Lattice="529.1772105638412 0.0 0.0 0.0 529.1772105638412 0.0 0.0 0.0 529.1772105638412" Properties=species:S:1:pos:R:3:forces_component_raw:R:3 ipi_comment="Step:        6540  Bead:       0 forces_component_raw{ase}  cell{ase}" pbc="T T T"
O        0.00000000       0.00000000       0.00000000      -0.31518859      -0.55623675       0.97050393
H        0.00000000       0.00000000       0.00000000       0.41802973       0.51102215      -0.70950562
H        0.00000000       0.00000000       0.00000000      -0.00669005      -0.00845528      -0.40366399
O        0.00000000       0.00000000       0.00000000       0.38683742       0.69746697      -0.26335985
H        0.00000000       0.00000000       0.00000000       0.06158242      -0.23497525      -0.03325284
H        0.00000000       0.00000000       0.00000000      -0.24760914      -0.22961602      -0.01660013
H        0.00000000       0.00000000       0.00000000      -0.29696190      -0.17920566       0.45587862
7
Lattice="529.1772105638412 0.0 0.0 0.0 529.1772105638412 0.0 0.0 0.0 529.1772105638412" Properties=species:S:1:pos:R:3:forces_component_raw:R:3 ipi_comment="Step:        6560  Bead:       0 forces_component_raw{ase}  cell{ase}" pbc="T T T"
O        0.00000000       0.00000000       0.00000000       0.01013303       0.44776011       0.00616360
H        0.00000000       0.00000000       0.00000000       0.16266999       0.22801295       0.50897396
H        0.00000000       0.00000000       0.00000000      -0.47098249      -0.81780654      -0.42183220
O        0.00000000       0.00000000       0.00000000      -0.65032584       0.97803366       0.07571000
H        0.00000000       0.00000000       0.00000000       0.17707819       0.19353493       0.13552448
H        0.00000000       0.00000000       0.00000000       0.44140196      -0.02475494      -0.21816310
H        0.00000000       0.00000000       0.00000000       0.33002520      -1.00478006      -0.08637668
7
Lattice="529.1772105638412 0.0 0.0 0.0 529.1772105638412 0.0 0.0 0.0 529.1772105638412" Properties=species:S:1:pos:R:3:forces_component_raw:R:3 ipi_comment="Step:        6580  Bead:       0 forces_component_raw{ase}  cell{ase}" pbc="T T T"
O        0.00000000       0.00000000       0.00000000      -0.18112384       0.69269890       1.62311399
H        0.00000000       0.00000000       0.00000000      -0.16382200      -0.23892495      -0.31556925
H        0.00000000       0.00000000       0.00000000      -0.00962305       0.00525266      -0.58636880
O        0.00000000       0.00000000       0.00000000       0.36895534       0.55451465      -0.34200761
H        0.00000000       0.00000000       0.00000000      -0.19322544      -0.19878645      -0.04809752
H        0.00000000       0.00000000       0.00000000       0.20841803       0.68533814       0.26205787
H        0.00000000       0.00000000       0.00000000      -0.02957904      -1.50009322      -0.59312868
7
Lattice="529.1772105638412 0.0 0.0 0.0 529.1772105638412 0.0 0.0 0.0 529.1772105638412" Properties=species:S:1:pos:R:3:forces_component_raw:R:3 ipi_comment="Step:        6600  Bead:       0 forces_component_raw{ase}  cell{ase}" pbc="T T T"
O        0.00000000       0.00000000       0.00000000      -0.35400084       0.16283083      -0.16019708
H        0.00000000       0.00000000       0.00000000       0.04039180       0.20400026       0.57619274
H        0.00000000       0.00000000       0.00000000      -0.14197996      -0.01240215       0.37910414
O        0.00000000       0.00000000       0.00000000      -0.92419201       0.11097562       0.32976103
H        0.00000000       0.00000000       0.00000000       0.00107051       0.13195395      -0.10786995
H        0.00000000       0.00000000       0.00000000       0.64888728       0.39169452       0.06578247
H        0.00000000       0.00000000       0.00000000       0.72982335      -0.98905319      -1.08277321
7
Lattice="529.1772105638412 0.0 0.0 0.0 529.1772105638412 0.0 0.0 0.0 529.1772105638412" Properties=species:S:1:pos:R:3:forces_component_raw:R:3 ipi_comment="Step:        6620  Bead:       0 forces_component_raw{ase}  cell{ase}" pbc="T T T"
O        0.00000000       0.00000000       0.00000000      -0.46526945       0.48093367       0.03984249
H        0.00000000       0.00000000       0.00000000      -0.43638566      -0.03909981      -0.09944702
H        0.00000000       0.00000000       0.00000000       0.66715968      -0.02551217       0.10325578
O        0.00000000       0.00000000       0.00000000      -0.30771357       0.02599770      -0.25162664
H        0.00000000       0.00000000       0.00000000      -0.02150445      -0.56127703       0.35173297
H        0.00000000       0.00000000       0.00000000       0.77575606       0.95362300       0.02262433
H        0.00000000       0.00000000       0.00000000      -0.21204263      -0.83466530      -0.16638185
7
Lattice="529.1772105638412 0.0 0.0 0.0 529.1772105638412 0.0 0.0 0.0 529.1772105638412" Properties=species:S:1:pos:R:3:forces_component_raw:R:3 ipi_comment="Step:        6640  Bead:       0 forces_component_raw{ase}  cell{ase}" pbc="T T T"
O        0.00000000       0.00000000       0.00000000       0.82475132       0.14863062      -1.87952424
H        0.00000000       0.00000000       0.00000000      -0.24615866      -0.24261290       0.19603676
H        0.00000000       0.00000000       0.00000000      -0.02148442      -0.41072780       1.42117596
O        0.00000000       0.00000000       0.00000000      -0.86020321      -0.89854849       1.09646678
H        0.00000000       0.00000000       0.00000000      -0.41728801       0.53411323      -0.38312623
H        0.00000000       0.00000000       0.00000000       0.62434155      -0.01722771      -0.30742490
H        0.00000000       0.00000000       0.00000000       0.09604140       0.88637310      -0.14360456
7
Lattice="529.1772105638412 0.0 0.0 0.0 529.1772105638412 0.0 0.0 0.0 529.1772105638412" Properties=species:S:1:pos:R:3:forces_component_raw:R:3 ipi_comment="Step:        6660  Bead:       0 forces_component_raw{ase}  cell{ase}" pbc="T T T"
O        0.00000000       0.00000000       0.00000000      -1.25649286       0.51670349      -0.69490111
H        0.00000000       0.00000000       0.00000000       0.68336988      -0.01838574      -0.12391585
H        0.00000000       0.00000000       0.00000000       0.40909761      -0.61097264       0.55281645
O        0.00000000       0.00000000       0.00000000       0.02097347      -1.77164662       0.24746424
H        0.00000000       0.00000000       0.00000000       0.58624882      -0.38959682       0.03354734
H        0.00000000       0.00000000       0.00000000       0.16475052       0.34073332      -0.24779379
H        0.00000000       0.00000000       0.00000000      -0.60794735       1.93316508       0.23278254
7
Lattice="529.1772105638412 0.0 0.0 0.0 529.1772105638412 0.0 0.0 0.0 529.1772105638412" Properties=species:S:1:pos:R:3:forces_component_raw:R:3 ipi_comment="Step:        6680  Bead:       0 forces_component_raw{ase}  cell{ase}" pbc="T T T"
O        0.00000000       0.00000000       0.00000000       0.48662269       0.32218337       0.04744780
H        0.00000000       0.00000000       0.00000000      -0.20696005      -0.00374705      -0.24139246
H        0.00000000       0.00000000       0.00000000      -0.14440845      -0.44531158       0.56641054
O        0.00000000       0.00000000       0.00000000       0.73874593      -0.96162856      -0.39968741
H        0.00000000       0.00000000       0.00000000      -0.36783990       0.20771748      -0.11090270
H        0.00000000       0.00000000       0.00000000      -0.61678660      -0.95302016       0.34247726
H        0.00000000       0.00000000       0.00000000       0.11062633       1.83380652      -0.20435302
7
Lattice="529.1772105638412 0.0 0.0 0.0 529.1772105638412 0.0 0.0 0.0 529.1772105638412" Properties=species:S:1:pos:R:3:forces_component_raw:R:3 ipi_comment="Step:        6700  Bead:       0 forces_component_raw{ase}  cell{ase}" pbc="T T T"
O        0.00000000       0.00000000       0.00000000       0.74731052       0.13768855       0.19015098
H        0.00000000       0.00000000       0.00000000      -0.74531734       0.53992200       0.01913424
H        0.00000000       0.00000000       0.00000000      -0.20253728      -0.29577276       0.19137645
O        0.00000000       0.00000000       0.00000000       1.19593907      -1.22942984      -1.45807445
H        0.00000000       0.00000000       0.00000000       0.01848528       0.06964470       0.16226232
H        0.00000000       0.00000000       0.00000000      -0.79240060      -0.16878408       0.59685439
H        0.00000000       0.00000000       0.00000000      -0.22147967       0.94673145       0.29829601
7
Lattice="529.1772105638412 0.0 0.0 0.0 529.1772105638412 0.0 0.0 0.0 529.1772105638412" Properties=species:S:1:pos:R:3:forces_component_raw:R:3 ipi_comment="Step:        6720  Bead:       0 forces_component_raw{ase}  cell{ase}" pbc="T T T"
O        0.00000000       0.00000000       0.00000000       0.02148034      -0.64664978       0.87848062
H        0.00000000       0.00000000       0.00000000      -0.57968766       1.15465510      -0.00147528
H        0.00000000       0.00000000       0.00000000       0.26670504       0.15493593      -0.34764010
O        0.00000000       0.00000000       0.00000000       0.28492609      -0.24388357      -0.34943914
H        0.00000000       0.00000000       0.00000000       0.16607013      -0.18803355      -0.05636655
H        0.00000000       0.00000000       0.00000000      -0.67612809      -0.83005291       0.22850934
H        0.00000000       0.00000000       0.00000000       0.51663411       0.59902895      -0.35206899
7
Lattice="529.1772105638412 0.0 0.0 0.0 529.1772105638412 0.0 0.0 0.0 529.1772105638412" Properties=species:S:1:pos:R:3:forces_component_raw:R:3 ipi_comment="Step:        6740  Bead:       0 forces_component_raw{ase}  cell{ase}" pbc="T T T"
O        0.00000000       0.00000000       0.00000000      -0.16963777      -0.90757346       0.75375927
H        0.00000000       0.00000000       0.00000000      -0.04133211       1.35778642      -0.37953287
H        0.00000000       0.00000000       0.00000000       0.31431228      -0.23620185      -0.22274157
O        0.00000000       0.00000000       0.00000000       0.79966378      -0.12958583      -0.78379136
H        0.00000000       0.00000000       0.00000000      -0.25186187       0.05896711       0.09927215
H        0.00000000       0.00000000       0.00000000      -0.38095129       0.21034336       0.48327816
H        0.00000000       0.00000000       0.00000000      -0.27019298      -0.35373566       0.04975631
7
Lattice="529.1772105638412 0.0 0.0 0.0 529.1772105638412 0.0 0.0 0.0 529.1772105638412" Properties=species:S:1:pos:R:3:forces_component_raw:R:3 ipi_comment="Step:        6760  Bead:       0 forces_component_raw{ase}  cell{ase}" pbc="T T T"
O        0.00000000       0.00000000       0.00000000       0.29851508      -1.69763029      -0.19970685
H        0.00000000       0.00000000       0.00000000      -0.31906110       1.04743982      -0.03345871
H        0.00000000       0.00000000       0.00000000      -0.06706849       0.41757652       0.09498769
O        0.00000000       0.00000000       0.00000000       0.12407857       1.87714863       1.66957927
H        0.00000000       0.00000000       0.00000000       0.20877500      -0.12676325      -0.22624016
H        0.00000000       0.00000000       0.00000000       0.13921467      -0.38682711      -0.54272175
H        0.00000000       0.00000000       0.00000000      -0.38445374      -1.13094449      -0.76243961
7
Lattice="529.1772105638412 0.0 0.0 0.0 529.1772105638412 0.0 0.0 0.0 529.1772105638412" Properties=species:S:1:pos:R:3:forces_component_raw:R:3 ipi_comment="Step:        6780  Bead:       0 forces_component_raw{ase}  cell{ase}" pbc="T T T"
O        0.00000000       0.00000000       0.00000000       0.21138255      -1.26036120      -0.39033967
H        0.00000000       0.00000000       0.00000000       0.41709960       0.66749281      -0.50955647
H        0.00000000       0.00000000       0.00000000      -0.57014018      -0.24762057       0.20137665
O        0.00000000       0.00000000       0.00000000       0.87995255       0.86505312       0.13895723
H        0.00000000       0.00000000       0.00000000       0.06397194       0.33589953       0.24178708
H        0.00000000       0.00000000       0.00000000       0.47864837       0.37633568       0.00204809
H        0.00000000       0.00000000       0.00000000      -1.48091483      -0.73679948       0.31572688
7
Lattice="529.1772105638412 0.0 0.0 0.0 529.1772105638412 0.0 0.0 0.0 529.1772105638412" Properties=species:S:1:pos:R:3:forces_component_raw:R:3 ipi_comment="Step:        6800  Bead:       0 forces_component_raw{ase}  cell{ase}" pbc="T T T"
O        0.00000000       0.00000000       0.00000000       0.78850234       0.25372917       0.00745189
H        0.00000000       0.00000000       0.00000000      -0.01796851      -0.11079448      -0.04346234
H        0.00000000       0.00000000       0.00000000      -0.73403084      -0.21991536      -0.22288379
O        0.00000000       0.00000000       0.00000000      -0.19976258       1.23211527       1.60204089
H        0.00000000       0.00000000       0.00000000       0.31695831      -0.45033687      -0.09164937
H        0.00000000       0.00000000       0.00000000       0.09621194      -0.26662290      -0.59729946
H        0.00000000       0.00000000       0.00000000      -0.24991071      -0.43817467      -0.65419793
7
Lattice="529.1772105638412 0.0 0.0 0.0 529.1772105638412 0.0 0.0 0.0 529.1772105638412" Properties=species:S:1:pos:R:3:forces_component_raw:R:3 ipi_comment="Step:        6820  Bead:       0 forces_component_raw{ase}  cell{ase}" pbc="T T T"
O        0.00000000       0.00000000       0.00000000       2.07569242       0.08338699       0.03475183
H        0.00000000       0.00000000       0.00000000      -0.54488915      -0.64540243      -0.05477536
H        0.00000000       0.00000000       0.00000000      -1.17649496       0.26257771      -0.34264371
O        0.00000000       0.00000000       0.00000000       0.14509031      -0.38057697      -0.52754927
H        0.00000000       0.00000000       0.00000000      -0.17543754       0.50278396       0.36856338
H        0.00000000       0.00000000       0.00000000       0.10041630       0.37120318       0.45252204
H        0.00000000       0.00000000       0.00000000      -0.42437711      -0.19397247       0.06913117
7
Lattice="529.1772105638412 0.0 0.0 0.0 529.1772105638412 0.0 0.0 0.0 529.1772105638412" Properties=species:S:1:pos:R:3:forces_component_raw:R:3 ipi_comment="Step:        6840  Bead:       0 forces_component_raw{ase}  cell{ase}" pbc="T T T"
O        0.00000000       0.00000000       0.00000000       1.14572478       0.98240286       0.69603866
H        0.00000000       0.00000000       0.00000000      -0.15558058      -0.66480488      -0.17839062
H        0.00000000       0.00000000       0.00000000      -1.14604235       0.12641814      -0.07475893
O        0.00000000       0.00000000       0.00000000      -0.29753241      -0.38953716       0.38716814
H        0.00000000       0.00000000       0.00000000      -0.03086310      -0.19031858      -0.05703124
H        0.00000000       0.00000000       0.00000000      -0.15121013      -0.02294816      -0.56184912
H        0.00000000       0.00000000       0.00000000       0.63550383       0.15878761      -0.21117681
7
Lattice="529.1772105638412 0.0 0.0 0.0 529.1772105638412 0.0 0.0 0.0 529.1772105638412" Properties=species:S:1:pos:R:3:forces_component_raw:R:3 ipi_comment="Step:        6860  Bead:       0 forces_component_raw{ase}  cell{ase}" pbc="T T T"
O        0.00000000       0.00000000       0.00000000       0.04507233       0.52003598       0.23068482
H        0.00000000       0.00000000       0.00000000      -0.65635932      -0.56386852      -0.39666307
H        0.00000000       0.00000000       0.00000000       0.33187041       0.21842957       0.14066353
O        0.00000000       0.00000000       0.00000000      -0.21269596      -0.04288822      -1.85929704
H        0.00000000       0.00000000       0.00000000       0.24734762      -0.24756888      -0.05313009
H        0.00000000       0.00000000       0.00000000      -0.07637566       0.09654796       0.57068837
H        0.00000000       0.00000000       0.00000000       0.32114023       0.01931205       1.36705363
7
Lattice="529.1772105638412 0.0 0.0 0.0 529.1772105638412 0.0 0.0 0.0 529.1772105638412" Properties=species:S:1:pos:R:3:forces_component_raw:R:3 ipi_comment="Step:        6880  Bead:       0 forces_component_raw{ase}  cell{ase}" pbc="T T T"
O        0.00000000       0.00000000       0.00000000      -0.43775773       0.74477315       0.33610988
H        0.00000000       0.00000000       0.00000000      -0.60288811      -0.44457176      -0.47751626
H        0.00000000       0.00000000       0.00000000       0.63463050       0.02367547       0.15192941
O        0.00000000       0.00000000       0.00000000       0.15216517      -0.31487116      -0.41031408
H        0.00000000       0.00000000       0.00000000      -0.06758559      -0.15997575       0.27343369
H        0.00000000       0.00000000       0.00000000      -0.68499148      -0.00829810      -0.57630688
H        0.00000000       0.00000000       0.00000000       1.00642729       0.15926804       0.70266426
7
Lattice="529.1772105638412 0.0 0.0 0.0 529.1772105638412 0.0 0.0 0.0 529.1772105638412" Properties=species:S:1:pos:R:3:forces_component_raw:R:3 ipi_comment="Step:        6900  Bead:       0 forces_component_raw{ase}  cell{ase}" pbc="T T T"
O        0.00000000       0.00000000       0.00000000      -0.05984887       0.27444452       0.21957529
H        0.00000000       0.00000000       0.00000000      -0.01653326      -0.29888520      -0.20915419
H        0.00000000       0.00000000       0.00000000      -0.01203024      -0.06531226       0.00157857
O        0.00000000       0.00000000       0.00000000       1.43531704      -0.63306856      -0.51161915
H        0.00000000       0.00000000       0.00000000      -0.04303311       0.41281012      -0.10937256
H        0.00000000       0.00000000       0.00000000      -1.08842862       0.11778690       0.36282772
H        0.00000000       0.00000000       0.00000000      -0.21544308       0.19222440       0.24616426
7
Lattice="529.1772105638412 0.0 0.0 0.0 529.1772105638412 0.0 0.0 0.0 529.1772105638412" Properties=species:S:1:pos:R:3:forces_component_raw:R:3 ipi_comment="Step:        6920  Bead:       0 forces_component_raw{ase}  cell{ase}" pbc="T T T"
O        0.00000000       0.00000000       0.00000000      -0.08242491      -0.71617055      -0.57806993
H        0.00000000       0.00000000       0.00000000       0.38237664       0.53266174       0.55647779
H        0.00000000       0.00000000       0.00000000       0.05301791      -0.15041810      -0.13704422
O        0.00000000       0.00000000       0.00000000      -0.17021149       1.03874874       0.89775503
H        0.00000000       0.00000000       0.00000000      -0.02405353      -0.33244288      -0.25182480
H        0.00000000       0.00000000       0.00000000      -0.80937904       0.02386028      -0.51390720
H        0.00000000       0.00000000       0.00000000       0.65067446      -0.39623925       0.02661341
7
Lattice="529.1772105638412 0.0 0.0 0.0 529.1772105638412 0.0 0.0 0.0 529.1772105638412" Properties=species:S:1:pos:R:3:forces_component_raw:R:3 ipi_comment="Step:        6940  Bead:       0 forces_component_raw{ase}  cell{ase}" pbc="T T T"
O        0.00000000       0.00000000       0.00000000       0.29540619      -0.53862423      -0.48145279
H        0.00000000       0.00000000       0.00000000       0.11057287       0.23952001       0.27614063
H        0.00000000       0.00000000       0.00000000      -0.05010325      -0.16227588      -0.15020329
O        0.00000000       0.00000000       0.00000000       0.28122419      -0.61817515      -0.96548355
H        0.00000000       0.00000000       0.00000000      -0.06828079       0.35776347       0.30908448
H        0.00000000       0.00000000       0.00000000      -0.32989314       0.49155161       0.49756432
H        0.00000000       0.00000000       0.00000000      -0.23892626       0.23024011       0.51435018
7
Lattice="529.1772105638412 0.0 0.0 0.0 529.1772105638412 0.0 0.0 0.0 529.1772105638412" Properties=species:S:1:pos:R:3:forces_component_raw:R:3 ipi_comment="Step:        6960  Bead:       0 forces_component_raw{ase}  cell{ase}" pbc="T T T"
O        0.00000000       0.00000000       0.00000000      -0.00268592       0.30208516       0.24730313
H        0.00000000       0.00000000       0.00000000      -0.06616265      -0.10582432      -0.06184958
H        0.00000000       0.00000000       0.00000000      -0.17234600       0.03945687       0.00862248
O        0.00000000       0.00000000       0.00000000      -0.10218520       0.62882811       0.36208990
H        0.00000000       0.00000000       0.00000000       0.23097149      -0.32071459      -0.25936997
H        0.00000000       0.00000000       0.00000000      -0.06761041      -0.28072745      -0.36343104
H        0.00000000       0.00000000       0.00000000       0.18001860      -0.26310372       0.06663507
7
Lattice="529.1772105638412 0.0 0.0 0.0 529.1772105638412 0.0 0.0 0.0 529.1772105638412" Properties=species:S:1:pos:R:3:forces_component_raw:R:3 ipi_comment="Step:        6980  Bead:       0 forces_component_raw{ase}  cell{ase}" pbc="T T T"
O        0.00000000       0.00000000       0.00000000       0.39410657       0.64315188       0.17686543
H        0.00000000       0.00000000       0.00000000      -0.18631846      -0.02289325      -0.06934045
H        0.00000000       0.00000000       0.00000000      -0.40736696       0.14115973       0.16190690
O        0.00000000       0.00000000       0.00000000       0.52139646      -0.81257332      -0.48343665
H        0.00000000       0.00000000       0.00000000      -0.12826049      -0.16790825       0.22410217
H        0.00000000       0.00000000       0.00000000       0.06181782      -0.07087562       0.00633088
H        0.00000000       0.00000000       0.00000000      -0.25537503       0.28993878      -0.01642829
7
Lattice="529.1772105638412 0.0 0.0 0.0 529.1772105638412 0.0 0.0 0.0 529.1772105638412" Properties=species:S:1:pos:R:3:forces_component_raw:R:3 ipi_comment="Step:        7000  Bead:       0 forces_component_raw{ase}  cell{ase}" pbc="T T T"
O        0.00000000       0.00000000       0.00000000      -0.16511549      -0.60237718      -0.44645232
H        0.00000000       0.00000000       0.00000000       0.19838971       0.17191660       0.10679023
H        0.00000000       0.00000000       0.00000000      -0.26014465       0.26701582       0.30501393
O        0.00000000       0.00000000       0.00000000       0.19996473      -0.04768896       0.73559344
H        0.00000000       0.00000000       0.00000000       0.22591101       0.30719447       0.07913667
H        0.00000000       0.00000000       0.00000000      -0.01357356      -0.11712462      -0.22511345
H        0.00000000       0.00000000       0.00000000      -0.18543178       0.02106403      -0.55496842
7
Lattice="529.1772105638412 0.0 0.0 0.0 529.1772105638412 0.0 0.0 0.0 529.1772105638412" Properties=species:S:1:pos:R:3:forces_component_raw:R:3 ipi_comment="Step:        7020  Bead:       0 forces_component_raw{ase}  cell{ase}" pbc="T T T"
O        0.00000000       0.00000000       0.00000000      -0.68617505      -0.01858810       0.15498541
H        0.00000000       0.00000000       0.00000000       0.85677767       0.43130499       0.02036913
H        0.00000000       0.00000000       0.00000000       0.00546104      -0.35326624      -0.36915386
O        0.00000000       0.00000000       0.00000000       0.00560346       0.18547699       1.08185375
H        0.00000000       0.00000000       0.00000000      -0.14179155      -0.31775397      -0.17465663
H        0.00000000       0.00000000       0.00000000       0.11213517      -0.15139556       0.08145228
H        0.00000000       0.00000000       0.00000000      -0.15201080       0.22422187      -0.79484999
7
Lattice="529.1772105638412 0.0 0.0 0.0 529.1772105638412 0.0 0.0 0.0 529.1772105638412" Properties=species:S:1:pos:R:3:forces_component_raw:R:3 ipi_comment="Step:        7040  Bead:       0 forces_component_raw{ase}  cell{ase}" pbc="T T T"
O        0.00000000       0.00000000       0.00000000      -0.77610159       0.01727334       0.16277072
H        0.00000000       0.00000000       0.00000000       0.36382389       0.22105259       0.45015854
H        0.00000000       0.00000000       0.00000000       0.59034896       0.04055008      -0.57654297
O        0.00000000       0.00000000       0.00000000      -0.03681207       0.27347037      -0.05979002
H        0.00000000       0.00000000       0.00000000      -0.24151497      -0.29153681      -0.01491420
H        0.00000000       0.00000000       0.00000000       0.02435927      -0.31462944       0.48578599
H        0.00000000       0.00000000       0.00000000       0.07589646       0.05381975      -0.44746810
7
Lattice="529.1772105638412 0.0 0.0 0.0 529.1772105638412 0.0 0.0 0.0 529.1772105638412" Properties=species:S:1:pos:R:3:forces_component_raw:R:3 ipi_comment="Step:        7060  Bead:       0 forces_component_raw{ase}  cell{ase}" pbc="T T T"
O        0.00000000       0.00000000       0.00000000      -1.39723826      -0.60792422       1.47229791
H        0.00000000       0.00000000       0.00000000       0.61270809       0.15940350      -0.18354946
H        0.00000000       0.00000000       0.00000000       0.36275429       0.26704663      -0.91624624
O        0.00000000       0.00000000       0.00000000       0.79887700       0.88574624      -0.69555891
H        0.00000000       0.00000000       0.00000000       0.37573478       0.60605836      -0.15599383
H        0.00000000       0.00000000       0.00000000      -0.64383245      -0.91741210       0.55993062
H        0.00000000       0.00000000       0.00000000      -0.10900361      -0.39291865      -0.08087999
7
Lattice="529.1772105638412 0.0 0.0 0.0 529.1772105638412 0.0 0.0 0.0 529.1772105638412" Properties=species:S:1:pos:R:3:forces_component_raw:R:3 ipi_comment="Step:        7080  Bead:       0 forces_component_raw{ase}  cell{ase}" pbc="T T T"
O        0.00000000       0.00000000       0.00000000       0.77037013       0.80110824       0.26633516
H        0.00000000       0.00000000       0.00000000      -0.76184726      -0.44811154       0.07060133
H        0.00000000       0.00000000       0.00000000       0.15421945       0.02235754      -0.12705332
O        0.00000000       0.00000000       0.00000000       0.70753491      -0.04611871      -0.09401900
H        0.00000000       0.00000000       0.00000000      -0.49353212       0.00248281       0.18973437
H        0.00000000       0.00000000       0.00000000      -0.35309091      -0.29541659       0.67885775
H        0.00000000       0.00000000       0.00000000      -0.02365425      -0.03630188      -0.98445618
7
Lattice="529.1772105638412 0.0 0.0 0.0 529.1772105638412 0.0 0.0 0.0 529.1772105638412" Properties=species:S:1:pos:R:3:forces_component_raw:R:3 ipi_comment="Step:        7100  Bead:       0 forces_component_raw{ase}  cell{ase}" pbc="T T T"
O        0.00000000       0.00000000       0.00000000       1.94563103       1.89264536      -1.13106799
H        0.00000000       0.00000000       0.00000000      -1.58881116      -1.81207657      -0.08381647
H        0.00000000       0.00000000       0.00000000      -0.44436121      -0.20197001       1.08204246
O        0.00000000       0.00000000       0.00000000      -0.53975099       1.30175102       1.83443809
H        0.00000000       0.00000000       0.00000000       0.57167232      -0.81552148      -0.45844013
H        0.00000000       0.00000000       0.00000000       0.06398866      -0.18518466      -0.19967541
H        0.00000000       0.00000000       0.00000000      -0.00836875      -0.17964384      -1.04348064
7
Lattice="529.1772105638412 0.0 0.0 0.0 529.1772105638412 0.0 0.0 0.0 529.1772105638412" Properties=species:S:1:pos:R:3:forces_component_raw:R:3 ipi_comment="Step:        7120  Bead:       0 forces_component_raw{ase}  cell{ase}" pbc="T T T"
O        0.00000000       0.00000000       0.00000000       2.03558112      -0.03186429      -1.97699881
H        0.00000000       0.00000000       0.00000000      -1.32690883      -1.32620240       0.61297017
H        0.00000000       0.00000000       0.00000000      -0.19806787       0.27610856       0.79676849
O        0.00000000       0.00000000       0.00000000      -0.10805506      -0.55244124      -0.11365071
H        0.00000000       0.00000000       0.00000000      -0.50183451       0.89204514       0.43857777
H        0.00000000       0.00000000       0.00000000       0.06084431       0.28217024       0.18254539
H        0.00000000       0.00000000       0.00000000       0.03844073       0.46018431       0.05978781
7
Lattice="529.1772105638412 0.0 0.0 0.0 529.1772105638412 0.0 0.0 0.0 529.1772105638412" Properties=species:S:1:pos:R:3:forces_component_raw:R:3 ipi_comment="Step:        7140  Bead:       0 forces_component_raw{ase}  cell{ase}" pbc="T T T"
O        0.00000000       0.00000000       0.00000000       0.36708844       1.22523773       0.16243780
H        0.00000000       0.00000000       0.00000000      -0.37805837      -0.72977036      -0.14571434
H        0.00000000       0.00000000       0.00000000      -0.15601930      -0.26100588       0.08208156
O        0.00000000       0.00000000       0.00000000      -0.57375014       0.02507329      -0.68603289
H        0.00000000       0.00000000       0.00000000       0.41179720      -0.58633924      -0.49409980
H        0.00000000       0.00000000       0.00000000       0.13557686       0.40400118      -0.63148880
H        0.00000000       0.00000000       0.00000000       0.19336525      -0.07719660       1.71281672
7
Lattice="529.1772105638412 0.0 0.0 0.0 529.1772105638412 0.0 0.0 0.0 529.1772105638412" Properties=species:S:1:pos:R:3:forces_component_raw:R:3 ipi_comment="Step:        7160  Bead:       0 forces_component_raw{ase}  cell{ase}" pbc="T T T"
O        0.00000000       0.00000000       0.00000000      -0.94327861      -0.28614158       1.19506741
H        0.00000000       0.00000000       0.00000000       0.42636293       0.62703884       0.35247940
H        0.00000000       0.00000000       0.00000000       0.50364423       0.25511998      -1.38848925
O        0.00000000       0.00000000       0.00000000      -0.20341593      -1.73932648      -1.74780655
H        0.00000000       0.00000000       0.00000000      -0.30615264      -0.10005270       0.21464649
H        0.00000000       0.00000000       0.00000000       0.10317159       0.68686456      -0.01776195
H        0.00000000       0.00000000       0.00000000       0.41966832       0.55649740       1.39186442
7
Lattice="529.1772105638412 0.0 0.0 0.0 529.1772105638412 0.0 0.0 0.0 529.1772105638412" Properties=species:S:1:pos:R:3:forces_component_raw:R:3 ipi_comment="Step:        7180  Bead:       0 forces_component_raw{ase}  cell{ase}" pbc="T T T"
O        0.00000000       0.00000000       0.00000000      -1.34048748      -0.43849534       2.30445433
H        0.00000000       0.00000000       0.00000000       0.99737454       0.57673627      -0.69159979
H        0.00000000       0.00000000       0.00000000       0.10203004      -0.24685559      -1.49801684
O        0.00000000       0.00000000       0.00000000      -0.03736858      -0.55973554      -0.55585635
H        0.00000000       0.00000000       0.00000000       0.13894674       0.45109514      -0.00236371
H        0.00000000       0.00000000       0.00000000      -0.11372516       0.21314767      -0.47850371
H        0.00000000       0.00000000       0.00000000       0.25322977       0.00410742       0.92188603
7
Lattice="529.1772105638412 0.0 0.0 0.0 529.1772105638412 0.0 0.0 0.0 529.1772105638412" Properties=species:S:1:pos:R:3:forces_component_raw:R:3 ipi_comment="Step:        7200  Bead:       0 forces_component_raw{ase}  cell{ase}" pbc="T T T"
O        0.00000000       0.00000000       0.00000000      -0.28240752      -0.31970394       0.13799986
H        0.00000000       0.00000000       0.00000000       0.08621769       0.30404878       0.28803492
H        0.00000000       0.00000000       0.00000000       0.33193860       0.09124560      -0.46349996
O        0.00000000       0.00000000       0.00000000      -0.06446505      -0.20092875      -0.48232946
H        0.00000000       0.00000000       0.00000000      -0.23457941      -0.05278969       0.02550684
H        0.00000000       0.00000000       0.00000000      -0.04556400       0.01534703       0.02835608
H        0.00000000       0.00000000       0.00000000       0.20885974       0.16278076       0.46593189
7
Lattice="529.1772105638412 0.0 0.0 0.0 529.1772105638412 0.0 0.0 0.0 529.1772105638412" Properties=species:S:1:pos:R:3:forces_component_raw:R:3 ipi_comment="Step:        7220  Bead:       0 forces_component_raw{ase}  cell{ase}" pbc="T T T"
O        0.00000000       0.00000000       0.00000000      -0.16378713      -0.71709633      -0.14495239
H        0.00000000       0.00000000       0.00000000       0.10691606       0.04987979      -0.00642559
H        0.00000000       0.00000000       0.00000000       0.04573905       0.01687353      -0.01693541
O        0.00000000       0.00000000       0.00000000      -0.43220997       0.94035846       0.22087055
H        0.00000000       0.00000000       0.00000000       0.49717730      -0.00199531      -0.09154564
H        0.00000000       0.00000000       0.00000000       0.05956584      -0.32113954       0.36322087
H        0.00000000       0.00000000       0.00000000      -0.11340116       0.03311947      -0.32423258
7
Lattice="529.1772105638412 0.0 0.0 0.0 529.1772105638412 0.0 0.0 0.0 529.1772105638412" Properties=species:S:1:pos:R:3:forces_component_raw:R:3 ipi_comment="Step:        7240  Bead:       0 forces_component_raw{ase}  cell{ase}" pbc="T T T"
O        0.00000000       0.00000000       0.00000000       0.84117800      -0.56978190      -0.55529159
H        0.00000000       0.00000000       0.00000000      -0.18247178       0.08346319      -0.02358079
H        0.00000000       0.00000000       0.00000000      -0.17595106      -0.04312576       0.19398770
O        0.00000000       0.00000000       0.00000000       0.12655920       1.55707074      -0.80878717
H        0.00000000       0.00000000       0.00000000      -0.46754736       0.20204473       0.44153553
H        0.00000000       0.00000000       0.00000000      -0.04378569      -1.17199850       0.73224020
H        0.00000000       0.00000000       0.00000000      -0.09798133      -0.05767253       0.01989615
7
Lattice="529.1772105638412 0.0 0.0 0.0 529.1772105638412 0.0 0.0 0.0 529.1772105638412" Properties=species:S:1:pos:R:3:forces_component_raw:R:3 ipi_comment="Step:        7260  Bead:       0 forces_component_raw{ase}  cell{ase}" pbc="T T T"
O        0.00000000       0.00000000       0.00000000       0.49883086      -0.13544858      -0.32550865
H        0.00000000       0.00000000       0.00000000      -0.18930209      -0.51822841       0.06292900
H        0.00000000       0.00000000       0.00000000      -0.52548844       0.48873085       0.42844999
O        0.00000000       0.00000000       0.00000000       0.10672855       1.25905085      -0.08453077
H        0.00000000       0.00000000       0.00000000       0.28671023      -0.05110589      -0.42700785
H        0.00000000       0.00000000       0.00000000       0.22141856      -0.98471135       0.80299431
H        0.00000000       0.00000000       0.00000000      -0.39889762      -0.05828726      -0.45732623
7
Lattice="529.1772105638412 0.0 0.0 0.0 529.1772105638412 0.0 0.0 0.0 529.1772105638412" Properties=species:S:1:pos:R:3:forces_component_raw:R:3 ipi_comment="Step:        7280  Bead:       0 forces_component_raw{ase}  cell{ase}" pbc="T T T"
O        0.00000000       0.00000000       0.00000000       0.60189641       0.54961449      -0.35818148
H        0.00000000       0.00000000       0.00000000      -0.26217121      -0.44981966       0.10622835
H        0.00000000       0.00000000       0.00000000      -0.51730919       0.38704282       0.32337767
O        0.00000000       0.00000000       0.00000000       0.27556524       0.76202709      -0.78576064
H        0.00000000       0.00000000       0.00000000      -0.12857418      -0.09176558       0.34434059
H        0.00000000       0.00000000       0.00000000       0.29659921      -0.72639597       0.92553640
H        0.00000000       0.00000000       0.00000000      -0.26600635      -0.43070328      -0.55554104
7
Lattice="529.1772105638412 0.0 0.0 0.0 529.1772105638412 0.0 0.0 0.0 529.1772105638412" Properties=species:S:1:pos:R:3:forces_component_raw:R:3 ipi_comment="Step:        7300  Bead:       0 forces_component_raw{ase}  cell{ase}" pbc="T T T"
O        0.00000000       0.00000000       0.00000000      -0.29102135      -0.42457038       0.17572600
H        0.00000000       0.00000000       0.00000000       0.38377330       0.28994501      -0.13868468
H        0.00000000       0.00000000       0.00000000      -0.21764061       0.21536851       0.19952735
O        0.00000000       0.00000000       0.00000000       0.36979085       0.87509036       0.29545564
H        0.00000000       0.00000000       0.00000000      -0.18325964       0.30575442      -0.37607640
H        0.00000000       0.00000000       0.00000000       0.40736723      -0.53099394       0.53747290
H        0.00000000       0.00000000       0.00000000      -0.46900973      -0.73059392      -0.69342077
7
Lattice="529.1772105638412 0.0 0.0 0.0 529.1772105638412 0.0 0.0 0.0 529.1772105638412" Properties=species:S:1:pos:R:3:forces_component_raw:R:3 ipi_comment="Step:        7320  Bead:       0 forces_component_raw{ase}  cell{ase}" pbc="T T T"
O        0.00000000       0.00000000       0.00000000      -0.97119487      -0.06429628       0.20749842
H        0.00000000       0.00000000       0.00000000       0.42714718       0.38957939      -0.10918809
H        0.00000000       0.00000000       0.00000000       0.59034056      -0.32626379      -0.23382159
O        0.00000000       0.00000000       0.00000000      -0.34844041       0.40296978      -0.12964371
H        0.00000000       0.00000000       0.00000000       0.31655422      -0.16817275       0.42801252
H        0.00000000       0.00000000       0.00000000       0.06000167       0.22412124       0.19245526
H        0.00000000       0.00000000       0.00000000      -0.07440837      -0.45793745      -0.35531271
7
Lattice="529.1772105638412 0.0 0.0 0.0 529.1772105638412 0.0 0.0 0.0 529.1772105638412" Properties=species:S:1:pos:R:3:forces_component_raw:R:3 ipi_comment="Step:        7340  Bead:       0 forces_component_raw{ase}  cell{ase}" pbc="T T T"
O        0.00000000       0.00000000       0.00000000      -0.26067755       0.11719066       0.05924404
H        0.00000000       0.00000000       0.00000000      -0.38014066       0.11422253       0.21309736
H        0.00000000       0.00000000       0.00000000       0.92718637      -0.02810873      -0.30635282
O        0.00000000       0.00000000       0.00000000       0.76797337      -0.40590918       0.76777560
H        0.00000000       0.00000000       0.00000000      -0.55986673      -0.08207741      -0.13774607
H        0.00000000       0.00000000       0.00000000      -0.37304187       0.25019002      -0.50995958
H        0.00000000       0.00000000       0.00000000      -0.12143284       0.03449222      -0.08605859
7
Lattice="529.1772105638412 0.0 0.0 0.0 529.1772105638412 0.0 0.0 0.0 529.1772105638412" Properties=species:S:1:pos:R:3:forces_component_raw:R:3 ipi_comment="Step:        7360  Bead:       0 forces_component_raw{ase}  cell{ase}" pbc="T T T"
O        0.00000000       0.00000000       0.00000000      -0.97397793       1.37065316       0.30281776
H        0.00000000       0.00000000       0.00000000      -0.06815290      -0.55114693       0.05774789
H        0.00000000       0.00000000       0.00000000       0.66716814      -0.32247329      -0.28652611
O        0.00000000       0.00000000       0.00000000       0.59637952      -1.73318565       0.66637963
H        0.00000000       0.00000000       0.00000000       0.39233565       0.01483943      -0.00672847
H        0.00000000       0.00000000       0.00000000      -1.28894472       0.73714072      -1.01849449
H        0.00000000       0.00000000       0.00000000       0.67519236       0.48417261       0.28480390
7
Lattice="529.1772105638412 0.0 0.0 0.0 529.1772105638412 0.0 0.0 0.0 529.1772105638412" Properties=species:S:1:pos:R:3:forces_component_raw:R:3 ipi_comment="Step:        7380  Bead:       0 forces_component_raw{ase}  cell{ase}" pbc="T T T"
O        0.00000000       0.00000000       0.00000000       0.89265222       0.99241710      -0.48568267
H        0.00000000       0.00000000       0.00000000      -0.93898267      -0.92811465       0.41184464
H        0.00000000       0.00000000       0.00000000      -0.09444076       0.34146744      -0.00360087
O        0.00000000       0.00000000       0.00000000       0.90142256      -2.35597134       0.83158744
H        0.00000000       0.00000000       0.00000000      -0.26417089      -0.15501761       0.14115617
H        0.00000000       0.00000000       0.00000000      -1.65755725       1.01411498      -1.18668533
H        0.00000000       0.00000000       0.00000000       1.16107691       1.09110415       0.29138058
7
Lattice="529.1772105638412 0.0 0.0 0.0 529.1772105638412 0.0 0.0 0.0 529.1772105638412" Properties=species:S:1:pos:R:3:forces_component_raw:R:3 ipi_comment="Step:        7400  Bead:       0 forces_component_raw{ase}  cell{ase}" pbc="T T T"
O        0.00000000       0.00000000       0.00000000       0.36890397       0.39292592      -0.35614449
H        0.00000000       0.00000000       0.00000000      -0.11990911      -0.59039104       0.01660720
H        0.00000000       0.00000000       0.00000000      -0.64791274       0.06580093       0.38628966
O        0.00000000       0.00000000       0.00000000       0.10924459      -1.82395983       1.08279407
H        0.00000000       0.00000000       0.00000000       0.85253596       0.00869930      -0.04690439
H        0.00000000       0.00000000       0.00000000      -1.76691223       1.12788952      -1.03305924
H        0.00000000       0.00000000       0.00000000       1.20404947       0.81903511      -0.04958293
7
Lattice="529.1772105638412 0.0 0.0 0.0 529.1772105638412 0.0 0.0 0.0 529.1772105638412" Properties=species:S:1:pos:R:3:forces_component_raw:R:3 ipi_comment="Step:        7420  Bead:       0 forces_component_raw{ase}  cell{ase}" pbc="T T T"
O        0.00000000       0.00000000       0.00000000       1.71127534      -0.52974719      -1.34102917
H        0.00000000       0.00000000       0.00000000      -0.26626009      -0.18837732       0.07390493
H        0.00000000       0.00000000       0.00000000      -0.90888357       0.05513128       1.13330627
O        0.00000000       0.00000000       0.00000000      -0.17873275       0.01545882       0.36092988
H        0.00000000       0.00000000       0.00000000      -0.85265386      -0.10660544      -0.07601208
H        0.00000000       0.00000000       0.00000000      -0.40056723      -0.21366337      -0.18073493
H        0.00000000       0.00000000       0.00000000       0.89582247       0.96780318       0.02963524
7
Lattice="529.1772105638412 0.0 0.0 0.0 529.1772105638412 0.0 0.0 0.0 529.1772105638412" Properties=species:S:1:pos:R:3:forces_component_raw:R:3 ipi_comment="Step:        7440  Bead:       0 forces_component_raw{ase}  cell{ase}" pbc="T T T"
O        0.00000000       0.00000000       0.00000000      -0.46214739      -0.93537367      -1.21745718
H        0.00000000       0.00000000       0.00000000       0.51233852       0.27479038      -0.04995626
H        0.00000000       0.00000000       0.00000000      -0.25850600       0.24066694       1.07946801
O        0.00000000       0.00000000       0.00000000      -1.71845878      -0.36215240      -0.17506293
H        0.00000000       0.00000000       0.00000000       1.01090038      -0.05270781       0.30812198
H        0.00000000       0.00000000       0.00000000       0.50578207       0.42761821       0.29790700
H        0.00000000       0.00000000       0.00000000       0.41009110       0.40715832      -0.24302080
7
Lattice="529.1772105638412 0.0 0.0 0.0 529.1772105638412 0.0 0.0 0.0 529.1772105638412" Properties=species:S:1:pos:R:3:forces_component_raw:R:3 ipi_comment="Step:        7460  Bead:       0 forces_component_raw{ase}  cell{ase}" pbc="T T T"
O        0.00000000       0.00000000       0.00000000      -0.32662913      -0.08640629       0.22253119
H        0.00000000       0.00000000       0.00000000       0.55568129       0.38260803      -0.27099764
H        0.00000000       0.00000000       0.00000000      -0.00688839       0.20204216       0.19938931
O        0.00000000       0.00000000       0.00000000      -0.21322212       0.58694506      -0.72396547
H        0.00000000       0.00000000       0.00000000      -0.82799041      -0.35451749      -0.19649920
H        0.00000000       0.00000000       0.00000000       0.76184845      -0.49800542       0.47628534
H        0.00000000       0.00000000       0.00000000       0.05720049      -0.23266608       0.29325655
7
Lattice="529.1772105638412 0.0 0.0 0.0 529.1772105638412 0.0 0.0 0.0 529.1772105638412" Properties=species:S:1:pos:R:3:forces_component_raw:R:3 ipi_comment="Step:        7480  Bead:       0 forces_component_raw{ase}  cell{ase}" pbc="T T T"
O        0.00000000       0.00000000       0.00000000      -0.33155337       0.65465504       0.83484662
H        0.00000000       0.00000000       0.00000000       0.14537595      -0.21638106      -0.07821304
H        0.00000000       0.00000000       0.00000000      -0.02987590      -0.15747058      -0.48715928
O        0.00000000       0.00000000       0.00000000      -1.01820255      -0.81443834      -0.63121617
H        0.00000000       0.00000000       0.00000000       0.30855969       0.40688500      -0.09928179
H        0.00000000       0.00000000       0.00000000       1.21527195       0.50909263       0.52770734
H        0.00000000       0.00000000       0.00000000      -0.28957555      -0.38234270      -0.06668375
7
Lattice="529.1772105638412 0.0 0.0 0.0 529.1772105638412 0.0 0.0 0.0 529.1772105638412" Properties=species:S:1:pos:R:3:forces_component_raw:R:3 ipi_comment="Step:        7500  Bead:       0 forces_component_raw{ase}  cell{ase}" pbc="T T T"
O        0.00000000       0.00000000       0.00000000      -0.23425719       0.63111162       1.80035282
H        0.00000000       0.00000000       0.00000000       0.23247549       0.76309937      -0.63655776
H        0.00000000       0.00000000       0.00000000       0.04652730      -0.98954094      -1.48468089
O        0.00000000       0.00000000       0.00000000      -0.16368890       0.96639633      -0.41004610
H        0.00000000       0.00000000       0.00000000      -0.13153404      -0.21348523       0.39816225
H        0.00000000       0.00000000       0.00000000       0.41676656      -0.31166351       0.19612113
H        0.00000000       0.00000000       0.00000000      -0.16628918      -0.84591747       0.13664867
7
Lattice="529.1772105638412 0.0 0.0 0.0 529.1772105638412 0.0 0.0 0.0 529.1772105638412" Properties=species:S:1:pos:R:3:forces_component_raw:R:3 ipi_comment="Step:        7520  Bead:       0 forces_component_raw{ase}  cell{ase}" pbc="T T T"
O        0.00000000       0.00000000       0.00000000       0.41094869       0.28846037       2.58662820
H        0.00000000       0.00000000       0.00000000      -0.00579044       0.42086369      -0.66302681
H        0.00000000       0.00000000       0.00000000      -0.36923817      -0.95008707      -1.50767184
O        0.00000000       0.00000000       0.00000000       1.58333946      -0.55378235       0.75092983
H        0.00000000       0.00000000       0.00000000       0.05135623       0.13797507      -0.70933533
H        0.00000000       0.00000000       0.00000000      -0.89685291       0.71397674      -0.38417539
H        0.00000000       0.00000000       0.00000000      -0.77376288      -0.05740654      -0.07334863
7
Lattice="529.1772105638412 0.0 0.0 0.0 529.1772105638412 0.0 0.0 0.0 529.1772105638412" Properties=species:S:1:pos:R:3:forces_component_raw:R:3 ipi_comment="Step:        7540  Bead:       0 forces_component_raw{ase}  cell{ase}" pbc="T T T"
O        0.00000000       0.00000000       0.00000000       0.33684394      -0.50675231       0.29900390
H        0.00000000       0.00000000       0.00000000      -0.31658626       0.52945453      -0.05890900
H        0.00000000       0.00000000       0.00000000      -0.06994053      -0.69528735      -0.71164876
O        0.00000000       0.00000000       0.00000000       0.91359806      -0.09521389       0.07965818
H        0.00000000       0.00000000       0.00000000       0.36352667       0.28022236       0.46742120
H        0.00000000       0.00000000       0.00000000      -2.05634451       0.46258801       0.01761075
H        0.00000000       0.00000000       0.00000000       0.82890266       0.02498841      -0.09313630
7
Lattice="529.1772105638412 0.0 0.0 0.0 529.1772105638412 0.0 0.0 0.0 529.1772105638412" Properties=species:S:1:pos:R:3:forces_component_raw:R:3 ipi_comment="Step:        7560  Bead:       0 forces_component_raw{ase}  cell{ase}" pbc="T T T"
O        0.00000000       0.00000000       0.00000000       0.22532159      -0.31224674       0.18335317
H        0.00000000       0.00000000       0.00000000      -0.01088396      -0.21756971      -0.13520420
H        0.00000000       0.00000000       0.00000000      -0.03105803       0.37948442       0.45092633
O        0.00000000       0.00000000       0.00000000       1.68326354      -2.27246094       0.22410834
H        0.00000000       0.00000000       0.00000000      -0.40522152      -0.21684535      -0.57243842
H        0.00000000       0.00000000       0.00000000      -1.93761969       1.34806228       0.36909917
H        0.00000000       0.00000000       0.00000000       0.47619808       1.29157591      -0.51984441
7
Lattice="529.1772105638412 0.0 0.0 0.0 529.1772105638412 0.0 0.0 0.0 529.1772105638412" Properties=species:S:1:pos:R:3:forces_component_raw:R:3 ipi_comment="Step:        7580  Bead:       0 forces_component_raw{ase}  cell{ase}" pbc="T T T"
O        0.00000000       0.00000000       0.00000000      -1.04447937      -1.17396021      -1.94094396
H        0.00000000       0.00000000       0.00000000       0.09038731      -0.10127228       0.64868873
H        0.00000000       0.00000000       0.00000000       0.61411935       1.40866900       0.99548835
O        0.00000000       0.00000000       0.00000000       0.15217456      -0.91189027      -0.08415356
H        0.00000000       0.00000000       0.00000000       0.56146664      -0.04416907       0.36653796
H        0.00000000       0.00000000       0.00000000      -1.55286527       0.22852469       0.87561983
H        0.00000000       0.00000000       0.00000000       1.17919684       0.59409797      -0.86123741
7
Lattice="529.1772105638412 0.0 0.0 0.0 529.1772105638412 0.0 0.0 0.0 529.1772105638412" Properties=species:S:1:pos:R:3:forces_component_raw:R:3 ipi_comment="Step:        7600  Bead:       0 forces_component_raw{ase}  cell{ase}" pbc="T T T"
O        0.00000000       0.00000000       0.00000000      -0.28366751      -1.54290080      -0.29522622
H        0.00000000       0.00000000       0.00000000       0.02653596      -0.21687689      -0.03188169
H        0.00000000       0.00000000       0.00000000       0.72664911       1.64968610       0.59851909
O        0.00000000       0.00000000       0.00000000      -0.14137518      -2.13672638       1.00735951
H        0.00000000       0.00000000       0.00000000      -0.59401161       0.42255378      -0.38365367
H        0.00000000       0.00000000       0.00000000      -0.11486810       0.47062296      -0.07719970
H        0.00000000       0.00000000       0.00000000       0.38073725       1.35364116      -0.81791753
7
Lattice="529.1772105638412 0.0 0.0 0.0 529.1772105638412 0.0 0.0 0.0 529.1772105638412" Properties=species:S:1:pos:R:3:forces_component_raw:R:3 ipi_comment="Step:        7620  Bead:       0 forces_component_raw{ase}  cell{ase}" pbc="T T T"
O        0.00000000       0.00000000       0.00000000      -1.70268560      -0.10397232      -0.49669725
H        0.00000000       0.00000000       0.00000000      -0.01442048       0.08894220      -0.19756669
H        0.00000000       0.00000000       0.00000000       1.27965427       0.81216496       0.22249880
O        0.00000000       0.00000000       0.00000000      -0.69727034      -0.67773682       1.32814455
H        0.00000000       0.00000000       0.00000000       0.20197201      -0.22898746       0.60468006
H        0.00000000       0.00000000       0.00000000       0.57792282      -0.44603166      -0.64522839
H        0.00000000       0.00000000       0.00000000       0.35482740       0.55562115      -0.81583101
7
Lattice="529.1772105638412 0.0 0.0 0.0 529.1772105638412 0.0 0.0 0.0 529.1772105638412" Properties=species:S:1:pos:R:3:forces_component_raw:R:3 ipi_comment="Step:        7640  Bead:       0 forces_component_raw{ase}  cell{ase}" pbc="T T T"
O        0.00000000       0.00000000       0.00000000      -0.24727713       0.51633722       0.71656370
H        0.00000000       0.00000000       0.00000000      -0.32019544      -0.04415095      -0.62856132
H        0.00000000       0.00000000       0.00000000       0.35887304      -0.18083525       0.01854512
O        0.00000000       0.00000000       0.00000000      -0.77776796       0.07164773       1.90506196
H        0.00000000       0.00000000       0.00000000       0.14619762      -0.14720830      -0.36603499
H        0.00000000       0.00000000       0.00000000       0.85630650      -0.42332384      -1.75084126
H        0.00000000       0.00000000       0.00000000      -0.01613668       0.20753348       0.10526687
7
Lattice="529.1772105638412 0.0 0.0 0.0 529.1772105638412 0.0 0.0 0.0 529.1772105638412" Properties=species:S:1:pos:R:3:forces_component_raw:R:3 ipi_comment="Step:        7660  Bead:       0 forces_component_raw{ase}  cell{ase}" pbc="T T T"
O        0.00000000       0.00000000       0.00000000       1.94435478      -0.71192002       1.19727326
H        0.00000000       0.00000000       0.00000000      -0.87655705       0.31820086      -1.05903578
H        0.00000000       0.00000000       0.00000000      -0.59621096      -0.50618351       0.03773446
O        0.00000000       0.00000000       0.00000000      -1.14193368       2.88692690       0.27535641
H        0.00000000       0.00000000       0.00000000      -0.24174748       0.15513511      -0.04796332
H        0.00000000       0.00000000       0.00000000       0.85018563      -1.56487716      -1.12287617
H        0.00000000       0.00000000       0.00000000       0.06190890      -0.57728201       0.71951109
7
Lattice="529.1772105638412 0.0 0.0 0.0 529.1772105638412 0.0 0.0 0.0 529.1772105638412" Properties=species:S:1:pos:R:3:forces_component_raw:R:3 ipi_comment="Step:        7680  Bead:       0 forces_component_raw{ase}  cell{ase}" pbc="T T T"
O        0.00000000       0.00000000       0.00000000       1.45928097       0.20018977       0.58158159
H        0.00000000       0.00000000       0.00000000      -0.96446669       0.38036287      -0.66314805
H        0.00000000       0.00000000       0.00000000      -0.67319322      -0.96419871       0.17163789
O        0.00000000       0.00000000       0.00000000       0.00052732       0.42725122      -1.01896310
H        0.00000000       0.00000000       0.00000000       0.34726411       0.10684685       0.05189276
H        0.00000000       0.00000000       0.00000000       0.24223858      -0.21101084      -0.43400240
H        0.00000000       0.00000000       0.00000000      -0.41165119       0.06055882       1.31100118
7
Lattice="529.1772105638412 0.0 0.0 0.0 529.1772105638412 0.0 0.0 0.0 529.1772105638412" Properties=species:S:1:pos:R:3:forces_component_raw:R:3 ipi_comment="Step:        7700  Bead:       0 forces_component_raw{ase}  cell{ase}" pbc="T T T"
O        0.00000000       0.00000000       0.00000000       0.80085284       1.58155167      -0.30244702
H        0.00000000       0.00000000       0.00000000       0.02338475       0.01052644       0.05958636
H        0.00000000       0.00000000       0.00000000      -0.98721951      -0.98311573       0.25610048
O        0.00000000       0.00000000       0.00000000       0.55671418      -0.48189515      -1.41943860
H        0.00000000       0.00000000       0.00000000      -0.03598061      -0.11453888      -0.07592154
H        0.00000000       0.00000000       0.00000000      -0.07888353       0.47783578       0.90861696
H        0.00000000       0.00000000       0.00000000      -0.27886820      -0.49036414       0.57350320
7
Lattice="529.1772105638412 0.0 0.0 0.0 529.1772105638412 0.0 0.0 0.0 529.1772105638412" Properties=species:S:1:pos:R:3:forces_component_raw:R:3 ipi_comment="Step:        7720  Bead:       0 forces_component_raw{ase}  cell{ase}" pbc="T T T"
O        0.00000000       0.00000000       0.00000000       0.09513363       2.01499749      -1.03564668
H        0.00000000       0.00000000       0.00000000       0.83363867      -0.04162654       0.52402866
H        0.00000000       0.00000000       0.00000000      -1.17256809      -1.51762867       0.28562725
O        0.00000000       0.00000000       0.00000000       0.22020346      -2.39417148      -1.33348847
H        0.00000000       0.00000000       0.00000000      -0.03810411       0.33865041       0.09806405
H        0.00000000       0.00000000       0.00000000       0.17116633       1.39849222       1.22125984
H        0.00000000       0.00000000       0.00000000      -0.10947000       0.20128658       0.24015552
7
Lattice="529.1772105638412 0.0 0.0 0.0 529.1772105638412 0.0 0.0 0.0 529.1772105638412" Properties=species:S:1:pos:R:3:forces_component_raw:R:3 ipi_comment="Step:        7740  Bead:       0 forces_component_raw{ase}  cell{ase}" pbc="T T T"
O        0.00000000       0.00000000       0.00000000      -0.59957707       1.33309567      -0.72908330
H        0.00000000       0.00000000       0.00000000       1.03301692      -0.08329856       0.50295133
H        0.00000000       0.00000000       0.00000000      -0.57747692      -0.72736538       0.10496718
O        0.00000000       0.00000000       0.00000000      -0.21346074      -1.53395641       0.03942356
H        0.00000000       0.00000000       0.00000000       0.09540714       0.03159200      -0.44255421
H        0.00000000       0.00000000       0.00000000      -0.08265035       1.03994942       1.53081227
H        0.00000000       0.00000000       0.00000000       0.34474084      -0.06001675      -1.00651670
7
Lattice="529.1772105638412 0.0 0.0 0.0 529.1772105638412 0.0 0.0 0.0 529.1772105638412" Properties=species:S:1:pos:R:3:forces_component_raw:R:3 ipi_comment="Step:        7760  Bead:       0 forces_component_raw{ase}  cell{ase}" pbc="T T T"
O        0.00000000       0.00000000       0.00000000      -0.48022667      -0.18449453      -0.20648746
H        0.00000000       0.00000000       0.00000000       0.60675776      -0.26259244       0.24359278
H        0.00000000       0.00000000       0.00000000       0.10584539       0.44787368      -0.15800802
O        0.00000000       0.00000000       0.00000000      -0.90266359      -0.41044077       0.42171371
H        0.00000000       0.00000000       0.00000000       0.07460810      -0.82463873       0.81841934
H        0.00000000       0.00000000       0.00000000       0.10969295       0.22504914       0.19078559
H        0.00000000       0.00000000       0.00000000       0.48598591       1.00924373      -1.31001592
7
Lattice="529.1772105638412 0.0 0.0 0.0 529.1772105638412 0.0 0.0 0.0 529.1772105638412" Properties=species:S:1:pos:R:3:forces_component_raw:R:3 ipi_comment="Step:        7780  Bead:       0 forces_component_raw{ase}  cell{ase}" pbc="T T T"
O        0.00000000       0.00000000       0.00000000       0.01042759      -1.33331955       0.39001012
H        0.00000000       0.00000000       0.00000000      -0.06749213      -0.12007429       0.03805593
H        0.00000000       0.00000000       0.00000000       0.38015229       0.98970187      -0.21299572
O        0.00000000       0.00000000       0.00000000      -0.59834337      -0.13747847       2.31359435
H        0.00000000       0.00000000       0.00000000      -0.09864394       0.30602294      -0.47165531
H        0.00000000       0.00000000       0.00000000       0.00468917      -0.30244613      -0.29999328
H        0.00000000       0.00000000       0.00000000       0.36921045       0.59759355      -1.75701619
7
Lattice="529.1772105638412 0.0 0.0 0.0 529.1772105638412 0.0 0.0 0.0 529.1772105638412" Properties=species:S:1:pos:R:3:forces_component_raw:R:3 ipi_comment="Step:        7800  Bead:       0 forces_component_raw{ase}  cell{ase}" pbc="T T T"
O        0.00000000       0.00000000       0.00000000      -0.11257485      -0.68193925       0.28768408
H        0.00000000       0.00000000       0.00000000      -0.44206047      -0.15992576       0.11277188
H        0.00000000       0.00000000       0.00000000       0.65717358       0.44307265      -0.09460291
O        0.00000000       0.00000000       0.00000000      -0.52947474       0.92357224       1.12728381
H        0.00000000       0.00000000       0.00000000       0.12106541      -0.03235939      -0.62996334
H        0.00000000       0.00000000       0.00000000       0.22801185      -0.33589467      -0.31348014
H        0.00000000       0.00000000       0.00000000       0.07785932      -0.15652575      -0.48969334
7
Lattice="529.1772105638412 0.0 0.0 0.0 529.1772105638412 0.0 0.0 0.0 529.1772105638412" Properties=species:S:1:pos:R:3:forces_component_raw:R:3 ipi_comment="Step:        7820  Bead:       0 forces_component_raw{ase}  cell{ase}" pbc="T T T"
O        0.00000000       0.00000000       0.00000000       1.20178807      -0.50454831       0.09784415
H        0.00000000       0.00000000       0.00000000      -0.71844947       0.49478799      -0.21426448
H        0.00000000       0.00000000       0.00000000      -0.32729358       0.10243681      -0.00597525
O        0.00000000       0.00000000       0.00000000       0.21557337      -0.02684504      -1.47526002
H        0.00000000       0.00000000       0.00000000      -0.40748799      -0.16265941       0.73176605
H        0.00000000       0.00000000       0.00000000       0.07105765      -0.32626951       0.05447355
H        0.00000000       0.00000000       0.00000000      -0.03518811       0.42309737       0.81141603
7
Lattice="529.1772105638412 0.0 0.0 0.0 529.1772105638412 0.0 0.0 0.0 529.1772105638412" Properties=species:S:1:pos:R:3:forces_component_raw:R:3 ipi_comment="Step:        7840  Bead:       0 forces_component_raw{ase}  cell{ase}" pbc="T T T"
O        0.00000000       0.00000000       0.00000000       0.76979691       0.60803127      -0.32554534
H        0.00000000       0.00000000       0.00000000      -1.21247912       0.35331559       0.08409254
H        0.00000000       0.00000000       0.00000000      -0.03743047      -0.61483544       0.42387742
O        0.00000000       0.00000000       0.00000000      -1.36400807      -1.03161168      -0.49295968
H        0.00000000       0.00000000       0.00000000       0.82470697      -0.16298148      -0.87695843
H        0.00000000       0.00000000       0.00000000       0.09848389       0.50496245       0.10179704
H        0.00000000       0.00000000       0.00000000       0.92092973       0.34311923       1.08569670
7
Lattice="529.1772105638412 0.0 0.0 0.0 529.1772105638412 0.0 0.0 0.0 529.1772105638412" Properties=species:S:1:pos:R:3:forces_component_raw:R:3 ipi_comment="Step:        7860  Bead:       0 forces_component_raw{ase}  cell{ase}" pbc="T T T"
O        0.00000000       0.00000000       0.00000000       1.67298675       0.66611838      -0.46321803
H        0.00000000       0.00000000       0.00000000      -0.73844350       0.12978995      -0.25599733
H        0.00000000       0.00000000       0.00000000      -0.60902310       0.01255620       0.33846432
O        0.00000000       0.00000000       0.00000000       1.74968648      -2.26141644      -1.87707043
H        0.00000000       0.00000000       0.00000000      -1.12680054       0.18167783       0.43080461
H        0.00000000       0.00000000       0.00000000      -1.04340768       0.37855303       0.69696546
H        0.00000000       0.00000000       0.00000000       0.09500161       0.89272088       1.13005138
7
Lattice="529.1772105638412 0.0 0.0 0.0 529.1772105638412 0.0 0.0 0.0 529.1772105638412" Properties=species:S:1:pos:R:3:forces_component_raw:R:3 ipi_comment="Step:        7880  Bead:       0 forces_component_raw{ase}  cell{ase}" pbc="T T T"
O        0.00000000       0.00000000       0.00000000      -0.77288699       1.00359500      -0.60667312
H        0.00000000       0.00000000       0.00000000      -0.09783655      -0.01093887       0.23116383
H        0.00000000       0.00000000       0.00000000       0.18392432      -0.38969934       0.41384429
O        0.00000000       0.00000000       0.00000000      -0.16256276      -1.47287298      -1.21143222
H        0.00000000       0.00000000       0.00000000       0.82231152       0.02680675      -0.69643712
H        0.00000000       0.00000000       0.00000000      -0.70361567       0.81684828       0.64115060
H        0.00000000       0.00000000       0.00000000       0.73066604       0.02626106       1.22838354
7
Lattice="529.1772105638412 0.0 0.0 0.0 529.1772105638412 0.0 0.0 0.0 529.1772105638412" Properties=species:S:1:pos:R:3:forces_component_raw:R:3 ipi_comment="Step:        7900  Bead:       0 forces_component_raw{ase}  cell{ase}" pbc="T T T"
O        0.00000000       0.00000000       0.00000000      -0.37211615      -1.01318956      -0.02444944
H        0.00000000       0.00000000       0.00000000       1.55329848       0.08384754       0.11434682
H        0.00000000       0.00000000       0.00000000      -0.47473049       0.23703712      -0.26943672
O        0.00000000       0.00000000       0.00000000       0.21991463      -0.56714344      -1.70138288
H        0.00000000       0.00000000       0.00000000      -0.77994341       0.70953930       0.68823743
H        0.00000000       0.00000000       0.00000000      -0.38323408       0.44887084       0.49614781
H        0.00000000       0.00000000       0.00000000       0.23681095       0.10103835       0.69653702
7
Lattice="529.1772105638412 0.0 0.0 0.0 529.1772105638412 0.0 0.0 0.0 529.1772105638412" Properties=species:S:1:pos:R:3:forces_component_raw:R:3 ipi_comment="Step:        7920  Bead:       0 forces_component_raw{ase}  cell{ase}" pbc="T T T"
O        0.00000000       0.00000000       0.00000000      -2.53832055       0.42120266      -0.13798358
H        0.00000000       0.00000000       0.00000000       1.92209053      -0.03850550       0.76070959
H        0.00000000       0.00000000       0.00000000       0.39708787      -0.56604314      -0.05206102
O        0.00000000       0.00000000       0.00000000      -0.45186520       1.71994543       1.14900863
H        0.00000000       0.00000000       0.00000000       0.53262681      -0.74432624      -0.75406897
H        0.00000000       0.00000000       0.00000000       0.09569458      -0.55493057      -0.94480270
H        0.00000000       0.00000000       0.00000000       0.04268596      -0.23734275      -0.02080190
7
Lattice="529.1772105638412 0.0 0.0 0.0 529.1772105638412 0.0 0.0 0.0 529.1772105638412" Properties=species:S:1:pos:R:3:forces_component_raw:R:3 ipi_comment="Step:        7940  Bead:       0 forces_component_raw{ase}  cell{ase}" pbc="T T T"
O        0.00000000       0.00000000       0.00000000      -0.29462689      -0.56188774      -0.38068706
H        0.00000000       0.00000000       0.00000000       0.83013046       0.07366923       0.08651663
H        0.00000000       0.00000000       0.00000000      -0.30818498       0.11476353      -0.07886553
O        0.00000000       0.00000000       0.00000000       0.22977501       1.05807197       1.92939997
H        0.00000000       0.00000000       0.00000000      -0.31651202       0.59900695       0.82312823
H        0.00000000       0.00000000       0.00000000       0.02171667      -1.70695866      -1.04282964
H        0.00000000       0.00000000       0.00000000      -0.16229835       0.42333493      -1.33666253
7
Lattice="529.1772105638412 0.0 0.0 0.0 529.1772105638412 0.0 0.0 0.0 529.1772105638412" Properties=species:S:1:pos:R:3:forces_component_raw:R:3 ipi_comment="Step:        7960  Bead:       0 forces_component_raw{ase}  cell{ase}" pbc="T T T"
O        0.00000000       0.00000000       0.00000000       0.71764982       1.10643423      -0.52321524
H        0.00000000       0.00000000       0.00000000      -0.94023514       0.05434321      -0.02408504
H        0.00000000       0.00000000       0.00000000      -0.18576306      -0.64625949       0.60077858
O        0.00000000       0.00000000       0.00000000       0.70845109       1.25750172       3.49756146
H        0.00000000       0.00000000       0.00000000       0.22096779      -0.40590453      -0.82433957
H        0.00000000       0.00000000       0.00000000      -0.73810339      -1.26188946      -0.65997625
H        0.00000000       0.00000000       0.00000000       0.21703291      -0.10422573      -2.06672383
7
Lattice="529.1772105638412 0.0 0.0 0.0 529.1772105638412 0.0 0.0 0.0 529.1772105638412" Properties=species:S:1:pos:R:3:forces_component_raw:R:3 ipi_comment="Step:        7980  Bead:       0 forces_component_raw{ase}  cell{ase}" pbc="T T T"
O        0.00000000       0.00000000       0.00000000       2.26595903       0.21857846       0.57320702
H        0.00000000       0.00000000       0.00000000      -1.40664554       0.66349107      -1.03489375
H        0.00000000       0.00000000       0.00000000      -1.04452467      -0.51571852       0.11687315
O        0.00000000       0.00000000       0.00000000       0.62547672      -0.34656680       0.43760550
H        0.00000000       0.00000000       0.00000000      -0.00655955       0.56613499       0.54099912
H        0.00000000       0.00000000       0.00000000      -0.39487702      -1.25907946      -0.61844647
H        0.00000000       0.00000000       0.00000000      -0.03882907       0.67316008      -0.01534462
7
Lattice="529.1772105638412 0.0 0.0 0.0 529.1772105638412 0.0 0.0 0.0 529.1772105638412" Properties=species:S:1:pos:R:3:forces_component_raw:R:3 ipi_comment="Step:        8000  Bead:       0 forces_component_raw{ase}  cell{ase}" pbc="T T T"
O        0.00000000       0.00000000       0.00000000       1.44935203       1.54424465       0.25534320
H        0.00000000       0.00000000       0.00000000      -1.52938867      -0.99998349      -0.47684938
H        0.00000000       0.00000000       0.00000000       0.28282154       0.15414837       0.33102465
O        0.00000000       0.00000000       0.00000000       0.47068179       0.68534202      -0.42491809
H        0.00000000       0.00000000       0.00000000      -0.34333655      -0.73031354      -0.72549987
H        0.00000000       0.00000000       0.00000000      -0.27906653      -0.29320690       0.13211915
H        0.00000000       0.00000000       0.00000000      -0.05106373      -0.36023095       0.90878028
7
Lattice="529.1772105638412 0.0 0.0 0.0 529.1772105638412 0.0 0.0 0.0 529.1772105638412" Properties=species:S:1:pos:R:3:forces_component_raw:R:3 ipi_comment="Step:        8020  Bead:       0 forces_component_raw{ase}  cell{ase}" pbc="T T T"
O        0.00000000       0.00000000       0.00000000       0.55196661      -1.86385441       1.16735983
H        0.00000000       0.00000000       0.00000000      -0.96387786       0.69100624      -0.99208570
H        0.00000000       0.00000000       0.00000000      -0.01870672       0.66676134      -0.36246583
O        0.00000000       0.00000000       0.00000000      -0.76892030      -1.53189981      -1.70237923
H        0.00000000       0.00000000       0.00000000       0.70122713       1.08378232       0.11021224
H        0.00000000       0.00000000       0.00000000       0.46492797       0.81272388       0.30438712
H        0.00000000       0.00000000       0.00000000       0.03338321       0.14148064       1.47497166
7
Lattice="529.1772105638412 0.0 0.0 0.0 529.1772105638412 0.0 0.0 0.0 529.1772105638412" Properties=species:S:1:pos:R:3:forces_component_raw:R:3 ipi_comment="Step:        8040  Bead:       0 forces_component_raw{ase}  cell{ase}" pbc="T T T"
O        0.00000000       0.00000000       0.00000000      -0.13961548      -0.11051392      -0.33122492
H        0.00000000       0.00000000       0.00000000      -0.38950092      -0.90714038       0.02856153
H        0.00000000       0.00000000       0.00000000       0.99177027       1.19329942       0.52593231
O        0.00000000       0.00000000       0.00000000      -0.21223456      -0.13591224      -0.79782456
H        0.00000000       0.00000000       0.00000000      -0.61927009      -0.85385007      -0.29298329
H        0.00000000       0.00000000       0.00000000       0.27516091       1.12963414       0.34910372
H        0.00000000       0.00000000       0.00000000       0.09368974      -0.31551707       0.51843512
7
Lattice="529.1772105638412 0.0 0.0 0.0 529.1772105638412 0.0 0.0 0.0 529.1772105638412" Properties=species:S:1:pos:R:3:forces_component_raw:R:3 ipi_comment="Step:        8060  Bead:       0 forces_component_raw{ase}  cell{ase}" pbc="T T T"
O        0.00000000       0.00000000       0.00000000      -1.57532359      -2.40419221      -0.22897202
H        0.00000000       0.00000000       0.00000000       0.66743899       0.69161117       0.78140372
H        0.00000000       0.00000000       0.00000000       0.99395025       1.07579708      -0.69583702
O        0.00000000       0.00000000       0.00000000      -0.63228846      -0.47442588      -0.43126261
H        0.00000000       0.00000000       0.00000000       0.28278810       0.22034352       0.94778133
H        0.00000000       0.00000000       0.00000000       0.30810008       0.49947029       0.18628448
H        0.00000000       0.00000000       0.00000000      -0.04466516       0.39139626      -0.55939776
7
Lattice="529.1772105638412 0.0 0.0 0.0 529.1772105638412 0.0 0.0 0.0 529.1772105638412" Properties=species:S:1:pos:R:3:forces_component_raw:R:3 ipi_comment="Step:        8080  Bead:       0 forces_component_raw{ase}  cell{ase}" pbc="T T T"
O        0.00000000       0.00000000       0.00000000      -0.55751240      -0.39081323      -0.61305452
H        0.00000000       0.00000000       0.00000000       0.20766175      -0.94292659       1.03518355
H        0.00000000       0.00000000       0.00000000       0.75628746       0.69788426       0.71354711
O        0.00000000       0.00000000       0.00000000      -0.41549534       0.76985705       1.55708683
H        0.00000000       0.00000000       0.00000000      -0.09654734      -0.02042861      -1.23595083
H        0.00000000       0.00000000       0.00000000      -0.09387248       0.03638136       0.27594155
H        0.00000000       0.00000000       0.00000000       0.19947839      -0.14995459      -1.73275376
7
Lattice="529.1772105638412 0.0 0.0 0.0 529.1772105638412 0.0 0.0 0.0 529.1772105638412" Properties=species:S:1:pos:R:3:forces_component_raw:R:3 ipi_comment="Step:        8100  Bead:       0 forces_component_raw{ase}  cell{ase}" pbc="T T T"
O        0.00000000       0.00000000       0.00000000      -0.15706973      -0.41920394      -0.65813255
H        0.00000000       0.00000000       0.00000000       0.62196136       0.49153954       0.95694816
H        0.00000000       0.00000000       0.00000000      -0.38154271      -0.21649462      -0.55721355
O        0.00000000       0.00000000       0.00000000      -0.56067836       0.07491872       1.40812970
H        0.00000000       0.00000000       0.00000000      -0.07474237       0.07029849       1.12951947
H        0.00000000       0.00000000       0.00000000       0.19323088      -0.76982463      -0.32874644
H        0.00000000       0.00000000       0.00000000       0.35884076       0.76876658      -1.95050490
7
Lattice="529.1772105638412 0.0 0.0 0.0 529.1772105638412 0.0 0.0 0.0 529.1772105638412" Properties=species:S:1:pos:R:3:forces_component_raw:R:3 ipi_comment="Step:        8120  Bead:       0 forces_component_raw{ase}  cell{ase}" pbc="T T T"
O        0.00000000       0.00000000       0.00000000       0.27700576       2.08692480      -0.24647027
H        0.00000000       0.00000000       0.00000000       0.10954857      -0.22907224       0.43868557
H        0.00000000       0.00000000       0.00000000      -0.79630405      -1.30828286      -0.14648962
O        0.00000000       0.00000000       0.00000000      -0.78675491      -0.12852532       3.03454781
H        0.00000000       0.00000000       0.00000000       0.41777119      -0.22789672      -0.90494883
H        0.00000000       0.00000000       0.00000000      -0.10031807      -0.51762414      -0.84090531
H        0.00000000       0.00000000       0.00000000       0.87905157       0.32447657      -1.33441937
7
Lattice="529.1772105638412 0.0 0.0 0.0 529.1772105638412 0.0 0.0 0.0 529.1772105638412" Properties=species:S:1:pos:R:3:forces_component_raw:R:3 ipi_comment="Step:        8140  Bead:       0 forces_component_raw{ase}  cell{ase}" pbc="T T T"
O        0.00000000       0.00000000       0.00000000       0.24132645       0.82905972      -0.25785345
H        0.00000000       0.00000000       0.00000000      -0.11805370       0.36326483      -0.07060015
H        0.00000000       0.00000000       0.00000000      -0.50128341      -0.75940740      -0.24038580
O        0.00000000       0.00000000       0.00000000       0.07974896      -1.04820037       0.77822614
H        0.00000000       0.00000000       0.00000000      -0.09673998       0.45423552       0.51959920
H        0.00000000       0.00000000       0.00000000      -0.11307693      -0.21921930       0.12640417
H        0.00000000       0.00000000       0.00000000       0.50807864       0.38026700      -0.85539013
7
Lattice="529.1772105638412 0.0 0.0 0.0 529.1772105638412 0.0 0.0 0.0 529.1772105638412" Properties=species:S:1:pos:R:3:forces_component_raw:R:3 ipi_comment="Step:        8160  Bead:       0 forces_component_raw{ase}  cell{ase}" pbc="T T T"
O        0.00000000       0.00000000       0.00000000       0.44611737       1.26394010       0.27742481
H        0.00000000       0.00000000       0.00000000      -0.36290088      -0.38538301      -0.32222521
H        0.00000000       0.00000000       0.00000000      -0.11189163      -0.30952627       0.12694123
O        0.00000000       0.00000000       0.00000000       0.14217097      -0.30255115       0.27806008
H        0.00000000       0.00000000       0.00000000       0.07885132      -0.43431288      -0.53163642
H        0.00000000       0.00000000       0.00000000      -0.13036543       0.31371749       0.01793191
H        0.00000000       0.00000000       0.00000000      -0.06198159      -0.14588438       0.15350354
7
Lattice="529.1772105638412 0.0 0.0 0.0 529.1772105638412 0.0 0.0 0.0 529.1772105638412" Properties=species:S:1:pos:R:3:forces_component_raw:R:3 ipi_comment="Step:        8180  Bead:       0 forces_component_raw{ase}  cell{ase}" pbc="T T T"
O        0.00000000       0.00000000       0.00000000       0.84201443      -1.09611225       1.07347858
H        0.00000000       0.00000000       0.00000000      -0.69963306       0.44100630      -0.91656661
H        0.00000000       0.00000000       0.00000000      -0.04918851       0.57359815      -0.30238086
O        0.00000000       0.00000000       0.00000000       0.50967372      -0.32526708      -0.77110696
H        0.00000000       0.00000000       0.00000000      -0.12608266       0.10082671       0.42334583
H        0.00000000       0.00000000       0.00000000      -0.56938821       0.32696030       0.55014914
H        0.00000000       0.00000000       0.00000000       0.09260431      -0.02101231      -0.05691913
7
Lattice="529.1772105638412 0.0 0.0 0.0 529.1772105638412 0.0 0.0 0.0 529.1772105638412" Properties=species:S:1:pos:R:3:forces_component_raw:R:3 ipi_comment="Step:        8200  Bead:       0 forces_component_raw{ase}  cell{ase}" pbc="T T T"
O        0.00000000       0.00000000       0.00000000       0.55231053      -0.25341958       0.81548518
H        0.00000000       0.00000000       0.00000000      -1.45928979      -0.78073442      -0.88256484
H        0.00000000       0.00000000       0.00000000       1.02197063       0.59671056       0.41976255
O        0.00000000       0.00000000       0.00000000       0.37297016       0.45449561      -0.39554820
H        0.00000000       0.00000000       0.00000000       0.20837836       0.14421549      -0.33740142
H        0.00000000       0.00000000       0.00000000      -0.64612454       0.26611152       0.19165871
H        0.00000000       0.00000000       0.00000000      -0.05021548      -0.42737901       0.18860802
7
Lattice="529.1772105638412 0.0 0.0 0.0 529.1772105638412 0.0 0.0 0.0 529.1772105638412" Properties=species:S:1:pos:R:3:forces_component_raw:R:3 ipi_comment="Step:        8220  Bead:       0 forces_component_raw{ase}  cell{ase}" pbc="T T T"
O        0.00000000       0.00000000       0.00000000      -0.04137164      -0.88885898       2.60583974
H        0.00000000       0.00000000       0.00000000      -0.63589686       0.48416108      -1.55876685
H        0.00000000       0.00000000       0.00000000       0.54598659       0.76747376      -1.05853224
O        0.00000000       0.00000000       0.00000000       2.42391015      -0.23752821       0.10207751
H        0.00000000       0.00000000       0.00000000      -0.12073932      -0.23056477      -0.20285925
H        0.00000000       0.00000000       0.00000000      -1.27553273       0.57705301      -0.12867101
H        0.00000000       0.00000000       0.00000000      -0.89635623      -0.47173604       0.24091213
7
Lattice="529.1772105638412 0.0 0.0 0.0 529.1772105638412 0.0 0.0 0.0 529.1772105638412" Properties=species:S:1:pos:R:3:forces_component_raw:R:3 ipi_comment="Step:        8240  Bead:       0 forces_component_raw{ase}  cell{ase}" pbc="T T T"
O        0.00000000       0.00000000       0.00000000      -1.20879519       0.53826618      -0.21701801
H        0.00000000       0.00000000       0.00000000      -1.04817844      -0.32969409      -0.13971853
H        0.00000000       0.00000000       0.00000000       1.82398737       0.45157927      -0.07081555
O        0.00000000       0.00000000       0.00000000       1.32390404       0.07029319       0.21575160
H        0.00000000       0.00000000       0.00000000       0.17969725      -0.26010114       0.31187585
H        0.00000000       0.00000000       0.00000000      -0.62422264       0.06039258      -0.21434170
H        0.00000000       0.00000000       0.00000000      -0.44639251      -0.53073597       0.11426634
7
Lattice="529.1772105638412 0.0 0.0 0.0 529.1772105638412 0.0 0.0 0.0 529.1772105638412" Properties=species:S:1:pos:R:3:forces_component_raw:R:3 ipi_comment="Step:        8260  Bead:       0 forces_component_raw{ase}  cell{ase}" pbc="T T T"
O        0.00000000       0.00000000       0.00000000       0.04006875      -1.61097813       1.35570705
H        0.00000000       0.00000000       0.00000000      -0.04166365       0.15139362      -0.39255095
H        0.00000000       0.00000000       0.00000000       0.49301651       0.59462655      -0.91871363
O        0.00000000       0.00000000       0.00000000      -0.23764810      -0.54436118       0.06691545
H        0.00000000       0.00000000       0.00000000      -0.54020089       1.08648420       0.10622801
H        0.00000000       0.00000000       0.00000000      -0.00808465       0.05107242      -0.08428425
H        0.00000000       0.00000000       0.00000000       0.29451197       0.27176252      -0.13330171
7
Lattice="529.1772105638412 0.0 0.0 0.0 529.1772105638412 0.0 0.0 0.0 529.1772105638412" Properties=species:S:1:pos:R:3:forces_component_raw:R:3 ipi_comment="Step:        8280  Bead:       0 forces_component_raw{ase}  cell{ase}" pbc="T T T"
O        0.00000000       0.00000000       0.00000000      -1.11518622       0.89750493      -0.33925468
H        0.00000000       0.00000000       0.00000000       0.10033172      -0.21892569       0.40790847
H        0.00000000       0.00000000       0.00000000       0.69660330      -0.22594965       0.06885638
O        0.00000000       0.00000000       0.00000000      -2.64597631      -1.48904181       0.04699248
H        0.00000000       0.00000000       0.00000000       0.67989051      -0.48070467      -0.19004493
H        0.00000000       0.00000000       0.00000000       0.97133273       0.11678740       0.49773055
H        0.00000000       0.00000000       0.00000000       1.31300414       1.40032959      -0.49218822
7
Lattice="529.1772105638412 0.0 0.0 0.0 529.1772105638412 0.0 0.0 0.0 529.1772105638412" Properties=species:S:1:pos:R:3:forces_component_raw:R:3 ipi_comment="Step:        8300  Bead:       0 forces_component_raw{ase}  cell{ase}" pbc="T T T"
O        0.00000000       0.00000000       0.00000000       0.70370901       0.20041233      -0.17468131
H        0.00000000       0.00000000       0.00000000       1.20084954      -0.01976506       0.00126354
H        0.00000000       0.00000000       0.00000000      -1.39852071      -0.23082358       0.43549380
O        0.00000000       0.00000000       0.00000000      -1.99161864      -1.52738929       0.12946999
H        0.00000000       0.00000000       0.00000000      -0.84170509      -0.15118113      -0.48407242
H        0.00000000       0.00000000       0.00000000       1.37235022       0.35115302       0.90379834
H        0.00000000       0.00000000       0.00000000       0.95493591       1.37759388      -0.81127215
7
Lattice="529.1772105638412 0.0 0.0 0.0 529.1772105638412 0.0 0.0 0.0 529.1772105638412" Properties=species:S:1:pos:R:3:forces_component_raw:R:3 ipi_comment="Step:        8320  Bead:       0 forces_component_raw{ase}  cell{ase}" pbc="T T T"
O        0.00000000       0.00000000       0.00000000      -0.34777525       1.05453599      -2.11569119
H        0.00000000       0.00000000       0.00000000       1.44839943      -0.49856198       0.70623994
H        0.00000000       0.00000000       0.00000000      -1.05248595      -1.04474533       1.40705002
O        0.00000000       0.00000000       0.00000000      -1.40358568      -0.81461781      -2.18204093
H        0.00000000       0.00000000       0.00000000       0.49498716       0.34594357       0.75689292
H        0.00000000       0.00000000       0.00000000       0.26944453       0.65715480       1.20474077
H        0.00000000       0.00000000       0.00000000       0.59101582       0.30029094       0.22280847
7
Lattice="529.1772105638412 0.0 0.0 0.0 529.1772105638412 0.0 0.0 0.0 529.1772105638412" Properties=species:S:1:pos:R:3:forces_component_raw:R:3 ipi_comment="Step:        8340  Bead:       0 forces_component_raw{ase}  cell{ase}" pbc="T T T"
O        0.00000000       0.00000000       0.00000000       0.77059335       0.91427338      -1.13531626
H        0.00000000       0.00000000       0.00000000       1.07929671      -0.10499415      -0.08867283
H        0.00000000       0.00000000       0.00000000      -1.72393728      -0.98587418       1.47717417
O        0.00000000       0.00000000       0.00000000       0.63506717      -0.05973065       0.38037121
H        0.00000000       0.00000000       0.00000000      -0.58782971      -0.11766876      -0.58013392
H        0.00000000       0.00000000       0.00000000       0.57263684       0.27016699       0.49270541
H        0.00000000       0.00000000       0.00000000      -0.74582708       0.08382747      -0.54612810
7
Lattice="529.1772105638412 0.0 0.0 0.0 529.1772105638412 0.0 0.0 0.0 529.1772105638412" Properties=species:S:1:pos:R:3:forces_component_raw:R:3 ipi_comment="Step:        8360  Bead:       0 forces_component_raw{ase}  cell{ase}" pbc="T T T"
O        0.00000000       0.00000000       0.00000000      -0.55055332       1.55027652      -0.87566292
H        0.00000000       0.00000000       0.00000000       0.53295976      -0.55828619       0.09340774
H        0.00000000       0.00000000       0.00000000      -0.37914026      -0.85534346       0.69774503
O        0.00000000       0.00000000       0.00000000       0.36233962       1.02090490      -0.49520588
H        0.00000000       0.00000000       0.00000000       0.99561483      -0.00451483       0.33255357
H        0.00000000       0.00000000       0.00000000      -0.24815658      -0.04841851      -0.15346617
H        0.00000000       0.00000000       0.00000000      -0.71306408      -1.10461843       0.40062878
7
Lattice="529.1772105638412 0.0 0.0 0.0 529.1772105638412 0.0 0.0 0.0 529.1772105638412" Properties=species:S:1:pos:R:3:forces_component_raw:R:3 ipi_comment="Step:        8380  Bead:       0 forces_component_raw{ase}  cell{ase}" pbc="T T T"
O        0.00000000       0.00000000       0.00000000       0.24213713      -0.77645242       0.24387214
H        0.00000000       0.00000000       0.00000000       0.44713897      -0.00887406      -0.17882115
H        0.00000000       0.00000000       0.00000000      -0.15432693       1.04246032      -0.50249243
O        0.00000000       0.00000000       0.00000000       1.02685762      -0.13833159       1.70804930
H        0.00000000       0.00000000       0.00000000      -0.93534827       0.41746932       0.21419019
H        0.00000000       0.00000000       0.00000000       0.03834802       0.23799790      -0.76486862
H        0.00000000       0.00000000       0.00000000      -0.66480643      -0.77426958      -0.71992934
7
Lattice="529.1772105638412 0.0 0.0 0.0 529.1772105638412 0.0 0.0 0.0 529.1772105638412" Properties=species:S:1:pos:R:3:forces_component_raw:R:3 ipi_comment="Step:        8400  Bead:       0 forces_component_raw{ase}  cell{ase}" pbc="T T T"
O        0.00000000       0.00000000       0.00000000      -1.50084377       0.05211155       0.36500847
H        0.00000000       0.00000000       0.00000000      -0.37293315      -0.09469779       0.13876469
H        0.00000000       0.00000000       0.00000000       1.42361570       0.50631720      -0.73381645
O        0.00000000       0.00000000       0.00000000       0.03694528       0.34488964       1.85730899
H        0.00000000       0.00000000       0.00000000       0.62477231      -0.45270485      -0.11823173
H        0.00000000       0.00000000       0.00000000      -0.09240344       0.01067325      -1.12261391
H        0.00000000       0.00000000       0.00000000      -0.11915289      -0.36658910      -0.38641992
7
Lattice="529.1772105638412 0.0 0.0 0.0 529.1772105638412 0.0 0.0 0.0 529.1772105638412" Properties=species:S:1:pos:R:3:forces_component_raw:R:3 ipi_comment="Step:        8420  Bead:       0 forces_component_raw{ase}  cell{ase}" pbc="T T T"
O        0.00000000       0.00000000       0.00000000      -0.54202116      -2.17939234       0.87129259
H        0.00000000       0.00000000       0.00000000      -0.12276512       0.26754594       0.15623832
H        0.00000000       0.00000000       0.00000000       1.18069566       1.10876227      -0.77336657
O        0.00000000       0.00000000       0.00000000       0.00199489      -0.74518150      -0.65366256
H        0.00000000       0.00000000       0.00000000      -0.54351866       0.81545788       0.11501455
H        0.00000000       0.00000000       0.00000000       0.00396315       0.08635919      -0.23196691
H        0.00000000       0.00000000       0.00000000       0.02165122       0.64644861       0.51645064
7
Lattice="529.1772105638412 0.0 0.0 0.0 529.1772105638412 0.0 0.0 0.0 529.1772105638412" Properties=species:S:1:pos:R:3:forces_component_raw:R:3 ipi_comment="Step:        8440  Bead:       0 forces_component_raw{ase}  cell{ase}" pbc="T T T"
O        0.00000000       0.00000000       0.00000000      -1.28772831      -0.49704406       0.27924532
H        0.00000000       0.00000000       0.00000000      -0.44627079       0.41996965       0.10651296
H        0.00000000       0.00000000       0.00000000       1.61072398       0.11284710      -0.15122385
O        0.00000000       0.00000000       0.00000000       0.27899966      -1.18397725      -1.03255809
H        0.00000000       0.00000000       0.00000000       0.22386846      -0.69178474      -0.09272449
H        0.00000000       0.00000000       0.00000000      -0.00350390       0.16495495       0.20819742
H        0.00000000       0.00000000       0.00000000      -0.37608901       1.67503429       0.68255067
7
Lattice="529.1772105638412 0.0 0.0 0.0 529.1772105638412 0.0 0.0 0.0 529.1772105638412" Properties=species:S:1:pos:R:3:forces_component_raw:R:3 ipi_comment="Step:        8460  Bead:       0 forces_component_raw{ase}  cell{ase}" pbc="T T T"
O        0.00000000       0.00000000       0.00000000      -0.31814075      -0.80117357      -0.07225782
H        0.00000000       0.00000000       0.00000000       0.17224672       0.59025586       0.01231642
H        0.00000000       0.00000000       0.00000000       0.08714527       0.23702729       0.20727359
O        0.00000000       0.00000000       0.00000000       0.36927143      -0.54071581      -0.55759651
H        0.00000000       0.00000000       0.00000000      -0.18421003      -0.05525472       0.08964420
H        0.00000000       0.00000000       0.00000000       0.01641190       0.13887082      -0.09883809
H        0.00000000       0.00000000       0.00000000      -0.14272460       0.43099028       0.41945797
7
Lattice="529.1772105638412 0.0 0.0 0.0 529.1772105638412 0.0 0.0 0.0 529.1772105638412" Properties=species:S:1:pos:R:3:forces_component_raw:R:3 ipi_comment="Step:        8480  Bead:       0 forces_component_raw{ase}  cell{ase}" pbc="T T T"
O        0.00000000       0.00000000       0.00000000       1.34400249       0.51066434       0.16452992
H        0.00000000       0.00000000       0.00000000      -0.46259189      -0.00901172       0.11887493
H        0.00000000       0.00000000       0.00000000      -0.94303322      -1.00275350      -0.01400447
O        0.00000000       0.00000000       0.00000000      -0.12479942       0.43448544       0.01999989
H        0.00000000       0.00000000       0.00000000       0.00183024       0.49851656      -0.21419448
H        0.00000000       0.00000000       0.00000000       0.02968416      -0.02004729      -0.05890816
H        0.00000000       0.00000000       0.00000000       0.15490764      -0.41185385      -0.01629755
7
Lattice="529.1772105638412 0.0 0.0 0.0 529.1772105638412 0.0 0.0 0.0 529.1772105638412" Properties=species:S:1:pos:R:3:forces_component_raw:R:3 ipi_comment="Step:        8500  Bead:       0 forces_component_raw{ase}  cell{ase}" pbc="T T T"
O        0.00000000       0.00000000       0.00000000       1.66947365       1.07997096      -0.14074659
H        0.00000000       0.00000000       0.00000000       0.18281198       0.01522261       0.17571959
H        0.00000000       0.00000000       0.00000000      -1.56013620      -0.96819592      -0.02915339
O        0.00000000       0.00000000       0.00000000      -0.63357330       0.58163679       0.58524072
H        0.00000000       0.00000000       0.00000000      -0.17311642      -0.41944558      -0.11848080
H        0.00000000       0.00000000       0.00000000      -0.04523635       0.09798677       0.12609661
H        0.00000000       0.00000000       0.00000000       0.55977643      -0.38717580      -0.59867621
7
Lattice="529.1772105638412 0.0 0.0 0.0 529.1772105638412 0.0 0.0 0.0 529.1772105638412" Properties=species:S:1:pos:R:3:forces_component_raw:R:3 ipi_comment="Step:        8520  Bead:       0 forces_component_raw{ase}  cell{ase}" pbc="T T T"
O        0.00000000       0.00000000       0.00000000       0.53901398       0.97357983      -0.41599119
H        0.00000000       0.00000000       0.00000000       0.09839237      -0.03741610       0.02136724
H        0.00000000       0.00000000       0.00000000      -0.83985961      -0.79370481      -0.01909889
O        0.00000000       0.00000000       0.00000000      -0.40626642       0.40158972       0.65198851
H        0.00000000       0.00000000       0.00000000       0.42116374       0.37509835       0.32290942
H        0.00000000       0.00000000       0.00000000      -0.13473195      -0.19785146      -0.03320611
H        0.00000000       0.00000000       0.00000000       0.32228792      -0.72129542      -0.52796906
7
Lattice="529.1772105638412 0.0 0.0 0.0 529.1772105638412 0.0 0.0 0.0 529.1772105638412" Properties=species:S:1:pos:R:3:forces_component_raw:R:3 ipi_comment="Step:        8540  Bead:       0 forces_component_raw{ase}  cell{ase}" pbc="T T T"
O        0.00000000       0.00000000       0.00000000      -0.13609110       0.80505902       0.12498701
H        0.00000000       0.00000000       0.00000000       0.75989556      -0.46852124       0.16451088
H        0.00000000       0.00000000       0.00000000      -0.35166767      -0.19855318      -0.20218371
O        0.00000000       0.00000000       0.00000000       0.53157938      -0.52233988       0.95723742
H        0.00000000       0.00000000       0.00000000      -0.64591110      -0.01618153      -0.50321347
H        0.00000000       0.00000000       0.00000000      -0.12127978       0.27789855      -0.30416074
H        0.00000000       0.00000000       0.00000000      -0.03652531       0.12263820      -0.23717737
7
Lattice="529.1772105638412 0.0 0.0 0.0 529.1772105638412 0.0 0.0 0.0 529.1772105638412" Properties=species:S:1:pos:R:3:forces_component_raw:R:3 ipi_comment="Step:        8560  Bead:       0 forces_component_raw{ase}  cell{ase}" pbc="T T T"
O        0.00000000       0.00000000       0.00000000      -0.97014493       0.02429631      -0.19855967
H        0.00000000       0.00000000       0.00000000       0.40768093      -0.17573282       0.06069541
H        0.00000000       0.00000000       0.00000000       0.31952125       0.08553414       0.10449717
O        0.00000000       0.00000000       0.00000000      -0.41903043       0.43815446      -0.52707833
H        0.00000000       0.00000000       0.00000000       0.66837835      -0.63350332       0.43041453
H        0.00000000       0.00000000       0.00000000       0.56909484      -0.13426754      -0.13973969
H        0.00000000       0.00000000       0.00000000      -0.57549995       0.39551875       0.26977056
7
Lattice="529.1772105638412 0.0 0.0 0.0 529.1772105638412 0.0 0.0 0.0 529.1772105638412" Properties=species:S:1:pos:R:3:forces_component_raw:R:3 ipi_comment="Step:        8580  Bead:       0 forces_component_raw{ase}  cell{ase}" pbc="T T T"
O        0.00000000       0.00000000       0.00000000       0.06020373      -0.79320544       0.29038811
H        0.00000000       0.00000000       0.00000000      -0.50937575       0.25075981      -0.31487894
H        0.00000000       0.00000000       0.00000000       0.63237554       0.44179037       0.07361913
O        0.00000000       0.00000000       0.00000000       0.58424401      -1.59343553      -0.03895104
H        0.00000000       0.00000000       0.00000000      -0.47004551       0.03177472       0.15164332
H        0.00000000       0.00000000       0.00000000       0.79741144       0.80107057      -0.49171856
H        0.00000000       0.00000000       0.00000000      -1.09481359       0.86124540       0.32989788
7
Lattice="529.1772105638412 0.0 0.0 0.0 529.1772105638412 0.0 0.0 0.0 529.1772105638412" Properties=species:S:1:pos:R:3:forces_component_raw:R:3 ipi_comment="Step:        8600  Bead:       0 forces_component_raw{ase}  cell{ase}" pbc="T T T"
O        0.00000000       0.00000000       0.00000000       0.10277133      -1.49022127       0.87487102
H        0.00000000       0.00000000       0.00000000      -0.63559544       0.33246040      -0.44163036
H        0.00000000       0.00000000       0.00000000       0.48676628       0.53077316       0.09305400
O        0.00000000       0.00000000       0.00000000      -0.06875306      -0.55416125       0.21749273
H        0.00000000       0.00000000       0.00000000       0.30109251       0.23406471      -0.32849354
H        0.00000000       0.00000000       0.00000000       0.96209002       0.46923480      -0.40697116
H        0.00000000       0.00000000       0.00000000      -1.14837158       0.47784945      -0.00832258
7
Lattice="529.1772105638412 0.0 0.0 0.0 529.1772105638412 0.0 0.0 0.0 529.1772105638412" Properties=species:S:1:pos:R:3:forces_component_raw:R:3 ipi_comment="Step:        8620  Bead:       0 forces_component_raw{ase}  cell{ase}" pbc="T T T"
O        0.00000000       0.00000000       0.00000000       0.33331725       0.17723027      -0.36052421
H        0.00000000       0.00000000       0.00000000      -0.56622011      -0.18284056      -0.20167604
H        0.00000000       0.00000000       0.00000000       0.39069825       0.44045517       0.19304517
O        0.00000000       0.00000000       0.00000000      -2.03152085      -0.77943844       0.81928277
H        0.00000000       0.00000000       0.00000000      -0.16677965      -0.22910941       0.28074008
H        0.00000000       0.00000000       0.00000000       1.40492058       0.84335321      -0.95324540
H        0.00000000       0.00000000       0.00000000       0.63558442      -0.26965025       0.22237766
7
Lattice="529.1772105638412 0.0 0.0 0.0 529.1772105638412 0.0 0.0 0.0 529.1772105638412" Properties=species:S:1:pos:R:3:forces_component_raw:R:3 ipi_comment="Step:        8640  Bead:       0 forces_component_raw{ase}  cell{ase}" pbc="T T T"
O        0.00000000       0.00000000       0.00000000       0.12844482       0.14281946      -0.75947094
H        0.00000000       0.00000000       0.00000000      -0.07512790       0.18404406       0.08747762
H        0.00000000       0.00000000       0.00000000      -0.15530440       0.15718806       0.05282645
O        0.00000000       0.00000000       0.00000000      -1.66077650      -0.61757743       0.46364886
H        0.00000000       0.00000000       0.00000000       0.09664372       0.18623546       0.33982855
H        0.00000000       0.00000000       0.00000000       0.45206249       0.22450557      -0.54878599
H        0.00000000       0.00000000       0.00000000       1.21405781      -0.27721524       0.36447543
7
Lattice="529.1772105638412 0.0 0.0 0.0 529.1772105638412 0.0 0.0 0.0 529.1772105638412" Properties=species:S:1:pos:R:3:forces_component_raw:R:3 ipi_comment="Step:        8660  Bead:       0 forces_component_raw{ase}  cell{ase}" pbc="T T T"
O        0.00000000       0.00000000       0.00000000      -0.27724278       1.03941906       0.53040922
H        0.00000000       0.00000000       0.00000000       0.08796704      -0.36511260       0.06365716
H        0.00000000       0.00000000       0.00000000       0.19625571      -0.45252332      -0.26010543
O        0.00000000       0.00000000       0.00000000      -0.48989415       0.37576747      -0.95530659
H        0.00000000       0.00000000       0.00000000      -0.00061022      -0.04932204      -0.64819807
H        0.00000000       0.00000000       0.00000000      -0.51834428      -0.12449073       0.52880412
H        0.00000000       0.00000000       0.00000000       1.00186897      -0.42373788       0.74073953
7
Lattice="529.1772105638412 0.0 0.0 0.0 529.1772105638412 0.0 0.0 0.0 529.1772105638412" Properties=species:S:1:pos:R:3:forces_component_raw:R:3 ipi_comment="Step:        8680  Bead:       0 forces_component_raw{ase}  cell{ase}" pbc="T T T"
O        0.00000000       0.00000000       0.00000000       0.07800490       0.27667517       0.56790161
H        0.00000000       0.00000000       0.00000000      -0.18648188       0.33689228       0.02591628
H        0.00000000       0.00000000       0.00000000       0.07979730      -1.03153050      -0.62729395
O        0.00000000       0.00000000       0.00000000       0.78475958       0.25564110      -1.74814511
H        0.00000000       0.00000000       0.00000000      -0.20522325       0.41713220       0.23310405
H        0.00000000       0.00000000       0.00000000      -1.60716582       0.16189456       1.16382289
H        0.00000000       0.00000000       0.00000000       1.05630923      -0.41670472       0.38469422
7
Lattice="529.1772105638412 0.0 0.0 0.0 529.1772105638412 0.0 0.0 0.0 529.1772105638412" Properties=species:S:1:pos:R:3:forces_component_raw:R:3 ipi_comment="Step:        8700  Bead:       0 forces_component_raw{ase}  cell{ase}" pbc="T T T"
O        0.00000000       0.00000000       0.00000000      -0.17177311       0.06015828       0.18018645
H        0.00000000       0.00000000       0.00000000       0.07810713      -0.13087770       0.19136936
H        0.00000000       0.00000000       0.00000000       0.05225946      -0.10994947      -0.05350381
O        0.00000000       0.00000000       0.00000000       1.02912045       1.28916800      -1.66873122
H        0.00000000       0.00000000       0.00000000       0.52647531      -0.75596678       0.07690978
H        0.00000000       0.00000000       0.00000000      -1.25844193      -0.54910553       1.49396110
H        0.00000000       0.00000000       0.00000000      -0.25574720       0.19657323      -0.22019145
7
Lattice="529.1772105638412 0.0 0.0 0.0 529.1772105638412 0.0 0.0 0.0 529.1772105638412" Properties=species:S:1:pos:R:3:forces_component_raw:R:3 ipi_comment="Step:        8720  Bead:       0 forces_component_raw{ase}  cell{ase}" pbc="T T T"
O        0.00000000       0.00000000       0.00000000       0.04474360      -0.68919695      -0.39304864
H        0.00000000       0.00000000       0.00000000       0.15679489       0.11183080       0.37361467
H        0.00000000       0.00000000       0.00000000      -0.05492562       0.71837592      -0.06012636
O        0.00000000       0.00000000       0.00000000       3.00462294      -0.22627139      -1.07379520
H        0.00000000       0.00000000       0.00000000      -0.51124114       0.32255682       0.07308611
H        0.00000000       0.00000000       0.00000000      -0.89113748      -0.32867938       1.48925138
H        0.00000000       0.00000000       0.00000000      -1.74885714       0.09138420      -0.40898210
7
Lattice="529.1772105638412 0.0 0.0 0.0 529.1772105638412 0.0 0.0 0.0 529.1772105638412" Properties=species:S:1:pos:R:3:forces_component_raw:R:3 ipi_comment="Step:        8740  Bead:       0 forces_component_raw{ase}  cell{ase}" pbc="T T T"
O        0.00000000       0.00000000       0.00000000      -0.10811214      -0.19082785      -0.61440748
H        0.00000000       0.00000000       0.00000000       0.16132979      -0.21669436       0.29528314
H        0.00000000       0.00000000       0.00000000      -0.19645874       0.85285020       0.18612458
O        0.00000000       0.00000000       0.00000000       1.16426349      -0.34833548      -0.05532061
H        0.00000000       0.00000000       0.00000000       0.63014549       0.04863426      -0.09549746
H        0.00000000       0.00000000       0.00000000       0.09145138      -0.43018562       0.65346122
H        0.00000000       0.00000000       0.00000000      -1.74261928       0.28455880      -0.36964339
7
Lattice="529.1772105638412 0.0 0.0 0.0 529.1772105638412 0.0 0.0 0.0 529.1772105638412" Properties=species:S:1:pos:R:3:forces_component_raw:R:3 ipi_comment="Step:        8760  Bead:       0 forces_component_raw{ase}  cell{ase}" pbc="T T T"
O        0.00000000       0.00000000       0.00000000       0.56710422      -0.33616033      -1.08830822
H        0.00000000       0.00000000       0.00000000       0.05845428       0.05252674       0.81957656
H        0.00000000       0.00000000       0.00000000      -0.23774782       0.25682092       0.19902417
O        0.00000000       0.00000000       0.00000000       0.98982740       0.03631574       0.57584155
H        0.00000000       0.00000000       0.00000000      -0.85810828      -0.22733632       0.28602672
H        0.00000000       0.00000000       0.00000000       0.10166681       0.26186568      -0.50354898
H        0.00000000       0.00000000       0.00000000      -0.62119645      -0.04403252      -0.28861177
7
Lattice="529.1772105638412 0.0 0.0 0.0 529.1772105638412 0.0 0.0 0.0 529.1772105638412" Properties=species:S:1:pos:R:3:forces_component_raw:R:3 ipi_comment="Step:        8780  Bead:       0 forces_component_raw{ase}  cell{ase}" pbc="T T T"
O        0.00000000       0.00000000       0.00000000      -0.30644548      -0.84514296       0.70391655
H        0.00000000       0.00000000       0.00000000      -0.36212754       0.16829173       0.56769031
H        0.00000000       0.00000000       0.00000000       0.67910826      -0.34506226      -0.43622393
O        0.00000000       0.00000000       0.00000000      -2.26602626       0.71031177       0.85249984
H        0.00000000       0.00000000       0.00000000       0.60704327      -0.23018257      -0.17794569
H        0.00000000       0.00000000       0.00000000       1.11517501       0.41778731      -1.42172897
H        0.00000000       0.00000000       0.00000000       0.53327286       0.12399694      -0.08820812
7
Lattice="529.1772105638412 0.0 0.0 0.0 529.1772105638412 0.0 0.0 0.0 529.1772105638412" Properties=species:S:1:pos:R:3:forces_component_raw:R:3 ipi_comment="Step:        8800  Bead:       0 forces_component_raw{ase}  cell{ase}" pbc="T T T"
O        0.00000000       0.00000000       0.00000000      -0.71350014      -0.18327469      -0.24504541
H        0.00000000       0.00000000       0.00000000       0.33601350      -0.10174976       0.17515668
H        0.00000000       0.00000000       0.00000000       0.75508344      -0.39065963       0.53271794
O        0.00000000       0.00000000       0.00000000      -2.20670867       0.32662153       0.32499147
H        0.00000000       0.00000000       0.00000000      -0.36629069       0.27007049      -0.09135722
H        0.00000000       0.00000000       0.00000000       1.28961396       0.28161472      -1.37726522
H        0.00000000       0.00000000       0.00000000       0.90578836      -0.20262277       0.68080157
7
Lattice="529.1772105638412 0.0 0.0 0.0 529.1772105638412 0.0 0.0 0.0 529.1772105638412" Properties=species:S:1:pos:R:3:forces_component_raw:R:3 ipi_comment="Step:        8820  Bead:       0 forces_component_raw{ase}  cell{ase}" pbc="T T T"
O        0.00000000       0.00000000       0.00000000      -1.08280492       0.41183400       1.30743230
H        0.00000000       0.00000000       0.00000000      -0.08776441      -0.16264863      -0.97910220
H        0.00000000       0.00000000       0.00000000       0.74046040       0.00895783      -0.41869962
O        0.00000000       0.00000000       0.00000000      -1.96184397      -0.16324919       0.88069785
H        0.00000000       0.00000000       0.00000000       0.58143568      -0.06296404       0.18231911
H        0.00000000       0.00000000       0.00000000       0.79289407       0.05435075      -1.25797868
H        0.00000000       0.00000000       0.00000000       1.01762343      -0.08628064       0.28533113
7
Lattice="529.1772105638412 0.0 0.0 0.0 529.1772105638412 0.0 0.0 0.0 529.1772105638412" Properties=species:S:1:pos:R:3:forces_component_raw:R:3 ipi_comment="Step:        8840  Bead:       0 forces_component_raw{ase}  cell{ase}" pbc="T T T"
O        0.00000000       0.00000000       0.00000000      -0.68578667       0.84531522       0.36436781
H        0.00000000       0.00000000       0.00000000       0.99250925       0.11809963      -1.05005455
H        0.00000000       0.00000000       0.00000000      -0.50676745      -0.07613813       0.30578211
O        0.00000000       0.00000000       0.00000000      -0.38824290      -0.13873655       0.48073438
H        0.00000000       0.00000000       0.00000000      -0.38482574      -0.41477776      -0.19944714
H        0.00000000       0.00000000       0.00000000       0.32959199       0.04297305      -0.46928984
H        0.00000000       0.00000000       0.00000000       0.64352167      -0.37673539       0.56790728
7
Lattice="529.1772105638412 0.0 0.0 0.0 529.1772105638412 0.0 0.0 0.0 529.1772105638412" Properties=species:S:1:pos:R:3:forces_component_raw:R:3 ipi_comment="Step:        8860  Bead:       0 forces_component_raw{ase}  cell{ase}" pbc="T T T"
O        0.00000000       0.00000000       0.00000000       0.81010485      -0.47811523       0.98456800
H        0.00000000       0.00000000       0.00000000       0.09341756       0.57944840      -1.16352391
H        0.00000000       0.00000000       0.00000000      -1.23714578       0.28775007      -0.46323881
O        0.00000000       0.00000000       0.00000000       0.33550072      -1.39239359       0.24932295
H        0.00000000       0.00000000       0.00000000       0.59177405       0.64222115       0.17722631
H        0.00000000       0.00000000       0.00000000      -0.46838829       0.03399949       0.58521772
H        0.00000000       0.00000000       0.00000000      -0.12526310       0.32708940      -0.36957222
7
Lattice="529.1772105638412 0.0 0.0 0.0 529.1772105638412 0.0 0.0 0.0 529.1772105638412" Properties=species:S:1:pos:R:3:forces_component_raw:R:3 ipi_comment="Step:        8880  Bead:       0 forces_component_raw{ase}  cell{ase}" pbc="T T T"
O        0.00000000       0.00000000       0.00000000       0.65845853       0.08359796       0.10767370
H        0.00000000       0.00000000       0.00000000       0.58591986       0.52124369      -0.73187387
H        0.00000000       0.00000000       0.00000000      -0.98989827      -0.17850877       0.28093845
O        0.00000000       0.00000000       0.00000000       0.81372225       0.27983242      -1.20028973
H        0.00000000       0.00000000       0.00000000      -0.50667584      -0.44898689       0.06179021
H        0.00000000       0.00000000       0.00000000      -0.12963900      -0.17336364       1.21379638
H        0.00000000       0.00000000       0.00000000      -0.43188757      -0.08381481       0.26796490
7
Lattice="529.1772105638412 0.0 0.0 0.0 529.1772105638412 0.0 0.0 0.0 529.1772105638412" Properties=species:S:1:pos:R:3:forces_component_raw:R:3 ipi_comment="Step:        8900  Bead:       0 forces_component_raw{ase}  cell{ase}" pbc="T T T"
O        0.00000000       0.00000000       0.00000000      -0.30371982      -1.54288173       1.56245590
H        0.00000000       0.00000000       0.00000000      -0.01788142       0.26306343      -0.52898651
H        0.00000000       0.00000000       0.00000000       0.37888402       0.41800279      -0.35042170
O        0.00000000       0.00000000       0.00000000       1.29067564      -0.03229791      -0.30046287
H        0.00000000       0.00000000       0.00000000       0.26490963       0.74173987      -0.74168861
H        0.00000000       0.00000000       0.00000000      -0.93978799      -0.13026202       0.96276325
H        0.00000000       0.00000000       0.00000000      -0.67307997       0.28263548      -0.60365957
7
Lattice="529.1772105638412 0.0 0.0 0.0 529.1772105638412 0.0 0.0 0.0 529.1772105638412" Properties=species:S:1:pos:R:3:forces_component_raw:R:3 ipi_comment="Step:        8920  Bead:       0 forces_component_raw{ase}  cell{ase}" pbc="T T T"
O        0.00000000       0.00000000       0.00000000      -0.20719838      -0.17206675      -0.86078525
H        0.00000000       0.00000000       0.00000000      -0.09395236      -0.22864944       0.54207885
H        0.00000000       0.00000000       0.00000000       0.50857961      -0.01831446       0.39353514
O        0.00000000       0.00000000       0.00000000       0.81362599       0.79573250      -1.85957146
H        0.00000000       0.00000000       0.00000000      -0.30867380      -0.03743231       0.62674117
H        0.00000000       0.00000000       0.00000000      -0.20283642      -0.11324333       0.86351311
H        0.00000000       0.00000000       0.00000000      -0.50954485      -0.22602619       0.29448858
7
Lattice="529.1772105638412 0.0 0.0 0.0 529.1772105638412 0.0 0.0 0.0 529.1772105638412" Properties=species:S:1:pos:R:3:forces_component_raw:R:3 ipi_comment="Step:        8940  Bead:       0 forces_component_raw{ase}  cell{ase}" pbc="T T T"
O        0.00000000       0.00000000       0.00000000      -0.44266898       0.13174343      -0.60502166
H        0.00000000       0.00000000       0.00000000      -0.51041162      -0.36889091       0.51421666
H        0.00000000       0.00000000       0.00000000       0.72825349       0.32687789       0.16136558
O        0.00000000       0.00000000       0.00000000      -1.43059457      -0.28759787       1.38592911
H        0.00000000       0.00000000       0.00000000       0.41099426      -0.05963190      -0.45666930
H        0.00000000       0.00000000       0.00000000       0.08849266      -0.04542458      -0.62729538
H        0.00000000       0.00000000       0.00000000       1.15593469       0.30292380      -0.37252507
7
Lattice="529.1772105638412 0.0 0.0 0.0 529.1772105638412 0.0 0.0 0.0 529.1772105638412" Properties=species:S:1:pos:R:3:forces_component_raw:R:3 ipi_comment="Step:        8960  Bead:       0 forces_component_raw{ase}  cell{ase}" pbc="T T T"
O        0.00000000       0.00000000       0.00000000       0.75122750       0.99638427      -1.81505847
H        0.00000000       0.00000000       0.00000000      -1.05098164      -0.55160904       1.19020057
H        0.00000000       0.00000000       0.00000000       0.42946786       0.01824027       0.21153489
O        0.00000000       0.00000000       0.00000000      -2.22202635      -0.77741170       0.77058566
H        0.00000000       0.00000000       0.00000000      -0.57915360      -0.34197572       0.30156267
H        0.00000000       0.00000000       0.00000000       0.70969373       0.19699296      -1.21843457
H        0.00000000       0.00000000       0.00000000       1.96177268       0.45937908       0.55960947
7
Lattice="529.1772105638412 0.0 0.0 0.0 529.1772105638412 0.0 0.0 0.0 529.1772105638412" Properties=species:S:1:pos:R:3:forces_component_raw:R:3 ipi_comment="Step:        8980  Bead:       0 forces_component_raw{ase}  cell{ase}" pbc="T T T"
O        0.00000000       0.00000000       0.00000000      -0.24000564       0.49732781      -1.35251451
H        0.00000000       0.00000000       0.00000000      -0.67470390      -0.41868416       0.91562420
H        0.00000000       0.00000000       0.00000000       0.47300691       0.22908244       0.05543133
O        0.00000000       0.00000000       0.00000000      -2.65687085      -1.90578914       1.17185831
H        0.00000000       0.00000000       0.00000000       0.50416929       0.36161205       0.01692778
H        0.00000000       0.00000000       0.00000000       0.73009062       0.05634183      -1.14514494
H        0.00000000       0.00000000       0.00000000       1.86431373       1.18010915       0.33781788
7
Lattice="529.1772105638412 0.0 0.0 0.0 529.1772105638412 0.0 0.0 0.0 529.1772105638412" Properties=species:S:1:pos:R:3:forces_component_raw:R:3 ipi_comment="Step:        9000  Bead:       0 forces_component_raw{ase}  cell{ase}" pbc="T T T"
O        0.00000000       0.00000000       0.00000000      -0.48503471       0.43825519      -0.12621838
H        0.00000000       0.00000000       0.00000000      -0.07383174      -0.09143493      -0.00208315
H        0.00000000       0.00000000       0.00000000       0.50343770       0.06694920       0.14184149
O        0.00000000       0.00000000       0.00000000      -2.00566435      -0.55747187      -0.04812324
H        0.00000000       0.00000000       0.00000000      -0.24024427      -0.60951817      -0.13874124
H        0.00000000       0.00000000       0.00000000       0.37740702       0.12191644      -0.70523715
H        0.00000000       0.00000000       0.00000000       1.92393041       0.63130415       0.87856174
7
Lattice="529.1772105638412 0.0 0.0 0.0 529.1772105638412 0.0 0.0 0.0 529.1772105638412" Properties=species:S:1:pos:R:3:forces_component_raw:R:3 ipi_comment="Step:        9020  Bead:       0 forces_component_raw{ase}  cell{ase}" pbc="T T T"
O        0.00000000       0.00000000       0.00000000      -0.53533018      -0.52206093       0.97349966
H        0.00000000       0.00000000       0.00000000       0.37599337       0.11145686      -0.69600672
H        0.00000000       0.00000000       0.00000000       0.26786453       0.12008923       0.00543623
O        0.00000000       0.00000000       0.00000000      -0.70927155      -0.12136108      -1.31013155
H        0.00000000       0.00000000       0.00000000      -0.03949241      -0.02223753       0.22194099
H        0.00000000       0.00000000       0.00000000      -0.80929268      -0.05333799       0.31787783
H        0.00000000       0.00000000       0.00000000       1.44952870       0.48745138       0.48738358
7
Lattice="529.1772105638412 0.0 0.0 0.0 529.1772105638412 0.0 0.0 0.0 529.1772105638412" Properties=species:S:1:pos:R:3:forces_component_raw:R:3 ipi_comment="Step:        9040  Bead:       0 forces_component_raw{ase}  cell{ase}" pbc="T T T"
O        0.00000000       0.00000000       0.00000000      -0.09722790      -1.00344944       2.01433683
H        0.00000000       0.00000000       0.00000000       0.88971186       0.36275300      -1.29184211
H        0.00000000       0.00000000       0.00000000      -0.40134320       0.04430236      -0.03634193
O        0.00000000       0.00000000       0.00000000       0.76001519       1.02993655      -1.79744852
H        0.00000000       0.00000000       0.00000000      -0.11739370       0.29949147      -0.26285720
H        0.00000000       0.00000000       0.00000000      -0.95755458      -0.65119422       1.41401255
H        0.00000000       0.00000000       0.00000000      -0.07620764      -0.08183965      -0.03985974
7
Lattice="529.1772105638412 0.0 0.0 0.0 529.1772105638412 0.0 0.0 0.0 529.1772105638412" Properties=species:S:1:pos:R:3:forces_component_raw:R:3 ipi_comment="Step:        9060  Bead:       0 forces_component_raw{ase}  cell{ase}" pbc="T T T"
O        0.00000000       0.00000000       0.00000000       0.29771248      -0.21196273       1.64539206
H        0.00000000       0.00000000       0.00000000       1.24323511       0.29174373      -1.72167516
H        0.00000000       0.00000000       0.00000000      -1.45858383      -0.04641546       0.06455198
O        0.00000000       0.00000000       0.00000000       1.63905073       2.19830204      -1.73354745
H        0.00000000       0.00000000       0.00000000       0.16495124      -0.38314414       0.31122318
H        0.00000000       0.00000000       0.00000000      -0.60943121      -1.13049674       1.72697521
H        0.00000000       0.00000000       0.00000000      -1.27693463      -0.71802664      -0.29291990
7
Lattice="529.1772105638412 0.0 0.0 0.0 529.1772105638412 0.0 0.0 0.0 529.1772105638412" Properties=species:S:1:pos:R:3:forces_component_raw:R:3 ipi_comment="Step:        9080  Bead:       0 forces_component_raw{ase}  cell{ase}" pbc="T T T"
O        0.00000000       0.00000000       0.00000000       0.99744189       0.35832724       1.62816108
H        0.00000000       0.00000000       0.00000000       0.42520997      -0.03237410      -1.82591355
H        0.00000000       0.00000000       0.00000000      -1.25813496      -0.22269870      -0.23299131
O        0.00000000       0.00000000       0.00000000       1.89386750       1.12590719      -0.05460987
H        0.00000000       0.00000000       0.00000000      -0.28445470       0.10305810       0.15318200
H        0.00000000       0.00000000       0.00000000      -0.76386053      -1.06945646       1.01136077
H        0.00000000       0.00000000       0.00000000      -1.01006925      -0.26276302      -0.67918956
7
Lattice="529.1772105638412 0.0 0.0 0.0 529.1772105638412 0.0 0.0 0.0 529.1772105638412" Properties=species:S:1:pos:R:3:forces_component_raw:R:3 ipi_comment="Step:        9100  Bead:       0 forces_component_raw{ase}  cell{ase}" pbc="T T T"
O        0.00000000       0.00000000       0.00000000       1.10474289       0.83230031      -0.11909699
H        0.00000000       0.00000000       0.00000000       0.38081366      -0.31024966      -0.35366765
H        0.00000000       0.00000000       0.00000000      -1.40539432      -0.18281922       0.24461496
O        0.00000000       0.00000000       0.00000000      -0.45202488       0.24190480      -0.65180487
H        0.00000000       0.00000000       0.00000000      -0.13290587      -0.23040175      -0.01220971
H        0.00000000       0.00000000       0.00000000       0.46001119      -0.12341499       0.55944049
H        0.00000000       0.00000000       0.00000000       0.04475749      -0.22731939       0.33272392
7
Lattice="529.1772105638412 0.0 0.0 0.0 529.1772105638412 0.0 0.0 0.0 529.1772105638412" Properties=species:S:1:pos:R:3:forces_component_raw:R:3 ipi_comment="Step:        9120  Bead:       0 forces_component_raw{ase}  cell{ase}" pbc="T T T"
O        0.00000000       0.00000000       0.00000000       1.15502835       0.21229021      -0.71625304
H        0.00000000       0.00000000       0.00000000      -0.14763308       0.13965687       0.45690751
H        0.00000000       0.00000000       0.00000000      -1.26037169       0.02410394      -0.16526014
O        0.00000000       0.00000000       0.00000000      -0.37924814      -1.05096662       1.41156245
H        0.00000000       0.00000000       0.00000000      -0.05782178      -0.11060691      -0.06627563
H        0.00000000       0.00000000       0.00000000       0.21738884       0.49026483      -0.81284845
H        0.00000000       0.00000000       0.00000000       0.47265753       0.29525769      -0.10783281
7
Lattice="529.1772105638412 0.0 0.0 0.0 529.1772105638412 0.0 0.0 0.0 529.1772105638412" Properties=species:S:1:pos:R:3:forces_component_raw:R:3 ipi_comment="Step:        9140  Bead:       0 forces_component_raw{ase}  cell{ase}" pbc="T T T"
O        0.00000000       0.00000000       0.00000000      -0.02853061      -0.90318001      -1.53185344
H        0.00000000       0.00000000       0.00000000       0.03766587       0.69056088       1.01771844
H        0.00000000       0.00000000       0.00000000      -0.38873863       0.26266033       0.11253685
O        0.00000000       0.00000000       0.00000000      -1.32277108      -0.66105777      -0.34117544
H        0.00000000       0.00000000       0.00000000       0.39615876       0.22668025       0.17082301
H        0.00000000       0.00000000       0.00000000       0.63094497       0.40068242      -0.10157055
H        0.00000000       0.00000000       0.00000000       0.67527062      -0.01634635       0.67352128
7
Lattice="529.1772105638412 0.0 0.0 0.0 529.1772105638412 0.0 0.0 0.0 529.1772105638412" Properties=species:S:1:pos:R:3:forces_component_raw:R:3 ipi_comment="Step:        9160  Bead:       0 forces_component_raw{ase}  cell{ase}" pbc="T T T"
O        0.00000000       0.00000000       0.00000000       0.68999374      -0.33382455       0.19533098
H        0.00000000       0.00000000       0.00000000      -0.47976419       0.64151663       0.55871171
H        0.00000000       0.00000000       0.00000000       0.36214870      -0.56202358      -0.23665728
O        0.00000000       0.00000000       0.00000000      -0.45063919      -0.63356179       0.51493347
H        0.00000000       0.00000000       0.00000000      -0.84735978      -0.22249730      -0.08246803
H        0.00000000       0.00000000       0.00000000       0.10645020       0.82455296      -1.13876474
H        0.00000000       0.00000000       0.00000000       0.61917055       0.28583753       0.18891382
7
Lattice="529.1772105638412 0.0 0.0 0.0 529.1772105638412 0.0 0.0 0.0 529.1772105638412" Properties=species:S:1:pos:R:3:forces_component_raw:R:3 ipi_comment="Step:        9180  Bead:       0 forces_component_raw{ase}  cell{ase}" pbc="T T T"
O        0.00000000       0.00000000       0.00000000      -2.25762058       0.24416193      -0.05870837
H        0.00000000       0.00000000       0.00000000       0.35480651       0.47920868       0.72101474
H        0.00000000       0.00000000       0.00000000       1.74782336      -0.93321586      -0.15306354
O        0.00000000       0.00000000       0.00000000      -1.03965128      -0.58858585      -0.05802804
H        0.00000000       0.00000000       0.00000000       1.14894128       0.25146806       0.28579879
H        0.00000000       0.00000000       0.00000000       0.81086195       0.92740101      -0.45480540
H        0.00000000       0.00000000       0.00000000      -0.76516092      -0.38043794      -0.28220823
7
Lattice="529.1772105638412 0.0 0.0 0.0 529.1772105638412 0.0 0.0 0.0 529.1772105638412" Properties=species:S:1:pos:R:3:forces_component_raw:R:3 ipi_comment="Step:        9200  Bead:       0 forces_component_raw{ase}  cell{ase}" pbc="T T T"
O        0.00000000       0.00000000       0.00000000      -0.35393107       0.26506060       0.30667290
H        0.00000000       0.00000000       0.00000000       0.00414824       0.75984371       0.67838633
H        0.00000000       0.00000000       0.00000000       0.81324220      -1.04535032      -0.34590945
O        0.00000000       0.00000000       0.00000000       1.57307339       0.96627593       0.93942845
H        0.00000000       0.00000000       0.00000000      -0.67988396      -0.57257646      -0.25493664
H        0.00000000       0.00000000       0.00000000      -0.26701218       0.14775252      -0.70365662
H        0.00000000       0.00000000       0.00000000      -1.08963657      -0.52100611      -0.61998499
7
Lattice="529.1772105638412 0.0 0.0 0.0 529.1772105638412 0.0 0.0 0.0 529.1772105638412" Properties=species:S:1:pos:R:3:forces_component_raw:R:3 ipi_comment="Step:        9220  Bead:       0 forces_component_raw{ase}  cell{ase}" pbc="T T T"
O        0.00000000       0.00000000       0.00000000      -0.92783940       0.02859038      -0.75597501
H        0.00000000       0.00000000       0.00000000       0.06367552       0.46933425       0.13267744
H        0.00000000       0.00000000       0.00000000       0.68788475      -0.77967024       0.13915265
O        0.00000000       0.00000000       0.00000000       0.57279688       0.37853688       0.03023273
H        0.00000000       0.00000000       0.00000000       0.65637112       0.52617061       0.42732829
H        0.00000000       0.00000000       0.00000000       0.49395150       0.22178274       0.30796343
H        0.00000000       0.00000000       0.00000000      -1.54684043      -0.84474468      -0.28137976
7
Lattice="529.1772105638412 0.0 0.0 0.0 529.1772105638412 0.0 0.0 0.0 529.1772105638412" Properties=species:S:1:pos:R:3:forces_component_raw:R:3 ipi_comment="Step:        9240  Bead:       0 forces_component_raw{ase}  cell{ase}" pbc="T T T"
O        0.00000000       0.00000000       0.00000000       0.45800930       1.05089331       0.24383098
H        0.00000000       0.00000000       0.00000000      -0.42149693      -0.85007709      -0.54521418
H        0.00000000       0.00000000       0.00000000      -0.06785811       0.22404754      -0.04764868
O        0.00000000       0.00000000       0.00000000       0.99914670       0.05519637       1.22721887
H        0.00000000       0.00000000       0.00000000      -0.25633624      -0.51080370      -0.13965309
H        0.00000000       0.00000000       0.00000000      -0.26801610       0.01849616      -0.29297879
H        0.00000000       0.00000000       0.00000000      -0.44344866       0.01224744      -0.44555488
7
Lattice="529.1772105638412 0.0 0.0 0.0 529.1772105638412 0.0 0.0 0.0 529.1772105638412" Properties=species:S:1:pos:R:3:forces_component_raw:R:3 ipi_comment="Step:        9260  Bead:       0 forces_component_raw{ase}  cell{ase}" pbc="T T T"
O        0.00000000       0.00000000       0.00000000       1.60027886      -0.37285167       1.27641785
H        0.00000000       0.00000000       0.00000000      -0.65233654      -0.66816056      -0.80952692
H        0.00000000       0.00000000       0.00000000      -0.68101788       0.70287281      -0.18077311
O        0.00000000       0.00000000       0.00000000      -0.83317286       0.35023168      -1.32006526
H        0.00000000       0.00000000       0.00000000      -0.59658277       0.38453579      -0.30147716
H        0.00000000       0.00000000       0.00000000       0.28074783      -0.20453742       0.51008892
H        0.00000000       0.00000000       0.00000000       0.88208348      -0.19209066       0.82533574
7
Lattice="529.1772105638412 0.0 0.0 0.0 529.1772105638412 0.0 0.0 0.0 529.1772105638412" Properties=species:S:1:pos:R:3:forces_component_raw:R:3 ipi_comment="Step:        9280  Bead:       0 forces_component_raw{ase}  cell{ase}" pbc="T T T"
O        0.00000000       0.00000000       0.00000000       0.81848741      -0.22747403       0.45992166
H        0.00000000       0.00000000       0.00000000      -0.25243971      -1.12214148      -0.21864110
H        0.00000000       0.00000000       0.00000000      -0.83503711       1.50145662      -0.34837967
O        0.00000000       0.00000000       0.00000000      -1.96268368      -0.14328048      -0.40141916
H        0.00000000       0.00000000       0.00000000       1.10761929      -0.10585171       0.59096992
H        0.00000000       0.00000000       0.00000000      -0.41103166       0.02663435       0.27588046
H        0.00000000       0.00000000       0.00000000       1.53508556       0.07065681      -0.35833216
7
Lattice="529.1772105638412 0.0 0.0 0.0 529.1772105638412 0.0 0.0 0.0 529.1772105638412" Properties=species:S:1:pos:R:3:forces_component_raw:R:3 ipi_comment="Step:        9300  Bead:       0 forces_component_raw{ase}  cell{ase}" pbc="T T T"
O        0.00000000       0.00000000       0.00000000       1.17128349       0.28366572       0.73196411
H        0.00000000       0.00000000       0.00000000      -0.37276614      -0.57613611      -0.12701862
H        0.00000000       0.00000000       0.00000000      -0.81095541       0.77230668      -0.72297615
O        0.00000000       0.00000000       0.00000000      -0.23561567       1.49124050      -0.98065955
H        0.00000000       0.00000000       0.00000000      -0.52457851      -0.54071683       0.09456143
H        0.00000000       0.00000000       0.00000000      -0.20919624      -0.59692180       0.21871847
H        0.00000000       0.00000000       0.00000000       0.98182881      -0.83343810       0.78541023
7
Lattice="529.1772105638412 0.0 0.0 0.0 529.1772105638412 0.0 0.0 0.0 529.1772105638412" Properties=species:S:1:pos:R:3:forces_component_raw:R:3 ipi_comment="Step:        9320  Bead:       0 forces_component_raw{ase}  cell{ase}" pbc="T T T"
O        0.00000000       0.00000000       0.00000000      -0.18324810      -0.30840898       0.30331242
H        0.00000000       0.00000000       0.00000000       0.05673888      -0.66785270      -0.36959082
H        0.00000000       0.00000000       0.00000000       0.18081608       0.30146718       0.48719096
O        0.00000000       0.00000000       0.00000000      -0.75750214      -0.06485629       0.55318833
H        0.00000000       0.00000000       0.00000000       0.30941257       0.81215197      -0.47865820
H        0.00000000       0.00000000       0.00000000      -0.27748907       0.09017333      -0.02301005
H        0.00000000       0.00000000       0.00000000       0.67127168      -0.16267462      -0.47243253
7
Lattice="529.1772105638412 0.0 0.0 0.0 529.1772105638412 0.0 0.0 0.0 529.1772105638412" Properties=species:S:1:pos:R:3:forces_component_raw:R:3 ipi_comment="Step:        9340  Bead:       0 forces_component_raw{ase}  cell{ase}" pbc="T T T"
O        0.00000000       0.00000000       0.00000000      -0.28712457       0.72560656      -0.06097388
H        0.00000000       0.00000000       0.00000000      -0.10316928       0.60276258       0.34971029
H        0.00000000       0.00000000       0.00000000       0.50582123      -1.09257329      -0.10441561
O        0.00000000       0.00000000       0.00000000      -0.14032783       0.77696943      -0.77706480
H        0.00000000       0.00000000       0.00000000      -0.09669499      -0.65934748       0.83611047
H        0.00000000       0.00000000       0.00000000       0.01258427      -0.10591289      -0.33572880
H        0.00000000       0.00000000       0.00000000       0.10891110      -0.24750488       0.09236228
7
Lattice="529.1772105638412 0.0 0.0 0.0 529.1772105638412 0.0 0.0 0.0 529.1772105638412" Properties=species:S:1:pos:R:3:forces_component_raw:R:3 ipi_comment="Step:        9360  Bead:       0 forces_component_raw{ase}  cell{ase}" pbc="T T T"
O        0.00000000       0.00000000       0.00000000      -1.27873183      -0.24630293      -1.56447733
H        0.00000000       0.00000000       0.00000000       0.37905866       1.29141546       1.01026750
H        0.00000000       0.00000000       0.00000000       0.96904755      -1.40296936       0.45418221
O        0.00000000       0.00000000       0.00000000      -0.39604268      -1.00462294       1.66519070
H        0.00000000       0.00000000       0.00000000      -0.15579726       0.46423715      -0.33642608
H        0.00000000       0.00000000       0.00000000       1.14084697       0.80524141      -1.16461337
H        0.00000000       0.00000000       0.00000000      -0.65838146       0.09300124      -0.06412353
7
Lattice="529.1772105638412 0.0 0.0 0.0 529.1772105638412 0.0 0.0 0.0 529.1772105638412" Properties=species:S:1:pos:R:3:forces_component_raw:R:3 ipi_comment="Step:        9380  Bead:       0 forces_component_raw{ase}  cell{ase}" pbc="T T T"
O        0.00000000       0.00000000       0.00000000      -1.15814150      -0.16619594      -1.73100853
H        0.00000000       0.00000000       0.00000000       0.36862683       1.48767162       1.34061325
H        0.00000000       0.00000000       0.00000000       0.52437514      -0.86926067      -0.03469573
O        0.00000000       0.00000000       0.00000000       0.20598021      -0.66665876       1.82310915
H        0.00000000       0.00000000       0.00000000       0.29233974      -0.45333910      -0.33288586
H        0.00000000       0.00000000       0.00000000       0.77676314       0.52468461      -0.79652327
H        0.00000000       0.00000000       0.00000000      -1.00994373       0.14309832      -0.26860958
7
Lattice="529.1772105638412 0.0 0.0 0.0 529.1772105638412 0.0 0.0 0.0 529.1772105638412" Properties=species:S:1:pos:R:3:forces_component_raw:R:3 ipi_comment="Step:        9400  Bead:       0 forces_component_raw{ase}  cell{ase}" pbc="T T T"
O        0.00000000       0.00000000       0.00000000      -0.10492471      -1.46052873      -1.22169972
H        0.00000000       0.00000000       0.00000000       0.28661826       1.01550520       0.73581672
H        0.00000000       0.00000000       0.00000000      -0.10766830       0.32825565      -0.01979141
O        0.00000000       0.00000000       0.00000000       1.10099221      -0.15500386       0.78108162
H        0.00000000       0.00000000       0.00000000      -0.62718648       0.16938594       0.09288558
H        0.00000000       0.00000000       0.00000000      -0.11793035       0.06984012      -0.26377526
H        0.00000000       0.00000000       0.00000000      -0.42990059       0.03254578      -0.10451752
7
Lattice="529.1772105638412 0.0 0.0 0.0 529.1772105638412 0.0 0.0 0.0 529.1772105638412" Properties=species:S:1:pos:R:3:forces_component_raw:R:3 ipi_comment="Step:        9420  Bead:       0 forces_component_raw{ase}  cell{ase}" pbc="T T T"
O        0.00000000       0.00000000       0.00000000       0.20652410      -1.11093307       0.57899314
H        0.00000000       0.00000000       0.00000000       0.06968936       0.06277585       0.22024941
H        0.00000000       0.00000000       0.00000000      -0.49987716       1.17303038      -0.40548951
O        0.00000000       0.00000000       0.00000000      -0.27048466       0.22330576      -1.00000572
H        0.00000000       0.00000000       0.00000000       0.81092489      -0.24408317       0.20696203
H        0.00000000       0.00000000       0.00000000      -0.13905361      -0.10226376       0.45253417
H        0.00000000       0.00000000       0.00000000      -0.17772281      -0.00183186      -0.05324337
7
Lattice="529.1772105638412 0.0 0.0 0.0 529.1772105638412 0.0 0.0 0.0 529.1772105638412" Properties=species:S:1:pos:R:3:forces_component_raw:R:3 ipi_comment="Step:        9440  Bead:       0 forces_component_raw{ase}  cell{ase}" pbc="T T T"
O        0.00000000       0.00000000       0.00000000       0.78843320      -0.56413478       1.90371383
H        0.00000000       0.00000000       0.00000000      -0.41830888      -1.26769734      -0.76593125
H        0.00000000       0.00000000       0.00000000      -0.10238427       1.48887670      -0.20752350
O        0.00000000       0.00000000       0.00000000       0.42335287       0.34499782      -0.58272421
H        0.00000000       0.00000000       0.00000000      -0.48702577       0.10915297      -0.09686928
H        0.00000000       0.00000000       0.00000000      -0.52426779      -0.15254846      -0.22974895
H        0.00000000       0.00000000       0.00000000       0.32020071       0.04135350      -0.02091670
7
Lattice="529.1772105638412 0.0 0.0 0.0 529.1772105638412 0.0 0.0 0.0 529.1772105638412" Properties=species:S:1:pos:R:3:forces_component_raw:R:3 ipi_comment="Step:        9460  Bead:       0 forces_component_raw{ase}  cell{ase}" pbc="T T T"
O        0.00000000       0.00000000       0.00000000       1.40197778      -0.35288104       1.95171977
H        0.00000000       0.00000000       0.00000000      -1.04987455      -0.96103472      -1.04645193
H        0.00000000       0.00000000       0.00000000      -0.27338374       1.10505319      -0.61933065
O        0.00000000       0.00000000       0.00000000      -1.13212300      -0.44233275      -1.86078573
H        0.00000000       0.00000000       0.00000000       0.07047981       0.11549765       0.24225402
H        0.00000000       0.00000000       0.00000000       0.35212183       0.07644030       0.42721447
H        0.00000000       0.00000000       0.00000000       0.63080180       0.45925725       0.90537989
7
Lattice="529.1772105638412 0.0 0.0 0.0 529.1772105638412 0.0 0.0 0.0 529.1772105638412" Properties=species:S:1:pos:R:3:forces_component_raw:R:3 ipi_comment="Step:        9480  Bead:       0 forces_component_raw{ase}  cell{ase}" pbc="T T T"
O        0.00000000       0.00000000       0.00000000       1.18076349       0.56680763       0.48597363
H        0.00000000       0.00000000       0.00000000      -0.89287555      -0.76440299      -0.16651109
H        0.00000000       0.00000000       0.00000000      -0.06448275       0.57948554      -0.28543574
O        0.00000000       0.00000000       0.00000000      -1.35141504      -0.78599906       0.83160162
H        0.00000000       0.00000000       0.00000000      -0.03679839      -0.29138023      -0.14288801
H        0.00000000       0.00000000       0.00000000      -0.13905251      -0.32762647      -0.29520679
H        0.00000000       0.00000000       0.00000000       1.30386079       1.02311564      -0.42753375
7
Lattice="529.1772105638412 0.0 0.0 0.0 529.1772105638412 0.0 0.0 0.0 529.1772105638412" Properties=species:S:1:pos:R:3:forces_component_raw:R:3 ipi_comment="Step:        9500  Bead:       0 forces_component_raw{ase}  cell{ase}" pbc="T T T"
O        0.00000000       0.00000000       0.00000000       0.34029359       0.86723060      -0.39362705
H        0.00000000       0.00000000       0.00000000      -0.43835196      -0.36885801      -0.25626853
H        0.00000000       0.00000000       0.00000000       0.23974478      -0.77399886       0.52855420
O        0.00000000       0.00000000       0.00000000       0.25134260      -1.32471800      -0.94759566
H        0.00000000       0.00000000       0.00000000      -0.23450434       0.43067664       0.09857215
H        0.00000000       0.00000000       0.00000000      -0.16101599       0.51113761       0.53573668
H        0.00000000       0.00000000       0.00000000       0.00249130       0.65852976       0.43462816
7
Lattice="529.1772105638412 0.0 0.0 0.0 529.1772105638412 0.0 0.0 0.0 529.1772105638412" Properties=species:S:1:pos:R:3:forces_component_raw:R:3 ipi_comment="Step:        9520  Bead:       0 forces_component_raw{ase}  cell{ase}" pbc="T T T"
O        0.00000000       0.00000000       0.00000000      -0.03402510       1.08324588       0.27847242
H        0.00000000       0.00000000       0.00000000      -0.04040349       0.36784241      -0.10685268
H        0.00000000       0.00000000       0.00000000      -0.11012958      -1.27605796      -0.00093095
O        0.00000000       0.00000000       0.00000000       0.44090283       0.41606546       0.71849221
H        0.00000000       0.00000000       0.00000000       0.16656454      -0.40510428      -0.39412475
H        0.00000000       0.00000000       0.00000000      -0.60550839      -0.11323342      -0.23003426
H        0.00000000       0.00000000       0.00000000       0.18259931      -0.07275830      -0.26502207
7
Lattice="529.1772105638412 0.0 0.0 0.0 529.1772105638412 0.0 0.0 0.0 529.1772105638412" Properties=species:S:1:pos:R:3:forces_component_raw:R:3 ipi_comment="Step:        9540  Bead:       0 forces_component_raw{ase}  cell{ase}" pbc="T T T"
O        0.00000000       0.00000000       0.00000000      -0.98462260       0.62432265      -1.43836606
H        0.00000000       0.00000000       0.00000000       0.65700454       0.39311305       0.52042210
H        0.00000000       0.00000000       0.00000000       0.13626051      -1.36463261       0.74936521
O        0.00000000       0.00000000       0.00000000       0.97882039       0.14616191      -0.32897943
H        0.00000000       0.00000000       0.00000000      -0.02764407       0.33306545       0.39324772
H        0.00000000       0.00000000       0.00000000       0.08076197       0.08569410       0.11351496
H        0.00000000       0.00000000       0.00000000      -0.84058070      -0.21772476      -0.00920445
7
Lattice="529.1772105638412 0.0 0.0 0.0 529.1772105638412 0.0 0.0 0.0 529.1772105638412" Properties=species:S:1:pos:R:3:forces_component_raw:R:3 ipi_comment="Step:        9560  Bead:       0 forces_component_raw{ase}  cell{ase}" pbc="T T T"
O        0.00000000       0.00000000       0.00000000      -0.69251710      -0.24080125       0.15563929
H        0.00000000       0.00000000       0.00000000       0.98095775       1.00001359       0.88197822
H        0.00000000       0.00000000       0.00000000      -0.06113876      -0.39118975      -0.27010706
O        0.00000000       0.00000000       0.00000000       0.37636080       0.05808786       0.93068361
H        0.00000000       0.00000000       0.00000000      -0.42191118      -0.26899573      -0.84760022
H        0.00000000       0.00000000       0.00000000       0.29984415      -0.08996618      -0.55003280
H        0.00000000       0.00000000       0.00000000      -0.48159582      -0.06714848      -0.30056131
7
Lattice="529.1772105638412 0.0 0.0 0.0 529.1772105638412 0.0 0.0 0.0 529.1772105638412" Properties=species:S:1:pos:R:3:forces_component_raw:R:3 ipi_comment="Step:        9580  Bead:       0 forces_component_raw{ase}  cell{ase}" pbc="T T T"
O        0.00000000       0.00000000       0.00000000      -0.67591822      -1.01730168      -0.55714536
H        0.00000000       0.00000000       0.00000000       0.53437805       0.42995042       0.50888068
H        0.00000000       0.00000000       0.00000000       0.08233662       0.52978504      -0.37819821
O        0.00000000       0.00000000       0.00000000      -1.85658265       0.28673640       0.72264326
H        0.00000000       0.00000000       0.00000000       0.27300984       0.35943380       0.28019935
H        0.00000000       0.00000000       0.00000000       0.88695830      -0.60621852      -0.88693166
H        0.00000000       0.00000000       0.00000000       0.75581795       0.01761445       0.31055185
7
Lattice="529.1772105638412 0.0 0.0 0.0 529.1772105638412 0.0 0.0 0.0 529.1772105638412" Properties=species:S:1:pos:R:3:forces_component_raw:R:3 ipi_comment="Step:        9600  Bead:       0 forces_component_raw{ase}  cell{ase}" pbc="T T T"
O        0.00000000       0.00000000       0.00000000       0.15798387      -0.12404711       0.02499592
H        0.00000000       0.00000000       0.00000000      -0.10122879      -0.06786942      -0.15652683
H        0.00000000       0.00000000       0.00000000      -0.01882583       0.07689786      -0.11734173
O        0.00000000       0.00000000       0.00000000      -1.59696591       0.80259222       0.58031404
H        0.00000000       0.00000000       0.00000000       0.03831808       0.18321717       0.36979222
H        0.00000000       0.00000000       0.00000000       0.26388472      -0.51511908      -0.73104733
H        0.00000000       0.00000000       0.00000000       1.25683403      -0.35567170       0.02981372
7
Lattice="529.1772105638412 0.0 0.0 0.0 529.1772105638412 0.0 0.0 0.0 529.1772105638412" Properties=species:S:1:pos:R:3:forces_component_raw:R:3 ipi_comment="Step:        9620  Bead:       0 forces_component_raw{ase}  cell{ase}" pbc="T T T"
O        0.00000000       0.00000000       0.00000000       0.23982060       0.14327492       0.70230723
H        0.00000000       0.00000000       0.00000000      -0.02797566       0.01312506      -0.19856158
H        0.00000000       0.00000000       0.00000000       0.04248947       0.06716084      -0.29003257
O        0.00000000       0.00000000       0.00000000      -0.52974951       0.19627088      -0.28370422
H        0.00000000       0.00000000       0.00000000      -0.51554465      -0.36080727      -0.45085552
H        0.00000000       0.00000000       0.00000000       0.15902478       0.09035110       0.30422723
H        0.00000000       0.00000000       0.00000000       0.63193512      -0.14937559       0.21661963
7
Lattice="529.1772105638412 0.0 0.0 0.0 529.1772105638412 0.0 0.0 0.0 529.1772105638412" Properties=species:S:1:pos:R:3:forces_component_raw:R:3 ipi_comment="Step:        9640  Bead:       0 forces_component_raw{ase}  cell{ase}" pbc="T T T"
O        0.00000000       0.00000000       0.00000000      -0.19992515       0.17910513       0.01519671
H        0.00000000       0.00000000       0.00000000      -0.13914153      -0.29908753      -0.46337763
H        0.00000000       0.00000000       0.00000000       0.08431807      -0.36835057       0.69038868
O        0.00000000       0.00000000       0.00000000      -0.06714429      -0.56702304      -1.17723978
H        0.00000000       0.00000000       0.00000000       0.61412412       0.14025965       0.93798280
H        0.00000000       0.00000000       0.00000000      -0.04306462       0.67259145       0.40200281
H        0.00000000       0.00000000       0.00000000      -0.24916664       0.24250513      -0.40495348
7
Lattice="529.1772105638412 0.0 0.0 0.0 529.1772105638412 0.0 0.0 0.0 529.1772105638412" Properties=species:S:1:pos:R:3:forces_component_raw:R:3 ipi_comment="Step:        9660  Bead:       0 forces_component_raw{ase}  cell{ase}" pbc="T T T"
O        0.00000000       0.00000000       0.00000000       0.39830217       1.20332349       0.86057317
H        0.00000000       0.00000000       0.00000000      -0.18412904      -0.00719914      -0.42742550
H        0.00000000       0.00000000       0.00000000      -0.01731570      -0.73015821      -0.23864308
O        0.00000000       0.00000000       0.00000000       1.07027078      -1.59963107       0.28733164
H        0.00000000       0.00000000       0.00000000      -0.54306859      -0.56455767      -0.48519647
H        0.00000000       0.00000000       0.00000000      -0.03653595       1.13364566       0.35409379
H        0.00000000       0.00000000       0.00000000      -0.68752372       0.56457722      -0.35073349
7
Lattice="529.1772105638412 0.0 0.0 0.0 529.1772105638412 0.0 0.0 0.0 529.1772105638412" Properties=species:S:1:pos:R:3:forces_component_raw:R:3 ipi_comment="Step:        9680  Bead:       0 forces_component_raw{ase}  cell{ase}" pbc="T T T"
O        0.00000000       0.00000000       0.00000000      -1.33394933      -0.14872757      -1.43894351
H        0.00000000       0.00000000       0.00000000       0.86220074       0.58208364       0.90198147
H        0.00000000       0.00000000       0.00000000       0.42712689      -0.47790378       0.53968936
O        0.00000000       0.00000000       0.00000000      -0.10587943      -1.08701158      -0.50405717
H        0.00000000       0.00000000       0.00000000      -0.00270802       0.44038051      -0.09349088
H        0.00000000       0.00000000       0.00000000       0.18543530       0.58864260       0.19932434
H        0.00000000       0.00000000       0.00000000      -0.03222605       0.10253620       0.39549631
7
Lattice="529.1772105638412 0.0 0.0 0.0 529.1772105638412 0.0 0.0 0.0 529.1772105638412" Properties=species:S:1:pos:R:3:forces_component_raw:R:3 ipi_comment="Step:        9700  Bead:       0 forces_component_raw{ase}  cell{ase}" pbc="T T T"
O        0.00000000       0.00000000       0.00000000      -0.73262572       0.29465103      -0.72777456
H        0.00000000       0.00000000       0.00000000       0.48809862       1.28605998       0.36643145
H        0.00000000       0.00000000       0.00000000      -0.06630604      -1.13480222      -0.17016628
O        0.00000000       0.00000000       0.00000000      -0.23490730       0.52527589      -0.08570898
H        0.00000000       0.00000000       0.00000000       0.50743884      -0.54169291      -0.07424179
H        0.00000000       0.00000000       0.00000000      -0.04902722       0.32550317       0.43448576
H        0.00000000       0.00000000       0.00000000       0.08732875      -0.75499499       0.25697422
7
Lattice="529.1772105638412 0.0 0.0 0.0 529.1772105638412 0.0 0.0 0.0 529.1772105638412" Properties=species:S:1:pos:R:3:forces_component_raw:R:3 ipi_comment="Step:        9720  Bead:       0 forces_component_raw{ase}  cell{ase}" pbc="T T T"
O        0.00000000       0.00000000       0.00000000      -0.64812303      -1.49155772      -2.04259968
H        0.00000000       0.00000000       0.00000000       0.93245161       0.74831170       0.74902105
H        0.00000000       0.00000000       0.00000000       0.24892485       0.18156242       0.75634056
O        0.00000000       0.00000000       0.00000000       0.10386370       1.13331437      -0.32636783
H        0.00000000       0.00000000       0.00000000      -0.73139858       0.85336125       0.25708935
H        0.00000000       0.00000000       0.00000000       0.01733157       0.16820702       0.23394209
H        0.00000000       0.00000000       0.00000000       0.07694986      -1.59319914       0.37257460
7
Lattice="529.1772105638412 0.0 0.0 0.0 529.1772105638412 0.0 0.0 0.0 529.1772105638412" Properties=species:S:1:pos:R:3:forces_component_raw:R:3 ipi_comment="Step:        9740  Bead:       0 forces_component_raw{ase}  cell{ase}" pbc="T T T"
O        0.00000000       0.00000000       0.00000000       0.03694612      -0.45001397       1.48238969
H        0.00000000       0.00000000       0.00000000      -0.03090425       1.21400774       0.14237988
H        0.00000000       0.00000000       0.00000000      -0.33200497      -0.43239969      -0.75485617
O        0.00000000       0.00000000       0.00000000      -0.06816536       1.67440582      -1.00162935
H        0.00000000       0.00000000       0.00000000       0.44055399      -0.90303415      -0.56308609
H        0.00000000       0.00000000       0.00000000      -0.08000009      -0.15215427       0.48767382
H        0.00000000       0.00000000       0.00000000       0.03357452      -0.95081145       0.20712823
7
Lattice="529.1772105638412 0.0 0.0 0.0 529.1772105638412 0.0 0.0 0.0 529.1772105638412" Properties=species:S:1:pos:R:3:forces_component_raw:R:3 ipi_comment="Step:        9760  Bead:       0 forces_component_raw{ase}  cell{ase}" pbc="T T T"
O        0.00000000       0.00000000       0.00000000      -0.42149910      -0.74949765      -1.00283993
H        0.00000000       0.00000000       0.00000000       0.45201597      -0.76816195       0.27749261
H        0.00000000       0.00000000       0.00000000       0.00170304       0.96362275       0.82522518
O        0.00000000       0.00000000       0.00000000      -0.11028419      -0.96482730      -0.16901547
H        0.00000000       0.00000000       0.00000000       0.15550029       1.15935672       0.42417893
H        0.00000000       0.00000000       0.00000000       0.03433951       0.57014108      -0.35196298
H        0.00000000       0.00000000       0.00000000      -0.11177541      -0.21063355      -0.00307840
7
Lattice="529.1772105638412 0.0 0.0 0.0 529.1772105638412 0.0 0.0 0.0 529.1772105638412" Properties=species:S:1:pos:R:3:forces_component_raw:R:3 ipi_comment="Step:        9780  Bead:       0 forces_component_raw{ase}  cell{ase}" pbc="T T T"
O        0.00000000       0.00000000       0.00000000      -0.41435698       1.65437055       2.43018532
H        0.00000000       0.00000000       0.00000000       0.19032124      -1.02847100      -1.43320847
H        0.00000000       0.00000000       0.00000000       0.14371595      -0.22271313      -1.08155585
O        0.00000000       0.00000000       0.00000000      -0.07209210      -1.41375542       1.65370143
H        0.00000000       0.00000000       0.00000000      -0.21024385      -0.78463334      -0.18612340
H        0.00000000       0.00000000       0.00000000       0.09268372       0.16871327       0.29823089
H        0.00000000       0.00000000       0.00000000       0.26997197       1.62648917      -1.68123019
7
Lattice="529.1772105638412 0.0 0.0 0.0 529.1772105638412 0.0 0.0 0.0 529.1772105638412" Properties=species:S:1:pos:R:3:forces_component_raw:R:3 ipi_comment="Step:        9800  Bead:       0 forces_component_raw{ase}  cell{ase}" pbc="T T T"
O        0.00000000       0.00000000       0.00000000      -1.24383724       0.96060151      -0.93900162
H        0.00000000       0.00000000       0.00000000       1.79605842      -1.76736975      -0.13313171
H        0.00000000       0.00000000       0.00000000      -0.40543833       0.65198231       0.28534558
O        0.00000000       0.00000000       0.00000000      -0.97557533      -2.82702256       3.73807360
H        0.00000000       0.00000000       0.00000000      -0.02918446       0.79256982       0.49985170
H        0.00000000       0.00000000       0.00000000       0.06565481       0.28628117      -0.55561686
H        0.00000000       0.00000000       0.00000000       0.79232204       1.90295780      -2.89552069
7
Lattice="529.1772105638412 0.0 0.0 0.0 529.1772105638412 0.0 0.0 0.0 529.1772105638412" Properties=species:S:1:pos:R:3:forces_component_raw:R:3 ipi_comment="Step:        9820  Bead:       0 forces_component_raw{ase}  cell{ase}" pbc="T T T"
O        0.00000000       0.00000000       0.00000000      -0.90689659       1.93063689       1.91405678
H        0.00000000       0.00000000       0.00000000       0.62082547      -1.43176890      -1.01319456
H        0.00000000       0.00000000       0.00000000       0.26909182      -0.44594839      -0.47224063
O        0.00000000       0.00000000       0.00000000      -0.03796008       0.13446033       1.75334454
H        0.00000000       0.00000000       0.00000000      -0.04627439      -0.11166331      -0.50164765
H        0.00000000       0.00000000       0.00000000      -0.83377761      -1.02213204      -0.21221724
H        0.00000000       0.00000000       0.00000000       0.93499148       0.94641543      -1.46810091
7
Lattice="529.1772105638412 0.0 0.0 0.0 529.1772105638412 0.0 0.0 0.0 529.1772105638412" Properties=species:S:1:pos:R:3:forces_component_raw:R:3 ipi_comment="Step:        9840  Bead:       0 forces_component_raw{ase}  cell{ase}" pbc="T T T"
O        0.00000000       0.00000000       0.00000000      -1.62327445       0.09454618      -0.91221845
H        0.00000000       0.00000000       0.00000000       0.98764467      -0.33113116       0.16801250
H        0.00000000       0.00000000       0.00000000       0.41407836       0.46140412       0.41989943
O        0.00000000       0.00000000       0.00000000       1.21856904       0.90126831       1.05669499
H        0.00000000       0.00000000       0.00000000       0.20446774      -0.33140636       0.16897437
H        0.00000000       0.00000000       0.00000000      -1.03269387      -0.69599664      -0.73288632
H        0.00000000       0.00000000       0.00000000      -0.16879147      -0.09868434      -0.16847658
7
Lattice="529.1772105638412 0.0 0.0 0.0 529.1772105638412 0.0 0.0 0.0 529.1772105638412" Properties=species:S:1:pos:R:3:forces_component_raw:R:3 ipi_comment="Step:        9860  Bead:       0 forces_component_raw{ase}  cell{ase}" pbc="T T T"
O        0.00000000       0.00000000       0.00000000      -0.39467499      -1.02942515      -0.51696563
H        0.00000000       0.00000000       0.00000000      -0.99542165       0.07057156       0.21302053
H        0.00000000       0.00000000       0.00000000       1.44958735       0.56100446       0.09242518
O        0.00000000       0.00000000       0.00000000       2.02079273       0.36725047      -0.08622670
H        0.00000000       0.00000000       0.00000000      -0.22346874       0.65199208       0.07281170
H        0.00000000       0.00000000       0.00000000      -1.13962853      -0.28960118      -0.44437555
H        0.00000000       0.00000000       0.00000000      -0.71718621      -0.33179233       0.66931045
7
Lattice="529.1772105638412 0.0 0.0 0.0 529.1772105638412 0.0 0.0 0.0 529.1772105638412" Properties=species:S:1:pos:R:3:forces_component_raw:R:3 ipi_comment="Step:        9880  Bead:       0 forces_component_raw{ase}  cell{ase}" pbc="T T T"
O        0.00000000       0.00000000       0.00000000       0.66533113      -0.66209561      -1.45269502
H        0.00000000       0.00000000       0.00000000      -1.34290028       0.35747323       1.26653827
H        0.00000000       0.00000000       0.00000000       0.51336068       0.65365434       0.44407025
O        0.00000000       0.00000000       0.00000000       1.22766221       0.56768859      -0.42455599
H        0.00000000       0.00000000       0.00000000       0.26158878      -0.58136022      -0.24107046
H        0.00000000       0.00000000       0.00000000       0.03565013       0.08934407      -0.28394431
H        0.00000000       0.00000000       0.00000000      -1.36069286      -0.42470446       0.69165725
7
Lattice="529.1772105638412 0.0 0.0 0.0 529.1772105638412 0.0 0.0 0.0 529.1772105638412" Properties=species:S:1:pos:R:3:forces_component_raw:R:3 ipi_comment="Step:        9900  Bead:       0 forces_component_raw{ase}  cell{ase}" pbc="T T T"
O        0.00000000       0.00000000       0.00000000       2.36642623       0.65809488      -1.03475118
H        0.00000000       0.00000000       0.00000000      -2.56192446      -0.55481506       1.62659264
H        0.00000000       0.00000000       0.00000000       0.28119862       0.02696416      -0.24250577
O        0.00000000       0.00000000       0.00000000      -0.28521580       0.87641049      -2.33748842
H        0.00000000       0.00000000       0.00000000       0.01388171      -0.16836011      -0.22320463
H        0.00000000       0.00000000       0.00000000       1.11154926      -0.48590937       0.80924857
H        0.00000000       0.00000000       0.00000000      -0.92591572      -0.35238510       1.40210891
7
Lattice="529.1772105638412 0.0 0.0 0.0 529.1772105638412 0.0 0.0 0.0 529.1772105638412" Properties=species:S:1:pos:R:3:forces_component_raw:R:3 ipi_comment="Step:        9920  Bead:       0 forces_component_raw{ase}  cell{ase}" pbc="T T T"
O        0.00000000       0.00000000       0.00000000       2.15356541       0.73237974      -1.80834365
H        0.00000000       0.00000000       0.00000000      -1.90376354      -0.81641877       1.94629384
H        0.00000000       0.00000000       0.00000000      -0.15376067      -0.24242863      -0.03274973
O        0.00000000       0.00000000       0.00000000      -0.32074288       0.15452555      -0.66092777
H        0.00000000       0.00000000       0.00000000      -0.26656559       0.61548442      -0.09840179
H        0.00000000       0.00000000       0.00000000       1.88080037      -0.58031070      -0.08798073
H        0.00000000       0.00000000       0.00000000      -1.38953352       0.13676858       0.74211002
7
Lattice="529.1772105638412 0.0 0.0 0.0 529.1772105638412 0.0 0.0 0.0 529.1772105638412" Properties=species:S:1:pos:R:3:forces_component_raw:R:3 ipi_comment="Step:        9940  Bead:       0 forces_component_raw{ase}  cell{ase}" pbc="T T T"
O        0.00000000       0.00000000       0.00000000       0.22093201       0.77102685       0.45254827
H        0.00000000       0.00000000       0.00000000       0.01056486      -0.24780446      -0.45866543
H        0.00000000       0.00000000       0.00000000       0.06572399      -0.34304366      -0.25834075
O        0.00000000       0.00000000       0.00000000      -1.28535700       1.33135820      -2.24132371
H        0.00000000       0.00000000       0.00000000      -0.10825068      -0.34578520       0.02759068
H        0.00000000       0.00000000       0.00000000       1.46782863      -1.11064649       0.89643491
H        0.00000000       0.00000000       0.00000000      -0.37144178      -0.05510528       1.58175612
7
Lattice="529.1772105638412 0.0 0.0 0.0 529.1772105638412 0.0 0.0 0.0 529.1772105638412" Properties=species:S:1:pos:R:3:forces_component_raw:R:3 ipi_comment="Step:        9960  Bead:       0 forces_component_raw{ase}  cell{ase}" pbc="T T T"
O        0.00000000       0.00000000       0.00000000      -0.61869019      -1.39644504       0.53157503
H        0.00000000       0.00000000       0.00000000       0.97534347       1.41496933      -0.47135154
H        0.00000000       0.00000000       0.00000000      -0.40125766      -0.32139319       0.32452503
O        0.00000000       0.00000000       0.00000000      -0.62743467       0.49493426       0.01491745
H        0.00000000       0.00000000       0.00000000       0.05755744       0.32395360      -0.54907918
H        0.00000000       0.00000000       0.00000000       1.34347129      -0.70962233       0.01819657
H        0.00000000       0.00000000       0.00000000      -0.72898972       0.19360337       0.13121656
7
Lattice="529.1772105638412 0.0 0.0 0.0 529.1772105638412 0.0 0.0 0.0 529.1772105638412" Properties=species:S:1:pos:R:3:forces_component_raw:R:3 ipi_comment="Step:        9980  Bead:       0 forces_component_raw{ase}  cell{ase}" pbc="T T T"
O        0.00000000       0.00000000       0.00000000      -1.03132379      -0.43463332       1.87706268
H        0.00000000       0.00000000       0.00000000       0.88917875       0.45217729      -1.48711276
H        0.00000000       0.00000000       0.00000000       0.23008189       0.19546741      -0.16465615
O        0.00000000       0.00000000       0.00000000      -0.41579801       0.00759399      -0.75821281
H        0.00000000       0.00000000       0.00000000       0.03130808      -0.00918898       0.69972795
H        0.00000000       0.00000000       0.00000000      -0.25864172      -0.03969468       0.03074849
H        0.00000000       0.00000000       0.00000000       0.55519486      -0.17172170      -0.19755760
7
Lattice="529.1772105638412 0.0 0.0 0.0 529.1772105638412 0.0 0.0 0.0 529.1772105638412" Properties=species:S:1:pos:R:3:forces_component_raw:R:3 ipi_comment="Step:       10000  Bead:       0 forces_component_raw{ase}  cell{ase}" pbc="T T T"
O        0.00000000       0.00000000       0.00000000      -0.46186227      -1.19918347       0.74237615
H        0.00000000       0.00000000       0.00000000       0.44137412       1.20739794      -0.85054648
H        0.00000000       0.00000000       0.00000000      -0.10721760      -0.05195165       0.34670410
O        0.00000000       0.00000000       0.00000000      -0.49393922      -0.33821517       1.06051266
H        0.00000000       0.00000000       0.00000000       0.08901337       0.12405184      -0.06126605
H        0.00000000       0.00000000       0.00000000      -0.41046435       0.32516855      -0.47075248
H        0.00000000       0.00000000       0.00000000       0.94309575      -0.06726806      -0.76702786
7
Lattice="529.1772105638412 0.0 0.0 0.0 529.1772105638412 0.0 0.0 0.0 529.1772105638412" Properties=species:S:1:pos:R:3:forces_component_raw:R:3 ipi_comment="Step:       10020  Bead:       0 forces_component_raw{ase}  cell{ase}" pbc="T T T"
O        0.00000000       0.00000000       0.00000000      -0.38512561      -0.33146358       1.21434510
H        0.00000000       0.00000000       0.00000000       0.20721898       0.41881186      -0.85951400
H        0.00000000       0.00000000       0.00000000       0.08259244       0.00196224      -0.24126931
O        0.00000000       0.00000000       0.00000000      -1.22343803      -0.41292921       2.19237757
H        0.00000000       0.00000000       0.00000000       0.16791824      -0.16083780      -0.13419676
H        0.00000000       0.00000000       0.00000000      -1.20184291       0.88772339      -1.01837898
H        0.00000000       0.00000000       0.00000000       2.35267687      -0.40326688      -1.15336347
7
Lattice="529.1772105638412 0.0 0.0 0.0 529.1772105638412 0.0 0.0 0.0 529.1772105638412" Properties=species:S:1:pos:R:3:forces_component_raw:R:3 ipi_comment="Step:       10040  Bead:       0 forces_component_raw{ase}  cell{ase}" pbc="T T T"
O        0.00000000       0.00000000       0.00000000      -0.21639383      -0.34020808       0.42111418
H        0.00000000       0.00000000       0.00000000      -0.15359485       1.00991190      -0.67628497
H        0.00000000       0.00000000       0.00000000       0.29422787      -0.55961764      -0.06080076
O        0.00000000       0.00000000       0.00000000      -0.54111385      -0.53383774       1.51423180
H        0.00000000       0.00000000       0.00000000      -0.09888041       0.11586106       0.85369659
H        0.00000000       0.00000000       0.00000000      -1.16030407       0.94045896      -0.94833213
H        0.00000000       0.00000000       0.00000000       1.87605906      -0.63256854      -1.10362482
7
Lattice="529.1772105638412 0.0 0.0 0.0 529.1772105638412 0.0 0.0 0.0 529.1772105638412" Properties=species:S:1:pos:R:3:forces_component_raw:R:3 ipi_comment="Step:       10060  Bead:       0 forces_component_raw{ase}  cell{ase}" pbc="T T T"
O        0.00000000       0.00000000       0.00000000      -0.35780335      -0.03501187       0.81363714
H        0.00000000       0.00000000       0.00000000      -0.04607618       0.35807881      -0.23321639
H        0.00000000       0.00000000       0.00000000       0.36968854      -0.64267975      -0.82870722
O        0.00000000       0.00000000       0.00000000      -0.46464640       0.13238007       2.16411973
H        0.00000000       0.00000000       0.00000000       0.13100591       0.17973104      -0.24144144
H        0.00000000       0.00000000       0.00000000      -0.60988838       0.42133451      -0.75929797
H        0.00000000       0.00000000       0.00000000       0.97771979      -0.41383278      -0.91509384
7
Lattice="529.1772105638412 0.0 0.0 0.0 529.1772105638412 0.0 0.0 0.0 529.1772105638412" Properties=species:S:1:pos:R:3:forces_component_raw:R:3 ipi_comment="Step:       10080  Bead:       0 forces_component_raw{ase}  cell{ase}" pbc="T T T"
O        0.00000000       0.00000000       0.00000000      -0.63293743       0.95647407      -0.74856186
H        0.00000000       0.00000000       0.00000000       0.01387006      -0.45339668       0.59868169
H        0.00000000       0.00000000       0.00000000       0.58591092      -0.66336107      -0.23179179
O        0.00000000       0.00000000       0.00000000      -0.27769002       0.24621329      -0.19480771
H        0.00000000       0.00000000       0.00000000       0.06437211      -0.04012461      -0.02703322
H        0.00000000       0.00000000       0.00000000      -0.11005443       0.06167510       0.23654887
H        0.00000000       0.00000000       0.00000000       0.35652891      -0.10748020       0.36696401
7
Lattice="529.1772105638412 0.0 0.0 0.0 529.1772105638412 0.0 0.0 0.0 529.1772105638412" Properties=species:S:1:pos:R:3:forces_component_raw:R:3 ipi_comment="Step:       10100  Bead:       0 forces_component_raw{ase}  cell{ase}" pbc="T T T"
O        0.00000000       0.00000000       0.00000000      -0.25855345       0.32876235      -0.64594561
H        0.00000000       0.00000000       0.00000000       0.18098828      -0.48617306       0.22827980
H        0.00000000       0.00000000       0.00000000       0.12643206       0.04749596      -0.11552463
O        0.00000000       0.00000000       0.00000000       0.51036561      -0.01232943       0.36177284
H        0.00000000       0.00000000       0.00000000      -0.34827453      -0.16184875      -0.06074874
H        0.00000000       0.00000000       0.00000000       0.51085496      -0.54957426      -0.21420685
H        0.00000000       0.00000000       0.00000000      -0.72181314       0.83366716       0.44637320
7
Lattice="529.1772105638412 0.0 0.0 0.0 529.1772105638412 0.0 0.0 0.0 529.1772105638412" Properties=species:S:1:pos:R:3:forces_component_raw:R:3 ipi_comment="Step:       10120  Bead:       0 forces_component_raw{ase}  cell{ase}" pbc="T T T"
O        0.00000000       0.00000000       0.00000000       0.21452722      -0.86225397      -1.19895911
H        0.00000000       0.00000000       0.00000000       0.05465004       0.05422503      -0.05274656
H        0.00000000       0.00000000       0.00000000      -0.60489631       0.68611372       0.54669112
O        0.00000000       0.00000000       0.00000000       0.82619524      -0.39160001      -2.30237842
H        0.00000000       0.00000000       0.00000000       0.11766370       0.04487078       0.11337920
H        0.00000000       0.00000000       0.00000000       0.30732042      -0.32924187       1.12279868
H        0.00000000       0.00000000       0.00000000      -0.91546023       0.79788631       1.77121497
7
Lattice="529.1772105638412 0.0 0.0 0.0 529.1772105638412 0.0 0.0 0.0 529.1772105638412" Properties=species:S:1:pos:R:3:forces_component_raw:R:3 ipi_comment="Step:       10140  Bead:       0 forces_component_raw{ase}  cell{ase}" pbc="T T T"
O        0.00000000       0.00000000       0.00000000       0.40385991      -1.47092307       0.25710622
H        0.00000000       0.00000000       0.00000000       0.08929312       0.43050310      -0.72749579
H        0.00000000       0.00000000       0.00000000      -0.63805133       0.98007906       0.37367824
O        0.00000000       0.00000000       0.00000000       0.60522992      -0.10858831      -0.21315461
H        0.00000000       0.00000000       0.00000000      -0.14491716       0.20781696      -0.28256881
H        0.00000000       0.00000000       0.00000000       1.26767755      -1.33842731       0.58742333
H        0.00000000       0.00000000       0.00000000      -1.58309222       1.29953945       0.00501139
7
Lattice="529.1772105638412 0.0 0.0 0.0 529.1772105638412 0.0 0.0 0.0 529.1772105638412" Properties=species:S:1:pos:R:3:forces_component_raw:R:3 ipi_comment="Step:       10160  Bead:       0 forces_component_raw{ase}  cell{ase}" pbc="T T T"
O        0.00000000       0.00000000       0.00000000       0.13292539       0.01361978       0.33241603
H        0.00000000       0.00000000       0.00000000      -0.07815622       0.13817799      -0.11598432
H        0.00000000       0.00000000       0.00000000      -0.01493619       0.12764001       0.21659395
O        0.00000000       0.00000000       0.00000000       0.10319811       0.14687014      -2.86286975
H        0.00000000       0.00000000       0.00000000       0.30842298       0.03086814       0.33999592
H        0.00000000       0.00000000       0.00000000       0.13864496      -0.64440286       1.23592818
H        0.00000000       0.00000000       0.00000000      -0.59009886       0.18722677       0.85392004
7
Lattice="529.1772105638412 0.0 0.0 0.0 529.1772105638412 0.0 0.0 0.0 529.1772105638412" Properties=species:S:1:pos:R:3:forces_component_raw:R:3 ipi_comment="Step:       10180  Bead:       0 forces_component_raw{ase}  cell{ase}" pbc="T T T"
O        0.00000000       0.00000000       0.00000000       0.48989380       0.34214792       1.22921562
H        0.00000000       0.00000000       0.00000000      -0.03022263      -0.00410885       0.10980219
H        0.00000000       0.00000000       0.00000000      -0.03390448      -0.20518574      -0.27088517
O        0.00000000       0.00000000       0.00000000      -0.75366348       0.50989187      -0.31448919
H        0.00000000       0.00000000       0.00000000      -0.35544995       0.11611523      -0.13772611
H        0.00000000       0.00000000       0.00000000       0.42973760      -0.65709031       0.08610030
H        0.00000000       0.00000000       0.00000000       0.25360900      -0.10177028      -0.70201779
7
Lattice="529.1772105638412 0.0 0.0 0.0 529.1772105638412 0.0 0.0 0.0 529.1772105638412" Properties=species:S:1:pos:R:3:forces_component_raw:R:3 ipi_comment="Step:       10200  Bead:       0 forces_component_raw{ase}  cell{ase}" pbc="T T T"
O        0.00000000       0.00000000       0.00000000       0.38473666       1.20849061       0.32475406
H        0.00000000       0.00000000       0.00000000      -0.21538575      -0.49906451       0.46820688
H        0.00000000       0.00000000       0.00000000      -0.05665015      -0.46179539      -0.27259654
O        0.00000000       0.00000000       0.00000000      -0.85438478       0.51408678       0.01126534
H        0.00000000       0.00000000       0.00000000       0.17000029      -0.38958299      -0.14718358
H        0.00000000       0.00000000       0.00000000      -0.35364992       0.08645383      -0.06645870
H        0.00000000       0.00000000       0.00000000       0.92533350      -0.45858830      -0.31798732
7
Lattice="529.1772105638412 0.0 0.0 0.0 529.1772105638412 0.0 0.0 0.0 529.1772105638412" Properties=species:S:1:pos:R:3:forces_component_raw:R:3 ipi_comment="Step:       10220  Bead:       0 forces_component_raw{ase}  cell{ase}" pbc="T T T"
O        0.00000000       0.00000000       0.00000000       0.21582666       0.34061074      -1.07897604
H        0.00000000       0.00000000       0.00000000      -0.32795206      -0.44848108       0.80765647
H        0.00000000       0.00000000       0.00000000      -0.10580701      -0.21691811      -0.07732672
O        0.00000000       0.00000000       0.00000000       0.20365816      -0.53254098       2.17126203
H        0.00000000       0.00000000       0.00000000      -0.03102392       0.28367573      -0.17121099
H        0.00000000       0.00000000       0.00000000      -0.83291453       0.85618705      -0.87063778
H        0.00000000       0.00000000       0.00000000       0.87821275      -0.28253353      -0.78076714
7
Lattice="529.1772105638412 0.0 0.0 0.0 529.1772105638412 0.0 0.0 0.0 529.1772105638412" Properties=species:S:1:pos:R:3:forces_component_raw:R:3 ipi_comment="Step:       10240  Bead:       0 forces_component_raw{ase}  cell{ase}" pbc="T T T"
O        0.00000000       0.00000000       0.00000000      -0.06447523       0.59741056      -1.36479628
H        0.00000000       0.00000000       0.00000000      -0.38839159      -0.61804366       0.57308126
H        0.00000000       0.00000000       0.00000000       0.18374524      -0.01660156       0.01209956
O        0.00000000       0.00000000       0.00000000       0.80111998      -0.48960006       1.47046614
H        0.00000000       0.00000000       0.00000000       0.03656354      -0.18904290       0.19027174
H        0.00000000       0.00000000       0.00000000      -1.06753195       0.94191021      -0.67212427
H        0.00000000       0.00000000       0.00000000       0.49897003      -0.22603265      -0.20899788
7
Lattice="529.1772105638412 0.0 0.0 0.0 529.1772105638412 0.0 0.0 0.0 529.1772105638412" Properties=species:S:1:pos:R:3:forces_component_raw:R:3 ipi_comment="Step:       10260  Bead:       0 forces_component_raw{ase}  cell{ase}" pbc="T T T"
O        0.00000000       0.00000000       0.00000000       0.01553379      -0.56444091      -1.02405250
H        0.00000000       0.00000000       0.00000000      -0.10630712      -0.19328582       0.31129712
H        0.00000000       0.00000000       0.00000000       0.00321661       0.49207181       0.13918822
O        0.00000000       0.00000000       0.00000000       0.95075178      -0.50070232       0.43545213
H        0.00000000       0.00000000       0.00000000      -0.12017550       0.27423224       0.19550306
H        0.00000000       0.00000000       0.00000000      -0.50869298       0.45897234      -0.31456003
H        0.00000000       0.00000000       0.00000000      -0.23432657       0.03315276       0.25717205
7
Lattice="529.1772105638412 0.0 0.0 0.0 529.1772105638412 0.0 0.0 0.0 529.1772105638412" Properties=species:S:1:pos:R:3:forces_component_raw:R:3 ipi_comment="Step:       10280  Bead:       0 forces_component_raw{ase}  cell{ase}" pbc="T T T"
O        0.00000000       0.00000000       0.00000000       0.20837477      -0.68447805       0.02269369
H        0.00000000       0.00000000       0.00000000      -0.11846074      -0.28520021       0.11701918
H        0.00000000       0.00000000       0.00000000       0.00950988       0.90665209       0.12236954
O        0.00000000       0.00000000       0.00000000       0.17925304       0.34306872      -0.49954155
H        0.00000000       0.00000000       0.00000000       0.19541866      -0.05120063      -0.43833613
H        0.00000000       0.00000000       0.00000000       0.09147328      -0.22876826      -0.28610238
H        0.00000000       0.00000000       0.00000000      -0.56556898      -0.00007352       0.96189749
7
Lattice="529.1772105638412 0.0 0.0 0.0 529.1772105638412 0.0 0.0 0.0 529.1772105638412" Properties=species:S:1:pos:R:3:forces_component_raw:R:3 ipi_comment="Step:       10300  Bead:       0 forces_component_raw{ase}  cell{ase}" pbc="T T T"
O        0.00000000       0.00000000       0.00000000       0.30728835      -0.45126852      -0.43097872
H        0.00000000       0.00000000       0.00000000      -0.02911137       0.15255040       0.15464333
H        0.00000000       0.00000000       0.00000000      -0.09791522       0.38130266       0.47355104
O        0.00000000       0.00000000       0.00000000      -0.19542356       0.08457190      -1.89806688
H        0.00000000       0.00000000       0.00000000      -0.19829935       0.23459524       0.77609229
H        0.00000000       0.00000000       0.00000000       0.60518527      -0.28764471       0.40888122
H        0.00000000       0.00000000       0.00000000      -0.39172423      -0.11410686       0.51587772
7
Lattice="529.1772105638412 0.0 0.0 0.0 529.1772105638412 0.0 0.0 0.0 529.1772105638412" Properties=species:S:1:pos:R:3:forces_component_raw:R:3 ipi_comment="Step:       10320  Bead:       0 forces_component_raw{ase}  cell{ase}" pbc="T T T"
O        0.00000000       0.00000000       0.00000000      -0.23988622      -0.08098770       1.28731418
H        0.00000000       0.00000000       0.00000000       0.14709505      -0.13454747      -0.49661511
H        0.00000000       0.00000000       0.00000000       0.06708807       0.10168284      -0.51770502
O        0.00000000       0.00000000       0.00000000      -0.65739072       0.04065663       0.00548196
H        0.00000000       0.00000000       0.00000000       0.31119293       0.15797991      -0.40930122
H        0.00000000       0.00000000       0.00000000       0.80488551      -0.09469103       0.06864986
H        0.00000000       0.00000000       0.00000000      -0.43298444       0.00990674       0.06217541
7
Lattice="529.1772105638412 0.0 0.0 0.0 529.1772105638412 0.0 0.0 0.0 529.1772105638412" Properties=species:S:1:pos:R:3:forces_component_raw:R:3 ipi_comment="Step:       10340  Bead:       0 forces_component_raw{ase}  cell{ase}" pbc="T T T"
O        0.00000000       0.00000000       0.00000000       0.04126468      -0.56271351      -0.84022826
H        0.00000000       0.00000000       0.00000000       0.04928955       0.77122533       0.06640679
H        0.00000000       0.00000000       0.00000000      -0.24854292      -0.23254180       0.36038622
O        0.00000000       0.00000000       0.00000000      -0.44040287       0.20901328      -0.17321605
H        0.00000000       0.00000000       0.00000000       0.07560396      -0.10392231      -0.01811872
H        0.00000000       0.00000000       0.00000000       0.15150481      -0.09270912       0.64628774
H        0.00000000       0.00000000       0.00000000       0.37128264       0.01164806      -0.04151756
7
Lattice="529.1772105638412 0.0 0.0 0.0 529.1772105638412 0.0 0.0 0.0 529.1772105638412" Properties=species:S:1:pos:R:3:forces_component_raw:R:3 ipi_comment="Step:       10360  Bead:       0 forces_component_raw{ase}  cell{ase}" pbc="T T T"
O        0.00000000       0.00000000       0.00000000      -0.45859474      -0.09184635       1.25026739
H        0.00000000       0.00000000       0.00000000       0.31512666       0.37968659      -0.62577069
H        0.00000000       0.00000000       0.00000000       0.17610636      -0.55411530      -1.02649868
O        0.00000000       0.00000000       0.00000000      -0.34827185      -0.28102118       0.88636613
H        0.00000000       0.00000000       0.00000000      -0.15128842       0.19518009      -0.18823791
H        0.00000000       0.00000000       0.00000000       0.19587857       0.15809321       0.15031056
H        0.00000000       0.00000000       0.00000000       0.27104360       0.19402282      -0.44643697
7
Lattice="529.1772105638412 0.0 0.0 0.0 529.1772105638412 0.0 0.0 0.0 529.1772105638412" Properties=species:S:1:pos:R:3:forces_component_raw:R:3 ipi_comment="Step:       10380  Bead:       0 forces_component_raw{ase}  cell{ase}" pbc="T T T"
O        0.00000000       0.00000000       0.00000000      -0.41079086       0.63616717       0.22999844
H        0.00000000       0.00000000       0.00000000       0.14195193       0.68850434      -0.24124005
H        0.00000000       0.00000000       0.00000000       0.19028953      -1.10800195      -0.23019828
O        0.00000000       0.00000000       0.00000000      -1.14095330      -0.72585505       0.83074707
H        0.00000000       0.00000000       0.00000000       0.39069301      -0.12168188       0.55490166
H        0.00000000       0.00000000       0.00000000      -0.40234417      -0.09700596      -0.35600901
H        0.00000000       0.00000000       0.00000000       1.23115397       0.72787333      -0.78819990
7
Lattice="529.1772105638412 0.0 0.0 0.0 529.1772105638412 0.0 0.0 0.0 529.1772105638412" Properties=species:S:1:pos:R:3:forces_component_raw:R:3 ipi_comment="Step:       10400  Bead:       0 forces_component_raw{ase}  cell{ase}" pbc="T T T"
O        0.00000000       0.00000000       0.00000000      -0.35998145       0.41910368       1.47313750
H        0.00000000       0.00000000       0.00000000       0.26942939       0.43654835      -0.33179015
H        0.00000000       0.00000000       0.00000000       0.38065022      -0.84418214      -0.55269957
O        0.00000000       0.00000000       0.00000000       0.01253366      -0.07414152       1.17732358
H        0.00000000       0.00000000       0.00000000      -0.42391172       0.02046059      -0.38416189
H        0.00000000       0.00000000       0.00000000      -0.85934842      -0.37345243      -0.56565029
H        0.00000000       0.00000000       0.00000000       0.98062855       0.41566330      -0.81615913
7
Lattice="529.1772105638412 0.0 0.0 0.0 529.1772105638412 0.0 0.0 0.0 529.1772105638412" Properties=species:S:1:pos:R:3:forces_component_raw:R:3 ipi_comment="Step:       10420  Bead:       0 forces_component_raw{ase}  cell{ase}" pbc="T T T"
O        0.00000000       0.00000000       0.00000000      -0.21355508       0.41861206      -0.29225522
H        0.00000000       0.00000000       0.00000000       0.06640863       0.25322121       0.07223886
H        0.00000000       0.00000000       0.00000000       0.16445605      -0.58607817       0.13110550
O        0.00000000       0.00000000       0.00000000      -0.70336169      -0.29845271       0.70224959
H        0.00000000       0.00000000       0.00000000       0.18263970       0.04198443       0.11288178
H        0.00000000       0.00000000       0.00000000      -0.34052795      -0.14685382      -0.33911747
H        0.00000000       0.00000000       0.00000000       0.84394032       0.31756717      -0.38710305
7
Lattice="529.1772105638412 0.0 0.0 0.0 529.1772105638412 0.0 0.0 0.0 529.1772105638412" Properties=species:S:1:pos:R:3:forces_component_raw:R:3 ipi_comment="Step:       10440  Bead:       0 forces_component_raw{ase}  cell{ase}" pbc="T T T"
O        0.00000000       0.00000000       0.00000000       0.08662295       0.53308672      -0.56305611
H        0.00000000       0.00000000       0.00000000      -0.10856149      -0.42289668       0.10857898
H        0.00000000       0.00000000       0.00000000       0.18740216      -0.07624149       0.03327829
O        0.00000000       0.00000000       0.00000000       0.85247505       0.26748377       0.30171710
H        0.00000000       0.00000000       0.00000000      -0.32814655       0.00018181       0.11954527
H        0.00000000       0.00000000       0.00000000      -0.00711495      -0.04879159      -0.20563281
H        0.00000000       0.00000000       0.00000000      -0.68267703      -0.25282246       0.20556927
7
Lattice="529.1772105638412 0.0 0.0 0.0 529.1772105638412 0.0 0.0 0.0 529.1772105638412" Properties=species:S:1:pos:R:3:forces_component_raw:R:3 ipi_comment="Step:       10460  Bead:       0 forces_component_raw{ase}  cell{ase}" pbc="T T T"
O        0.00000000       0.00000000       0.00000000      -0.10034075      -0.36069298      -0.95280540
H        0.00000000       0.00000000       0.00000000       0.00525926      -0.14840573       0.11796761
H        0.00000000       0.00000000       0.00000000      -0.13038012       0.47448427       0.29244798
O        0.00000000       0.00000000       0.00000000       0.88271129       0.19194643      -0.23618066
H        0.00000000       0.00000000       0.00000000       0.30507749       0.08722042       0.23541096
H        0.00000000       0.00000000       0.00000000       0.34019438       0.02688380       0.38442224
H        0.00000000       0.00000000       0.00000000      -1.30252147      -0.27143601       0.15873757
7
Lattice="529.1772105638412 0.0 0.0 0.0 529.1772105638412 0.0 0.0 0.0 529.1772105638412" Properties=species:S:1:pos:R:3:forces_component_raw:R:3 ipi_comment="Step:       10480  Bead:       0 forces_component_raw{ase}  cell{ase}" pbc="T T T"
O        0.00000000       0.00000000       0.00000000      -0.17476213      -0.74490899       0.83061087
H        0.00000000       0.00000000       0.00000000       0.17038667      -0.01542318      -0.33650667
H        0.00000000       0.00000000       0.00000000      -0.12707976       0.81421948       0.24779752
O        0.00000000       0.00000000       0.00000000       1.33613420       0.03804043      -1.50898409
H        0.00000000       0.00000000       0.00000000       0.10022062      -0.09476019      -0.71934086
H        0.00000000       0.00000000       0.00000000       0.10633573       0.09381846       1.12303937
H        0.00000000       0.00000000       0.00000000      -1.41123534      -0.09098607       0.36338389
7
Lattice="529.1772105638412 0.0 0.0 0.0 529.1772105638412 0.0 0.0 0.0 529.1772105638412" Properties=species:S:1:pos:R:3:forces_component_raw:R:3 ipi_comment="Step:       10500  Bead:       0 forces_component_raw{ase}  cell{ase}" pbc="T T T"
O        0.00000000       0.00000000       0.00000000       0.05783206      -1.08971119      -0.45337552
H        0.00000000       0.00000000       0.00000000       0.22558972       0.91390145       0.01374102
H        0.00000000       0.00000000       0.00000000      -0.35406530       0.01972544       0.45255959
O        0.00000000       0.00000000       0.00000000       0.36067721       0.03097543      -0.50191432
H        0.00000000       0.00000000       0.00000000      -0.28141937       0.15351427       0.11543054
H        0.00000000       0.00000000       0.00000000       0.54385203       0.02455108       0.83656287
H        0.00000000       0.00000000       0.00000000      -0.55246633      -0.05295634      -0.46300399
7
Lattice="529.1772105638412 0.0 0.0 0.0 529.1772105638412 0.0 0.0 0.0 529.1772105638412" Properties=species:S:1:pos:R:3:forces_component_raw:R:3 ipi_comment="Step:       10520  Bead:       0 forces_component_raw{ase}  cell{ase}" pbc="T T T"
O        0.00000000       0.00000000       0.00000000      -1.12805295      -0.60171688       1.59157765
H        0.00000000       0.00000000       0.00000000       0.81396079       0.54494500      -0.99584121
H        0.00000000       0.00000000       0.00000000       0.25661361      -0.01465937      -0.52877092
O        0.00000000       0.00000000       0.00000000      -0.89729440       0.18144667      -0.36587238
H        0.00000000       0.00000000       0.00000000       0.44898966       0.04824099       0.41309458
H        0.00000000       0.00000000       0.00000000      -0.06722248      -0.01385845      -0.22008795
H        0.00000000       0.00000000       0.00000000       0.57300568      -0.14439803       0.10590047
7
Lattice="529.1772105638412 0.0 0.0 0.0 529.1772105638412 0.0 0.0 0.0 529.1772105638412" Properties=species:S:1:pos:R:3:forces_component_raw:R:3 ipi_comment="Step:       10540  Bead:       0 forces_component_raw{ase}  cell{ase}" pbc="T T T"
O        0.00000000       0.00000000       0.00000000       0.39216453      -0.03795668      -0.26785165
H        0.00000000       0.00000000       0.00000000       0.54305726       1.17932534       0.25981289
H        0.00000000       0.00000000       0.00000000      -0.59714520      -0.90104401       0.13050428
O        0.00000000       0.00000000       0.00000000       0.42407239       0.16138414       1.24463761
H        0.00000000       0.00000000       0.00000000      -0.67841494      -0.04113092      -0.30624390
H        0.00000000       0.00000000       0.00000000      -0.57185650      -0.31001234      -0.63199604
H        0.00000000       0.00000000       0.00000000       0.48812252      -0.05056550      -0.42886311
7
Lattice="529.1772105638412 0.0 0.0 0.0 529.1772105638412 0.0 0.0 0.0 529.1772105638412" Properties=species:S:1:pos:R:3:forces_component_raw:R:3 ipi_comment="Step:       10560  Bead:       0 forces_component_raw{ase}  cell{ase}" pbc="T T T"
O        0.00000000       0.00000000       0.00000000      -1.59990597       0.28714338      -0.07651576
H        0.00000000       0.00000000       0.00000000       0.76170367      -0.23760483       0.11802282
H        0.00000000       0.00000000       0.00000000       0.69857264      -0.06722885      -0.34610131
O        0.00000000       0.00000000       0.00000000       0.14453107       0.31584734       1.20804024
H        0.00000000       0.00000000       0.00000000       0.19361582       0.08641236       0.04580958
H        0.00000000       0.00000000       0.00000000      -1.15804160      -0.05999762      -0.76896686
H        0.00000000       0.00000000       0.00000000       0.95952445      -0.32457173      -0.18028888
7
Lattice="529.1772105638412 0.0 0.0 0.0 529.1772105638412 0.0 0.0 0.0 529.1772105638412" Properties=species:S:1:pos:R:3:forces_component_raw:R:3 ipi_comment="Step:       10580  Bead:       0 forces_component_raw{ase}  cell{ase}" pbc="T T T"
O        0.00000000       0.00000000       0.00000000       0.03957827       0.62979162      -0.52230805
H        0.00000000       0.00000000       0.00000000       0.32700124       0.23269531       0.49699420
H        0.00000000       0.00000000       0.00000000      -0.30280066      -0.43599948      -0.15661609
O        0.00000000       0.00000000       0.00000000       1.32652617       0.29100800       0.75745332
H        0.00000000       0.00000000       0.00000000      -0.46744812      -0.75835538       0.43422252
H        0.00000000       0.00000000       0.00000000      -0.78345955       0.05491847      -0.78534186
H        0.00000000       0.00000000       0.00000000      -0.13939750      -0.01405856      -0.22440392
7
Lattice="529.1772105638412 0.0 0.0 0.0 529.1772105638412 0.0 0.0 0.0 529.1772105638412" Properties=species:S:1:pos:R:3:forces_component_raw:R:3 ipi_comment="Step:       10600  Bead:       0 forces_component_raw{ase}  cell{ase}" pbc="T T T"
O        0.00000000       0.00000000       0.00000000      -0.67320907      -0.66139484       1.87390078
H        0.00000000       0.00000000       0.00000000      -0.17898601      -0.23671466      -0.32278863
H        0.00000000       0.00000000       0.00000000       0.41088620       0.23266858      -0.77473033
O        0.00000000       0.00000000       0.00000000       0.73017699      -0.72364873      -0.05795693
H        0.00000000       0.00000000       0.00000000       0.41772139       0.80545223      -0.81781465
H        0.00000000       0.00000000       0.00000000      -0.45588854       0.33559623      -0.19323915
H        0.00000000       0.00000000       0.00000000      -0.25070101       0.24804115       0.29262894
7
Lattice="529.1772105638412 0.0 0.0 0.0 529.1772105638412 0.0 0.0 0.0 529.1772105638412" Properties=species:S:1:pos:R:3:forces_component_raw:R:3 ipi_comment="Step:       10620  Bead:       0 forces_component_raw{ase}  cell{ase}" pbc="T T T"
O        0.00000000       0.00000000       0.00000000       0.60714400       0.50576723      -2.38916326
H        0.00000000       0.00000000       0.00000000      -0.30689758      -0.07193017       0.68314040
H        0.00000000       0.00000000       0.00000000      -0.02416432      -0.03932282       1.18390990
O        0.00000000       0.00000000       0.00000000       0.14524126      -0.02445780      -0.38137883
H        0.00000000       0.00000000       0.00000000      -0.01406962      -0.31577301       0.09932455
H        0.00000000       0.00000000       0.00000000       0.13699345      -0.54182875       0.42181695
H        0.00000000       0.00000000       0.00000000      -0.54424709       0.48754516       0.38235021
7
Lattice="529.1772105638412 0.0 0.0 0.0 529.1772105638412 0.0 0.0 0.0 529.1772105638412" Properties=species:S:1:pos:R:3:forces_component_raw:R:3 ipi_comment="Step:       10640  Bead:       0 forces_component_raw{ase}  cell{ase}" pbc="T T T"
O        0.00000000       0.00000000       0.00000000       0.90549380       0.41895858      -0.43164665
H        0.00000000       0.00000000       0.00000000      -1.90620828      -0.75734383       0.30863482
H        0.00000000       0.00000000       0.00000000       1.14836669       0.45994502       0.00398409
O        0.00000000       0.00000000       0.00000000      -0.17727810       1.15994406      -0.97082603
H        0.00000000       0.00000000       0.00000000      -0.00586051      -0.16929784       0.09982497
H        0.00000000       0.00000000       0.00000000       0.53860372      -1.60755396       0.68389023
H        0.00000000       0.00000000       0.00000000      -0.50311720       0.49534792       0.30613852
7
Lattice="529.1772105638412 0.0 0.0 0.0 529.1772105638412 0.0 0.0 0.0 529.1772105638412" Properties=species:S:1:pos:R:3:forces_component_raw:R:3 ipi_comment="Step:       10660  Bead:       0 forces_component_raw{ase}  cell{ase}" pbc="T T T"
O        0.00000000       0.00000000       0.00000000      -0.71328551       0.59598339      -2.15941597
H        0.00000000       0.00000000       0.00000000       0.11639112      -0.22733709       0.49668312
H        0.00000000       0.00000000       0.00000000       0.58682406      -0.29376972       1.10407162
O        0.00000000       0.00000000       0.00000000      -0.48010510       0.91583556      -0.78045154
H        0.00000000       0.00000000       0.00000000       0.23003399       0.24572569       0.33154577
H        0.00000000       0.00000000       0.00000000       0.52981889      -1.55321396       0.74301243
H        0.00000000       0.00000000       0.00000000      -0.26967740       0.31677613       0.26455456
7
Lattice="529.1772105638412 0.0 0.0 0.0 529.1772105638412 0.0 0.0 0.0 529.1772105638412" Properties=species:S:1:pos:R:3:forces_component_raw:R:3 ipi_comment="Step:       10680  Bead:       0 forces_component_raw{ase}  cell{ase}" pbc="T T T"
O        0.00000000       0.00000000       0.00000000      -1.29999388      -0.27707133       0.65570879
H        0.00000000       0.00000000       0.00000000       0.67591190       0.33484688      -0.29624218
H        0.00000000       0.00000000       0.00000000       0.47398666      -0.08595178       0.17888248
O        0.00000000       0.00000000       0.00000000      -0.53098607       0.99793327      -1.14375294
H        0.00000000       0.00000000       0.00000000       0.14517415      -0.10178167      -0.68311691
H        0.00000000       0.00000000       0.00000000       0.54516834      -0.86523593       0.73651469
H        0.00000000       0.00000000       0.00000000      -0.00926107      -0.00273937       0.55200613
7
Lattice="529.1772105638412 0.0 0.0 0.0 529.1772105638412 0.0 0.0 0.0 529.1772105638412" Properties=species:S:1:pos:R:3:forces_component_raw:R:3 ipi_comment="Step:       10700  Bead:       0 forces_component_raw{ase}  cell{ase}" pbc="T T T"
O        0.00000000       0.00000000       0.00000000      -0.30222344      -0.87339080       0.13501167
H        0.00000000       0.00000000       0.00000000       0.69769168       0.18267040       0.43219003
H        0.00000000       0.00000000       0.00000000      -0.51509178       0.74173856      -0.90014237
O        0.00000000       0.00000000       0.00000000       0.56669676      -0.59466171       0.65955287
H        0.00000000       0.00000000       0.00000000      -0.10968773       0.23268777       0.32645732
H        0.00000000       0.00000000       0.00000000      -0.12822285      -0.07296884      -0.28735030
H        0.00000000       0.00000000       0.00000000      -0.20916277       0.38392451      -0.36571938
7
Lattice="529.1772105638412 0.0 0.0 0.0 529.1772105638412 0.0 0.0 0.0 529.1772105638412" Properties=species:S:1:pos:R:3:forces_component_raw:R:3 ipi_comment="Step:       10720  Bead:       0 forces_component_raw{ase}  cell{ase}" pbc="T T T"
O        0.00000000       0.00000000       0.00000000       0.44401616      -1.54152465       0.19831069
H        0.00000000       0.00000000       0.00000000       0.29773551       0.04730449       0.40125528
H        0.00000000       0.00000000       0.00000000      -0.75174588       1.58504737      -0.88956273
O        0.00000000       0.00000000       0.00000000       0.18263868      -0.72821236      -0.24971032
H        0.00000000       0.00000000       0.00000000      -0.01672646      -0.38926584       0.20741007
H        0.00000000       0.00000000       0.00000000      -0.69007135       1.34999979       0.13477299
H        0.00000000       0.00000000       0.00000000       0.53415328      -0.32334900       0.19752419
7
Lattice="529.1772105638412 0.0 0.0 0.0 529.1772105638412 0.0 0.0 0.0 529.1772105638412" Properties=species:S:1:pos:R:3:forces_component_raw:R:3 ipi_comment="Step:       10740  Bead:       0 forces_component_raw{ase}  cell{ase}" pbc="T T T"
O        0.00000000       0.00000000       0.00000000       1.27339530      -1.49312830       0.31296608
H        0.00000000       0.00000000       0.00000000       0.24840570      -0.07002105      -0.03537025
H        0.00000000       0.00000000       0.00000000      -1.15642035       1.39768625      -0.30102590
O        0.00000000       0.00000000       0.00000000       1.48536373      -2.01827288       1.01958490
H        0.00000000       0.00000000       0.00000000      -0.31024894       0.34589580      -0.15116216
H        0.00000000       0.00000000       0.00000000      -1.35983038       1.61209309      -0.44041777
H        0.00000000       0.00000000       0.00000000      -0.18066500       0.22574681      -0.40457493
7
Lattice="529.1772105638412 0.0 0.0 0.0 529.1772105638412 0.0 0.0 0.0 529.1772105638412" Properties=species:S:1:pos:R:3:forces_component_raw:R:3 ipi_comment="Step:       10760  Bead:       0 forces_component_raw{ase}  cell{ase}" pbc="T T T"
O        0.00000000       0.00000000       0.00000000       1.12011647      -1.22585488       0.26394105
H        0.00000000       0.00000000       0.00000000      -0.00355762      -0.13212207       0.03075677
H        0.00000000       0.00000000       0.00000000      -1.34165764       1.50282848      -0.35077739
O        0.00000000       0.00000000       0.00000000       0.20350003      -1.08776939      -0.10830116
H        0.00000000       0.00000000       0.00000000       0.41482788      -0.18305199       0.16765347
H        0.00000000       0.00000000       0.00000000      -0.61258775       1.90368545       0.24301234
H        0.00000000       0.00000000       0.00000000       0.21935862      -0.77771563      -0.24628502
7
Lattice="529.1772105638412 0.0 0.0 0.0 529.1772105638412 0.0 0.0 0.0 529.1772105638412" Properties=species:S:1:pos:R:3:forces_component_raw:R:3 ipi_comment="Step:       10780  Bead:       0 forces_component_raw{ase}  cell{ase}" pbc="T T T"
O        0.00000000       0.00000000       0.00000000       1.42526365      -1.18496120      -0.17273000
H        0.00000000       0.00000000       0.00000000       0.27502379      -0.13531427      -0.18179822
H        0.00000000       0.00000000       0.00000000      -1.61103106       1.32838786       0.34679762
O        0.00000000       0.00000000       0.00000000       0.19513115      -0.41073722       1.72316897
H        0.00000000       0.00000000       0.00000000       0.03356954      -0.06519912       0.04374816
H        0.00000000       0.00000000       0.00000000      -0.11327229       0.48669922      -0.57020027
H        0.00000000       0.00000000       0.00000000      -0.20468473      -0.01887506      -1.18898630
7
Lattice="529.1772105638412 0.0 0.0 0.0 529.1772105638412 0.0 0.0 0.0 529.1772105638412" Properties=species:S:1:pos:R:3:forces_component_raw:R:3 ipi_comment="Step:       10800  Bead:       0 forces_component_raw{ase}  cell{ase}" pbc="T T T"
O        0.00000000       0.00000000       0.00000000       0.61980677      -0.96245581       0.99192351
H        0.00000000       0.00000000       0.00000000       0.37110400       0.13424854      -0.78099734
H        0.00000000       0.00000000       0.00000000      -0.86029631       0.89760554      -0.32354760
O        0.00000000       0.00000000       0.00000000       0.49980778       1.15561915      -0.64480436
H        0.00000000       0.00000000       0.00000000      -0.25784808      -0.42198643       0.43365103
H        0.00000000       0.00000000       0.00000000       0.09907939       0.13117898       0.71747399
H        0.00000000       0.00000000       0.00000000      -0.47165361      -0.93420994      -0.39369917
7
Lattice="529.1772105638412 0.0 0.0 0.0 529.1772105638412 0.0 0.0 0.0 529.1772105638412" Properties=species:S:1:pos:R:3:forces_component_raw:R:3 ipi_comment="Step:       10820  Bead:       0 forces_component_raw{ase}  cell{ase}" pbc="T T T"
O        0.00000000       0.00000000       0.00000000      -0.52638227      -0.33684245       1.48462141
H        0.00000000       0.00000000       0.00000000      -0.01615053      -0.27285713      -0.10517523
H        0.00000000       0.00000000       0.00000000       0.10891315      -0.05659020      -0.13723220
O        0.00000000       0.00000000       0.00000000      -0.24287026      -0.91071022       1.39304996
H        0.00000000       0.00000000       0.00000000       0.51651865       0.67995483      -1.14381945
H        0.00000000       0.00000000       0.00000000      -0.09551418       0.26659405      -0.84628535
H        0.00000000       0.00000000       0.00000000       0.25548554       0.63045120      -0.64515925
7
Lattice="529.1772105638412 0.0 0.0 0.0 529.1772105638412 0.0 0.0 0.0 529.1772105638412" Properties=species:S:1:pos:R:3:forces_component_raw:R:3 ipi_comment="Step:       10840  Bead:       0 forces_component_raw{ase}  cell{ase}" pbc="T T T"
O        0.00000000       0.00000000       0.00000000       0.36906016       0.73734701      -1.05310488
H        0.00000000       0.00000000       0.00000000      -0.39205170       0.12979573       0.55694342
H        0.00000000       0.00000000       0.00000000       0.36720476      -0.58501721       0.22463620
O        0.00000000       0.00000000       0.00000000       0.63366443       0.81344974      -0.63964808
H        0.00000000       0.00000000       0.00000000      -0.46141079      -0.24376169       0.53346223
H        0.00000000       0.00000000       0.00000000       0.43010849      -0.30670339       0.60968697
H        0.00000000       0.00000000       0.00000000      -0.94657535      -0.54511017      -0.23197579
7
Lattice="529.1772105638412 0.0 0.0 0.0 529.1772105638412 0.0 0.0 0.0 529.1772105638412" Properties=species:S:1:pos:R:3:forces_component_raw:R:3 ipi_comment="Step:       10860  Bead:       0 forces_component_raw{ase}  cell{ase}" pbc="T T T"
O        0.00000000       0.00000000       0.00000000      -1.12611294       0.29367065      -0.31755573
H        0.00000000       0.00000000       0.00000000       0.04528642       0.07264692       0.63290548
H        0.00000000       0.00000000       0.00000000       0.90545839      -0.80835891       0.39433190
O        0.00000000       0.00000000       0.00000000       0.23171046      -1.16578508       0.93390620
H        0.00000000       0.00000000       0.00000000       0.43296138       0.52972567      -0.56362265
H        0.00000000       0.00000000       0.00000000      -0.67320216       0.32061857      -0.41576225
H        0.00000000       0.00000000       0.00000000       0.18389833       0.75748205      -0.66420287
7
Lattice="529.1772105638412 0.0 0.0 0.0 529.1772105638412 0.0 0.0 0.0 529.1772105638412" Properties=species:S:1:pos:R:3:forces_component_raw:R:3 ipi_comment="Step:       10880  Bead:       0 forces_component_raw{ase}  cell{ase}" pbc="T T T"
O        0.00000000       0.00000000       0.00000000      -0.29143483       0.85348088       0.16205531
H        0.00000000       0.00000000       0.00000000      -0.15796591       0.31286949       0.05065912
H        0.00000000       0.00000000       0.00000000       0.53723043      -0.98754227      -0.29559955
O        0.00000000       0.00000000       0.00000000       0.25457802       1.39832819      -1.24581337
H        0.00000000       0.00000000       0.00000000      -0.17886877      -0.24276531       0.40299368
H        0.00000000       0.00000000       0.00000000       0.43128008      -0.72231573       0.46385741
H        0.00000000       0.00000000       0.00000000      -0.59481895      -0.61205542       0.46184743
7
Lattice="529.1772105638412 0.0 0.0 0.0 529.1772105638412 0.0 0.0 0.0 529.1772105638412" Properties=species:S:1:pos:R:3:forces_component_raw:R:3 ipi_comment="Step:       10900  Bead:       0 forces_component_raw{ase}  cell{ase}" pbc="T T T"
O        0.00000000       0.00000000       0.00000000      -0.16119723       0.70054507       0.37378171
H        0.00000000       0.00000000       0.00000000       0.08024959      -0.04266681      -0.25509244
H        0.00000000       0.00000000       0.00000000       0.15274417      -0.74796081       0.02993944
O        0.00000000       0.00000000       0.00000000       0.19465146      -0.42219138       0.73828364
H        0.00000000       0.00000000       0.00000000      -0.08411974      -0.47075197      -0.18191202
H        0.00000000       0.00000000       0.00000000      -0.61409176       0.45815012      -0.14668515
H        0.00000000       0.00000000       0.00000000       0.43176371       0.52487582      -0.55831516
7
Lattice="529.1772105638412 0.0 0.0 0.0 529.1772105638412 0.0 0.0 0.0 529.1772105638412" Properties=species:S:1:pos:R:3:forces_component_raw:R:3 ipi_comment="Step:       10920  Bead:       0 forces_component_raw{ase}  cell{ase}" pbc="T T T"
O        0.00000000       0.00000000       0.00000000      -0.19227712      -0.81497532       0.75352109
H        0.00000000       0.00000000       0.00000000       0.02729584       0.14864565      -0.60619760
H        0.00000000       0.00000000       0.00000000      -0.03603078      -0.20060957       0.16752633
O        0.00000000       0.00000000       0.00000000      -0.62893468       1.17034459      -0.16878647
H        0.00000000       0.00000000       0.00000000       0.35042945       0.50313795       0.21640071
H        0.00000000       0.00000000       0.00000000       1.15764904      -0.34269589      -0.17378193
H        0.00000000       0.00000000       0.00000000      -0.67813164      -0.46384707      -0.18868202
7
Lattice="529.1772105638412 0.0 0.0 0.0 529.1772105638412 0.0 0.0 0.0 529.1772105638412" Properties=species:S:1:pos:R:3:forces_component_raw:R:3 ipi_comment="Step:       10940  Bead:       0 forces_component_raw{ase}  cell{ase}" pbc="T T T"
O        0.00000000       0.00000000       0.00000000       0.17322764       0.05628631       0.55622310
H        0.00000000       0.00000000       0.00000000      -0.25892767      -0.54871857      -0.06276816
H        0.00000000       0.00000000       0.00000000       0.29900488       0.69739115      -0.05420125
O        0.00000000       0.00000000       0.00000000      -0.40215358      -1.31315005       0.31677771
H        0.00000000       0.00000000       0.00000000      -0.50802040      -0.65363449      -0.17402411
H        0.00000000       0.00000000       0.00000000       1.07506407       0.98559284      -0.44547856
H        0.00000000       0.00000000       0.00000000      -0.37819481       0.77623284      -0.13652863
7
Lattice="529.1772105638412 0.0 0.0 0.0 529.1772105638412 0.0 0.0 0.0 529.1772105638412" Properties=species:S:1:pos:R:3:forces_component_raw:R:3 ipi_comment="Step:       10960  Bead:       0 forces_component_raw{ase}  cell{ase}" pbc="T T T"
O        0.00000000       0.00000000       0.00000000      -0.87812817      -1.50918758      -0.06623918
H        0.00000000       0.00000000       0.00000000      -0.03529358       0.13186604      -0.27647439
H        0.00000000       0.00000000       0.00000000       0.62169039       1.39001119      -0.49125663
O        0.00000000       0.00000000       0.00000000      -0.90722823      -0.94392777       0.27098590
H        0.00000000       0.00000000       0.00000000       0.77771431       0.73610163       0.68075359
H        0.00000000       0.00000000       0.00000000       0.87046611       0.01998720      -0.07326700
H        0.00000000       0.00000000       0.00000000      -0.44922090       0.17514929      -0.04450229
7
Lattice="529.1772105638412 0.0 0.0 0.0 529.1772105638412 0.0 0.0 0.0 529.1772105638412" Properties=species:S:1:pos:R:3:forces_component_raw:R:3 ipi_comment="Step:       10980  Bead:       0 forces_component_raw{ase}  cell{ase}" pbc="T T T"
O        0.00000000       0.00000000       0.00000000       0.64515209      -0.04064076       1.31928563
H        0.00000000       0.00000000       0.00000000      -0.81263864      -0.89414180      -0.35590270
H        0.00000000       0.00000000       0.00000000       0.78593028       1.32373905      -0.41364104
O        0.00000000       0.00000000       0.00000000       0.37569064      -0.11263233       0.19656897
H        0.00000000       0.00000000       0.00000000      -0.77221602      -0.22977582      -0.87603188
H        0.00000000       0.00000000       0.00000000      -0.30561626      -0.02111459       0.02043699
H        0.00000000       0.00000000       0.00000000       0.08369792      -0.02543378       0.10928404
7
Lattice="529.1772105638412 0.0 0.0 0.0 529.1772105638412 0.0 0.0 0.0 529.1772105638412" Properties=species:S:1:pos:R:3:forces_component_raw:R:3 ipi_comment="Step:       11000  Bead:       0 forces_component_raw{ase}  cell{ase}" pbc="T T T"
O        0.00000000       0.00000000       0.00000000      -0.01426172      -0.83311975       1.40117050
H        0.00000000       0.00000000       0.00000000      -0.56341446       0.23299557      -1.30307937
H        0.00000000       0.00000000       0.00000000       0.15497804       0.06595948      -0.02751506
O        0.00000000       0.00000000       0.00000000       0.13909972       0.25948948      -0.56118238
H        0.00000000       0.00000000       0.00000000       0.82119346       0.42001036       0.20559943
H        0.00000000       0.00000000       0.00000000      -0.69226605      -0.22921066       0.37467107
H        0.00000000       0.00000000       0.00000000       0.15467107       0.08387560      -0.08966434
7
Lattice="529.1772105638412 0.0 0.0 0.0 529.1772105638412 0.0 0.0 0.0 529.1772105638412" Properties=species:S:1:pos:R:3:forces_component_raw:R:3 ipi_comment="Step:       11020  Bead:       0 forces_component_raw{ase}  cell{ase}" pbc="T T T"
O        0.00000000       0.00000000       0.00000000       0.94058138       0.44156149       0.08008659
H        0.00000000       0.00000000       0.00000000      -0.35552931      -0.06387194      -0.39890421
H        0.00000000       0.00000000       0.00000000      -0.28102100      -0.20484722       0.18188226
O        0.00000000       0.00000000       0.00000000       0.97725141      -0.01288010      -0.58732665
H        0.00000000       0.00000000       0.00000000      -0.88757593      -0.11710027       0.28018609
H        0.00000000       0.00000000       0.00000000      -0.66413909       0.12212189       0.18710396
H        0.00000000       0.00000000       0.00000000       0.27043259      -0.16498391       0.25697202
7
Lattice="529.1772105638412 0.0 0.0 0.0 529.1772105638412 0.0 0.0 0.0 529.1772105638412" Properties=species:S:1:pos:R:3:forces_component_raw:R:3 ipi_comment="Step:       11040  Bead:       0 forces_component_raw{ase}  cell{ase}" pbc="T T T"
O        0.00000000       0.00000000       0.00000000       0.41757786       0.37615168      -0.03304876
H        0.00000000       0.00000000       0.00000000       0.30150852       0.35249120      -0.02985460
H        0.00000000       0.00000000       0.00000000      -0.99377084      -0.55486971      -0.08962965
O        0.00000000       0.00000000       0.00000000      -0.87848014       0.92049360       0.19542342
H        0.00000000       0.00000000       0.00000000       0.55881924      -0.20913985      -0.35910559
H        0.00000000       0.00000000       0.00000000      -0.19583347      -0.07993889       0.40449691
H        0.00000000       0.00000000       0.00000000       0.79017878      -0.80518806      -0.08828180
7
Lattice="529.1772105638412 0.0 0.0 0.0 529.1772105638412 0.0 0.0 0.0 529.1772105638412" Properties=species:S:1:pos:R:3:forces_component_raw:R:3 ipi_comment="Step:       11060  Bead:       0 forces_component_raw{ase}  cell{ase}" pbc="T T T"
O        0.00000000       0.00000000       0.00000000       1.22652579       0.64294410      -1.61639190
H        0.00000000       0.00000000       0.00000000       0.02519256       0.07226816       0.72671187
H        0.00000000       0.00000000       0.00000000      -0.75471294      -0.20417100       0.25208587
O        0.00000000       0.00000000       0.00000000      -0.29346481       0.89938760       0.04279405
H        0.00000000       0.00000000       0.00000000      -0.95418084       0.06095092       0.39340428
H        0.00000000       0.00000000       0.00000000       0.11333418      -0.03918837      -0.11259860
H        0.00000000       0.00000000       0.00000000       0.63730633      -1.43219149       0.31399444
7
Lattice="529.1772105638412 0.0 0.0 0.0 529.1772105638412 0.0 0.0 0.0 529.1772105638412" Properties=species:S:1:pos:R:3:forces_component_raw:R:3 ipi_comment="Step:       11080  Bead:       0 forces_component_raw{ase}  cell{ase}" pbc="T T T"
O        0.00000000       0.00000000       0.00000000      -1.18511868       0.18104138      -0.47671682
H        0.00000000       0.00000000       0.00000000       0.63204569       0.27191073       0.61039376
H        0.00000000       0.00000000       0.00000000       0.38141581      -0.16724557      -0.36784619
O        0.00000000       0.00000000       0.00000000      -1.16745568       0.95439387       0.77746666
H        0.00000000       0.00000000       0.00000000       0.45708564      -0.43521720       0.17006567
H        0.00000000       0.00000000       0.00000000       0.59085792      -0.14856070      -0.40634340
H        0.00000000       0.00000000       0.00000000       0.29116932      -0.65632260      -0.30701977
7
Lattice="529.1772105638412 0.0 0.0 0.0 529.1772105638412 0.0 0.0 0.0 529.1772105638412" Properties=species:S:1:pos:R:3:forces_component_raw:R:3 ipi_comment="Step:       11100  Bead:       0 forces_component_raw{ase}  cell{ase}" pbc="T T T"
O        0.00000000       0.00000000       0.00000000      -0.48171666      -0.57902098      -0.14496392
H        0.00000000       0.00000000       0.00000000      -0.08186889      -0.08803868       0.43399701
H        0.00000000       0.00000000       0.00000000       0.53005606       0.31091902       0.07859596
O        0.00000000       0.00000000       0.00000000      -0.12027024      -0.39323336      -0.11670238
H        0.00000000       0.00000000       0.00000000      -0.00785545       0.30301720      -0.04126966
H        0.00000000       0.00000000       0.00000000       0.24083471      -0.05009830      -0.34021568
H        0.00000000       0.00000000       0.00000000      -0.07917956       0.49645496       0.13055867
7
Lattice="529.1772105638412 0.0 0.0 0.0 529.1772105638412 0.0 0.0 0.0 529.1772105638412" Properties=species:S:1:pos:R:3:forces_component_raw:R:3 ipi_comment="Step:       11120  Bead:       0 forces_component_raw{ase}  cell{ase}" pbc="T T T"
O        0.00000000       0.00000000       0.00000000       0.27237871      -0.33368307       1.21551407
H        0.00000000       0.00000000       0.00000000      -0.56782323      -0.17024058      -0.83700967
H        0.00000000       0.00000000       0.00000000       0.16723785       0.18473244       0.02226036
O        0.00000000       0.00000000       0.00000000       0.18809624      -0.70197022      -0.57667542
H        0.00000000       0.00000000       0.00000000       0.17428246      -0.03167033      -0.01481648
H        0.00000000       0.00000000       0.00000000      -0.10270306      -0.14487061      -0.06402397
H        0.00000000       0.00000000       0.00000000      -0.13146901       1.19770217       0.25475121
7
Lattice="529.1772105638412 0.0 0.0 0.0 529.1772105638412 0.0 0.0 0.0 529.1772105638412" Properties=species:S:1:pos:R:3:forces_component_raw:R:3 ipi_comment="Step:       11140  Bead:       0 forces_component_raw{ase}  cell{ase}" pbc="T T T"
O        0.00000000       0.00000000       0.00000000       0.05914930      -0.27560428       1.13116074
H        0.00000000       0.00000000       0.00000000      -0.42334861       0.08904118      -0.96258873
H        0.00000000       0.00000000       0.00000000       0.32823309       0.27831969      -0.08414680
O        0.00000000       0.00000000       0.00000000      -0.20278712      -2.68930221      -0.44101325
H        0.00000000       0.00000000       0.00000000      -0.01424192      -0.50977957       0.21978737
H        0.00000000       0.00000000       0.00000000      -0.12841569       0.39639720       0.07901526
H        0.00000000       0.00000000       0.00000000       0.38141102       2.71092821       0.05778552
7
Lattice="529.1772105638412 0.0 0.0 0.0 529.1772105638412 0.0 0.0 0.0 529.1772105638412" Properties=species:S:1:pos:R:3:forces_component_raw:R:3 ipi_comment="Step:       11160  Bead:       0 forces_component_raw{ase}  cell{ase}" pbc="T T T"
O        0.00000000       0.00000000       0.00000000      -0.23660412       0.02622014      -0.19450304
H        0.00000000       0.00000000       0.00000000      -0.32176936       0.07829648      -0.37165186
H        0.00000000       0.00000000       0.00000000       0.70493943       0.32887241       0.26354808
O        0.00000000       0.00000000       0.00000000       0.87119937      -1.79238582      -0.36991334
H        0.00000000       0.00000000       0.00000000      -0.27528995      -0.23232633      -0.21348804
H        0.00000000       0.00000000       0.00000000      -0.77624482      -0.15822309       0.40100539
H        0.00000000       0.00000000       0.00000000       0.03376932       1.74954617       0.48500282
7
Lattice="529.1772105638412 0.0 0.0 0.0 529.1772105638412 0.0 0.0 0.0 529.1772105638412" Properties=species:S:1:pos:R:3:forces_component_raw:R:3 ipi_comment="Step:       11180  Bead:       0 forces_component_raw{ase}  cell{ase}" pbc="T T T"
O        0.00000000       0.00000000       0.00000000      -0.72675204      -0.22967470      -0.51348490
H        0.00000000       0.00000000       0.00000000       0.34540492       0.17176306       0.18662095
H        0.00000000       0.00000000       0.00000000       0.26464492       0.05086538       0.03327776
O        0.00000000       0.00000000       0.00000000      -0.23717411      -1.04170811      -0.02533662
H        0.00000000       0.00000000       0.00000000       0.02198377       0.19037765       0.22229323
H        0.00000000       0.00000000       0.00000000      -0.00005502       0.37321758       0.15879738
H        0.00000000       0.00000000       0.00000000       0.33194751       0.48515892      -0.06216778
7
Lattice="529.1772105638412 0.0 0.0 0.0 529.1772105638412 0.0 0.0 0.0 529.1772105638412" Properties=species:S:1:pos:R:3:forces_component_raw:R:3 ipi_comment="Step:       11200  Bead:       0 forces_component_raw{ase}  cell{ase}" pbc="T T T"
O        0.00000000       0.00000000       0.00000000      -1.22090888      -0.35273489      -1.01903618
H        0.00000000       0.00000000       0.00000000       0.91543806      -0.02447791       1.34368921
H        0.00000000       0.00000000       0.00000000       0.47458291       0.19507450      -0.25117451
O        0.00000000       0.00000000       0.00000000       0.16181016       1.03227031       0.65221232
H        0.00000000       0.00000000       0.00000000      -0.32440108       0.02184572      -0.07212821
H        0.00000000       0.00000000       0.00000000       0.23875137      -0.13843504      -0.24609917
H        0.00000000       0.00000000       0.00000000      -0.24527253      -0.73354274      -0.40746358
7
Lattice="529.1772105638412 0.0 0.0 0.0 529.1772105638412 0.0 0.0 0.0 529.1772105638412" Properties=species:S:1:pos:R:3:forces_component_raw:R:3 ipi_comment="Step:       11220  Bead:       0 forces_component_raw{ase}  cell{ase}" pbc="T T T"
O        0.00000000       0.00000000       0.00000000      -0.62557519      -0.48923293      -1.19221485
H        0.00000000       0.00000000       0.00000000       0.36808658       0.06361334       1.01725042
H        0.00000000       0.00000000       0.00000000       0.04030865      -0.01000126       0.39930239
O        0.00000000       0.00000000       0.00000000       0.68975735       1.13452685      -0.17304546
H        0.00000000       0.00000000       0.00000000       0.24632190       0.33876062       0.10798381
H        0.00000000       0.00000000       0.00000000      -0.09791847      -0.27229875      -0.09992433
H        0.00000000       0.00000000       0.00000000      -0.62098092      -0.76536787      -0.05935180
7
Lattice="529.1772105638412 0.0 0.0 0.0 529.1772105638412 0.0 0.0 0.0 529.1772105638412" Properties=species:S:1:pos:R:3:forces_component_raw:R:3 ipi_comment="Step:       11240  Bead:       0 forces_component_raw{ase}  cell{ase}" pbc="T T T"
O        0.00000000       0.00000000       0.00000000      -0.26842040       0.33905062      -0.22484976
H        0.00000000       0.00000000       0.00000000       0.84184617      -0.17629170       0.47187963
H        0.00000000       0.00000000       0.00000000      -0.54491890      -0.08502243      -0.28147820
O        0.00000000       0.00000000       0.00000000       0.03144994       0.38177162       0.77640379
H        0.00000000       0.00000000       0.00000000       0.07067525      -0.11316735       0.04912975
H        0.00000000       0.00000000       0.00000000       0.33426702       0.12408729      -0.01872206
H        0.00000000       0.00000000       0.00000000      -0.46489915      -0.47042799      -0.77236307
7
Lattice="529.1772105638412 0.0 0.0 0.0 529.1772105638412 0.0 0.0 0.0 529.1772105638412" Properties=species:S:1:pos:R:3:forces_component_raw:R:3 ipi_comment="Step:       11260  Bead:       0 forces_component_raw{ase}  cell{ase}" pbc="T T T"
O        0.00000000       0.00000000       0.00000000       0.43664962       0.35918218      -0.50668609
H        0.00000000       0.00000000       0.00000000      -0.35178024      -0.13712372       0.07909559
H        0.00000000       0.00000000       0.00000000      -0.03047717       0.02008404       0.12393677
O        0.00000000       0.00000000       0.00000000       0.50660360      -0.40177262      -0.49789208
H        0.00000000       0.00000000       0.00000000       0.23087928       0.04453648       0.22205597
H        0.00000000       0.00000000       0.00000000      -0.47901881       0.01203308       0.15095210
H        0.00000000       0.00000000       0.00000000      -0.31285626       0.10306066       0.42853773
7
Lattice="529.1772105638412 0.0 0.0 0.0 529.1772105638412 0.0 0.0 0.0 529.1772105638412" Properties=species:S:1:pos:R:3:forces_component_raw:R:3 ipi_comment="Step:       11280  Bead:       0 forces_component_raw{ase}  cell{ase}" pbc="T T T"
O        0.00000000       0.00000000       0.00000000       1.38505864      -1.08358848       1.00223577
H        0.00000000       0.00000000       0.00000000      -0.66665983       0.46159673      -1.14107895
H        0.00000000       0.00000000       0.00000000      -0.82911098       0.38986129       0.27697909
O        0.00000000       0.00000000       0.00000000       0.44176793      -0.31524679       1.34153152
H        0.00000000       0.00000000       0.00000000       0.04652767       0.57550776      -0.23487821
H        0.00000000       0.00000000       0.00000000       0.20778799      -0.01152900      -0.77089846
H        0.00000000       0.00000000       0.00000000      -0.58537108      -0.01660141      -0.47389060
7
Lattice="529.1772105638412 0.0 0.0 0.0 529.1772105638412 0.0 0.0 0.0 529.1772105638412" Properties=species:S:1:pos:R:3:forces_component_raw:R:3 ipi_comment="Step:       11300  Bead:       0 forces_component_raw{ase}  cell{ase}" pbc="T T T"
O        0.00000000       0.00000000       0.00000000       1.52266014      -1.48614264       0.94305957
H        0.00000000       0.00000000       0.00000000      -1.14095485       1.63843322      -1.42467523
H        0.00000000       0.00000000       0.00000000      -0.71591640      -0.03488097       0.78269637
O        0.00000000       0.00000000       0.00000000       0.86672658       1.51605165      -1.25063145
H        0.00000000       0.00000000       0.00000000       0.06787524      -1.35103894       0.85298002
H        0.00000000       0.00000000       0.00000000      -0.66420156      -0.25549763      -0.41600159
H        0.00000000       0.00000000       0.00000000       0.06381071      -0.02692467       0.51257241
7
Lattice="529.1772105638412 0.0 0.0 0.0 529.1772105638412 0.0 0.0 0.0 529.1772105638412" Properties=species:S:1:pos:R:3:forces_component_raw:R:3 ipi_comment="Step:       11320  Bead:       0 forces_component_raw{ase}  cell{ase}" pbc="T T T"
O        0.00000000       0.00000000       0.00000000       1.18390692      -3.64662243       1.89023090
H        0.00000000       0.00000000       0.00000000      -0.93009830       1.98370219      -1.26708055
H        0.00000000       0.00000000       0.00000000      -0.53514707       0.60850203       0.21838751
O        0.00000000       0.00000000       0.00000000      -0.34047538      -0.24024893       0.39403883
H        0.00000000       0.00000000       0.00000000       0.01562762       1.07097984      -0.74844349
H        0.00000000       0.00000000       0.00000000      -0.11239046       0.07940399      -0.23244816
H        0.00000000       0.00000000       0.00000000       0.71857655       0.14428359      -0.25468490
7
Lattice="529.1772105638412 0.0 0.0 0.0 529.1772105638412 0.0 0.0 0.0 529.1772105638412" Properties=species:S:1:pos:R:3:forces_component_raw:R:3 ipi_comment="Step:       11340  Bead:       0 forces_component_raw{ase}  cell{ase}" pbc="T T T"
O        0.00000000       0.00000000       0.00000000       0.86684185      -0.87088710      -0.01576131
H        0.00000000       0.00000000       0.00000000      -1.16326440       1.19980347      -0.22050141
H        0.00000000       0.00000000       0.00000000       0.19397080      -0.38211298       0.29219398
O        0.00000000       0.00000000       0.00000000      -2.50262595       1.49052012      -1.00706995
H        0.00000000       0.00000000       0.00000000       0.12108119      -1.09355140       1.02735687
H        0.00000000       0.00000000       0.00000000       0.97685307      -0.04871848       0.50475603
H        0.00000000       0.00000000       0.00000000       1.50714350      -0.29505372      -0.58097410
7
Lattice="529.1772105638412 0.0 0.0 0.0 529.1772105638412 0.0 0.0 0.0 529.1772105638412" Properties=species:S:1:pos:R:3:forces_component_raw:R:3 ipi_comment="Step:       11360  Bead:       0 forces_component_raw{ase}  cell{ase}" pbc="T T T"
O        0.00000000       0.00000000       0.00000000       0.24390408      -1.10259044       0.69813830
H        0.00000000       0.00000000       0.00000000      -0.27611956       0.77399922      -0.52544719
H        0.00000000       0.00000000       0.00000000       0.36132413       0.35967451      -0.47112435
O        0.00000000       0.00000000       0.00000000      -1.31827402       0.03187263       0.90164137
H        0.00000000       0.00000000       0.00000000      -0.36139527       0.47481221      -0.15949678
H        0.00000000       0.00000000       0.00000000       0.27719617      -0.41846907       0.26797062
H        0.00000000       0.00000000       0.00000000       1.07336450      -0.11929888      -0.71168196
7
Lattice="529.1772105638412 0.0 0.0 0.0 529.1772105638412 0.0 0.0 0.0 529.1772105638412" Properties=species:S:1:pos:R:3:forces_component_raw:R:3 ipi_comment="Step:       11380  Bead:       0 forces_component_raw{ase}  cell{ase}" pbc="T T T"
O        0.00000000       0.00000000       0.00000000      -1.81905437       1.39924610      -0.61084843
H        0.00000000       0.00000000       0.00000000       0.37291065      -0.44108728       0.61717653
H        0.00000000       0.00000000       0.00000000       0.97454071      -0.71257532      -0.01597098
O        0.00000000       0.00000000       0.00000000      -0.34918881       0.31573859       0.04698977
H        0.00000000       0.00000000       0.00000000       0.61760032       0.13542599      -0.28024268
H        0.00000000       0.00000000       0.00000000      -0.02541228      -0.62466568       0.45263118
H        0.00000000       0.00000000       0.00000000       0.22860366      -0.07208222      -0.20973539
7
Lattice="529.1772105638412 0.0 0.0 0.0 529.1772105638412 0.0 0.0 0.0 529.1772105638412" Properties=species:S:1:pos:R:3:forces_component_raw:R:3 ipi_comment="Step:       11400  Bead:       0 forces_component_raw{ase}  cell{ase}" pbc="T T T"
O        0.00000000       0.00000000       0.00000000      -1.85959554       1.63970805      -0.69401068
H        0.00000000       0.00000000       0.00000000       1.93034876      -1.43204630       0.93491757
H        0.00000000       0.00000000       0.00000000       0.36280170       0.40289188      -0.77486897
O        0.00000000       0.00000000       0.00000000       0.37041622      -0.88182920      -0.28512564
H        0.00000000       0.00000000       0.00000000      -0.14955276       0.05984256      -0.07313129
H        0.00000000       0.00000000       0.00000000      -0.03669999      -0.45937073       0.15495597
H        0.00000000       0.00000000       0.00000000      -0.61771834       0.67080379       0.73726309
7
Lattice="529.1772105638412 0.0 0.0 0.0 529.1772105638412 0.0 0.0 0.0 529.1772105638412" Properties=species:S:1:pos:R:3:forces_component_raw:R:3 ipi_comment="Step:       11420  Bead:       0 forces_component_raw{ase}  cell{ase}" pbc="T T T"
O        0.00000000       0.00000000       0.00000000      -0.99356449       1.05896306      -0.93133801
H        0.00000000       0.00000000       0.00000000       1.21474850      -0.98184294       0.93387848
H        0.00000000       0.00000000       0.00000000      -0.05819708       0.05537639       0.01983106
O        0.00000000       0.00000000       0.00000000       0.25749958      -0.44928348      -0.91086006
H        0.00000000       0.00000000       0.00000000      -0.16586506      -0.55365896      -0.02828002
H        0.00000000       0.00000000       0.00000000       0.20405610       0.44306204      -0.13988954
H        0.00000000       0.00000000       0.00000000      -0.45867783       0.42738381       1.05665803
7
Lattice="529.1772105638412 0.0 0.0 0.0 529.1772105638412 0.0 0.0 0.0 529.1772105638412" Properties=species:S:1:pos:R:3:forces_component_raw:R:3 ipi_comment="Step:       11440  Bead:       0 forces_component_raw{ase}  cell{ase}" pbc="T T T"
O        0.00000000       0.00000000       0.00000000      -0.83756292      -0.26772815      -0.31705183
H        0.00000000       0.00000000       0.00000000       0.51317299      -0.35605508       0.49151903
H        0.00000000       0.00000000       0.00000000      -0.10609049      -0.01246333       0.17835969
O        0.00000000       0.00000000       0.00000000      -0.00501204      -0.24039573      -1.30393005
H        0.00000000       0.00000000       0.00000000       0.37975293       0.30020335       0.28105012
H        0.00000000       0.00000000       0.00000000       0.25593922       0.68784988       0.49109194
H        0.00000000       0.00000000       0.00000000      -0.20019975      -0.11141078       0.17896110
7
Lattice="529.1772105638412 0.0 0.0 0.0 529.1772105638412 0.0 0.0 0.0 529.1772105638412" Properties=species:S:1:pos:R:3:forces_component_raw:R:3 ipi_comment="Step:       11460  Bead:       0 forces_component_raw{ase}  cell{ase}" pbc="T T T"
O        0.00000000       0.00000000       0.00000000       1.12773609      -0.41712093       0.90235102
H        0.00000000       0.00000000       0.00000000      -0.67589665       0.07260892      -0.74626136
H        0.00000000       0.00000000       0.00000000      -0.61583793       0.11211367       0.19829002
O        0.00000000       0.00000000       0.00000000       0.11435178       0.25743398       1.40658045
H        0.00000000       0.00000000       0.00000000      -0.04375900      -0.17246075      -0.23362309
H        0.00000000       0.00000000       0.00000000      -0.03259981       0.02149630      -0.56875456
H        0.00000000       0.00000000       0.00000000       0.12600558       0.12592874      -0.95858240
7
Lattice="529.1772105638412 0.0 0.0 0.0 529.1772105638412 0.0 0.0 0.0 529.1772105638412" Properties=species:S:1:pos:R:3:forces_component_raw:R:3 ipi_comment="Step:       11480  Bead:       0 forces_component_raw{ase}  cell{ase}" pbc="T T T"
O        0.00000000       0.00000000       0.00000000       1.88010240      -0.80314851      -0.09213829
H        0.00000000       0.00000000       0.00000000      -1.41093564       0.86332387      -0.82934261
H        0.00000000       0.00000000       0.00000000      -0.25209713       0.04111505       0.55424178
O        0.00000000       0.00000000       0.00000000       1.24756694       0.86272711       1.56203390
H        0.00000000       0.00000000       0.00000000      -0.21032415       0.03162278       0.58585918
H        0.00000000       0.00000000       0.00000000      -0.90301508      -0.99888182      -0.20563963
H        0.00000000       0.00000000       0.00000000      -0.35129717       0.00324170      -1.57501436
7
Lattice="529.1772105638412 0.0 0.0 0.0 529.1772105638412 0.0 0.0 0.0 529.1772105638412" Properties=species:S:1:pos:R:3:forces_component_raw:R:3 ipi_comment="Step:       11500  Bead:       0 forces_component_raw{ase}  cell{ase}" pbc="T T T"
O        0.00000000       0.00000000       0.00000000       0.26238328      -1.99357796       2.07369423
H        0.00000000       0.00000000       0.00000000      -0.36391440       1.35118568      -1.57534421
H        0.00000000       0.00000000       0.00000000      -0.33776426       0.35861480      -0.20767210
O        0.00000000       0.00000000       0.00000000       0.93581450       0.27983961       1.26211977
H        0.00000000       0.00000000       0.00000000       0.32961145       0.33331853      -0.62489402
H        0.00000000       0.00000000       0.00000000      -0.85123265      -0.41001415      -0.46771008
H        0.00000000       0.00000000       0.00000000       0.02510205       0.08063352      -0.46019361
7
Lattice="529.1772105638412 0.0 0.0 0.0 529.1772105638412 0.0 0.0 0.0 529.1772105638412" Properties=species:S:1:pos:R:3:forces_component_raw:R:3 ipi_comment="Step:       11520  Bead:       0 forces_component_raw{ase}  cell{ase}" pbc="T T T"
O        0.00000000       0.00000000       0.00000000       1.35474658      -0.87478018       0.06885487
H        0.00000000       0.00000000       0.00000000      -1.81320548       1.46336902      -0.21859099
H        0.00000000       0.00000000       0.00000000       0.66261208      -0.55424309       0.07556491
O        0.00000000       0.00000000       0.00000000       0.41944626       0.99174071      -0.92523766
H        0.00000000       0.00000000       0.00000000      -0.20812050      -0.49220738       0.56924629
H        0.00000000       0.00000000       0.00000000      -0.77114010      -0.58696038       0.08278213
H        0.00000000       0.00000000       0.00000000       0.35566095       0.05308146       0.34738058
7
Lattice="529.1772105638412 0.0 0.0 0.0 529.1772105638412 0.0 0.0 0.0 529.1772105638412" Properties=species:S:1:pos:R:3:forces_component_raw:R:3 ipi_comment="Step:       11540  Bead:       0 forces_component_raw{ase}  cell{ase}" pbc="T T T"
O        0.00000000       0.00000000       0.00000000      -0.33274025      -1.58259845       1.69692541
H        0.00000000       0.00000000       0.00000000      -0.29266867       0.52717209      -0.50377834
H        0.00000000       0.00000000       0.00000000       0.40366134       0.33304751      -0.90736276
O        0.00000000       0.00000000       0.00000000       0.18870878       0.08802611      -0.90794695
H        0.00000000       0.00000000       0.00000000       0.23656344       0.62806910      -0.16424188
H        0.00000000       0.00000000       0.00000000      -0.32229745      -0.06933503       0.30357701
H        0.00000000       0.00000000       0.00000000       0.11877289       0.07561868       0.48282760
7
Lattice="529.1772105638412 0.0 0.0 0.0 529.1772105638412 0.0 0.0 0.0 529.1772105638412" Properties=species:S:1:pos:R:3:forces_component_raw:R:3 ipi_comment="Step:       11560  Bead:       0 forces_component_raw{ase}  cell{ase}" pbc="T T T"
O        0.00000000       0.00000000       0.00000000      -0.43943119       1.33564043       0.06587788
H        0.00000000       0.00000000       0.00000000      -0.00044817      -0.10230726       0.43872514
H        0.00000000       0.00000000       0.00000000       0.45223668      -0.78615010      -0.31127054
O        0.00000000       0.00000000       0.00000000      -0.91088015      -0.14507994       0.02263883
H        0.00000000       0.00000000       0.00000000      -0.14741260      -0.23116890      -0.55428356
H        0.00000000       0.00000000       0.00000000       0.54823494       0.13849728      -0.37927657
H        0.00000000       0.00000000       0.00000000       0.49770063      -0.20943140       0.71758866
7
Lattice="529.1772105638412 0.0 0.0 0.0 529.1772105638412 0.0 0.0 0.0 529.1772105638412" Properties=species:S:1:pos:R:3:forces_component_raw:R:3 ipi_comment="Step:       11580  Bead:       0 forces_component_raw{ase}  cell{ase}" pbc="T T T"
O        0.00000000       0.00000000       0.00000000      -0.90968144       1.28817773       0.26967293
H        0.00000000       0.00000000       0.00000000       0.64108783      -1.38603866      -0.06288683
H        0.00000000       0.00000000       0.00000000       0.21520203       0.12495516      -0.67485976
O        0.00000000       0.00000000       0.00000000      -2.03302050      -0.14410710      -1.05345440
H        0.00000000       0.00000000       0.00000000       0.22255236       0.40979207       0.95150650
H        0.00000000       0.00000000       0.00000000       1.34599185      -0.16976002      -0.39620352
H        0.00000000       0.00000000       0.00000000       0.51786780      -0.12301928       0.96622497
7
Lattice="529.1772105638412 0.0 0.0 0.0 529.1772105638412 0.0 0.0 0.0 529.1772105638412" Properties=species:S:1:pos:R:3:forces_component_raw:R:3 ipi_comment="Step:       11600  Bead:       0 forces_component_raw{ase}  cell{ase}" pbc="T T T"
O        0.00000000       0.00000000       0.00000000      -0.43036842       1.65902186       0.08011562
H        0.00000000       0.00000000       0.00000000       0.38852519      -1.14821363      -0.17427760
H        0.00000000       0.00000000       0.00000000      -0.05998462      -0.10156247       0.21953464
O        0.00000000       0.00000000       0.00000000      -1.78263307       0.88937283       0.53706473
H        0.00000000       0.00000000       0.00000000       0.08969790      -0.33208358      -0.40885928
H        0.00000000       0.00000000       0.00000000       1.44339061      -0.41073758      -0.80116785
H        0.00000000       0.00000000       0.00000000       0.35137251      -0.55579728       0.54758978
7
Lattice="529.1772105638412 0.0 0.0 0.0 529.1772105638412 0.0 0.0 0.0 529.1772105638412" Properties=species:S:1:pos:R:3:forces_component_raw:R:3 ipi_comment="Step:       11620  Bead:       0 forces_component_raw{ase}  cell{ase}" pbc="T T T"
O        0.00000000       0.00000000       0.00000000       0.15917337      -1.11571861      -1.06054032
H        0.00000000       0.00000000       0.00000000      -0.16827747       0.42990607       0.24102768
H        0.00000000       0.00000000       0.00000000      -0.01207951       0.28846827       0.63951576
O        0.00000000       0.00000000       0.00000000       0.46326551      -0.09623939       0.00999671
H        0.00000000       0.00000000       0.00000000      -0.13882330       0.48979485       0.14006379
H        0.00000000       0.00000000       0.00000000      -0.00600731      -0.03480425       0.06077628
H        0.00000000       0.00000000       0.00000000      -0.29725128       0.03859311      -0.03083986
7
Lattice="529.1772105638412 0.0 0.0 0.0 529.1772105638412 0.0 0.0 0.0 529.1772105638412" Properties=species:S:1:pos:R:3:forces_component_raw:R:3 ipi_comment="Step:       11640  Bead:       0 forces_component_raw{ase}  cell{ase}" pbc="T T T"
O        0.00000000       0.00000000       0.00000000       0.29667571      -1.61643315      -1.73542726
H        0.00000000       0.00000000       0.00000000      -0.35336104       1.36857307       0.59991205
H        0.00000000       0.00000000       0.00000000       0.03702848       0.07862523       0.88866437
O        0.00000000       0.00000000       0.00000000       0.28125736      -0.16077918       0.23634130
H        0.00000000       0.00000000       0.00000000       0.15916660      -0.45345703       0.62242150
H        0.00000000       0.00000000       0.00000000       0.01797605      -0.10121190      -0.04471375
H        0.00000000       0.00000000       0.00000000      -0.43874300       0.88468313      -0.56719828
7
Lattice="529.1772105638412 0.0 0.0 0.0 529.1772105638412 0.0 0.0 0.0 529.1772105638412" Properties=species:S:1:pos:R:3:forces_component_raw:R:3 ipi_comment="Step:       11660  Bead:       0 forces_component_raw{ase}  cell{ase}" pbc="T T T"
O        0.00000000       0.00000000       0.00000000       0.80103135      -1.26429153      -0.13208672
H        0.00000000       0.00000000       0.00000000      -0.20047075       1.42852664      -0.05538306
H        0.00000000       0.00000000       0.00000000      -0.15845543       0.04680312       0.46518558
O        0.00000000       0.00000000       0.00000000       0.98647261      -0.17087358      -0.06073564
H        0.00000000       0.00000000       0.00000000      -0.53801537      -0.12528393      -0.48749486
H        0.00000000       0.00000000       0.00000000      -0.32418108      -0.33173081       0.41495070
H        0.00000000       0.00000000       0.00000000      -0.56638116       0.41685012      -0.14443614
7
Lattice="529.1772105638412 0.0 0.0 0.0 529.1772105638412 0.0 0.0 0.0 529.1772105638412" Properties=species:S:1:pos:R:3:forces_component_raw:R:3 ipi_comment="Step:       11680  Bead:       0 forces_component_raw{ase}  cell{ase}" pbc="T T T"
O        0.00000000       0.00000000       0.00000000       0.00048298      -1.40940547       0.30880690
H        0.00000000       0.00000000       0.00000000      -0.17472263       1.26159919       0.20538971
H        0.00000000       0.00000000       0.00000000      -0.00005113      -0.27858239      -0.39606312
O        0.00000000       0.00000000       0.00000000       0.18899702       0.02274612      -0.21694514
H        0.00000000       0.00000000       0.00000000       0.37673274       0.56556720      -0.11187720
H        0.00000000       0.00000000       0.00000000      -0.84617371      -0.10061739       0.37809715
H        0.00000000       0.00000000       0.00000000       0.45473459      -0.06130740      -0.16740814
7
Lattice="529.1772105638412 0.0 0.0 0.0 529.1772105638412 0.0 0.0 0.0 529.1772105638412" Properties=species:S:1:pos:R:3:forces_component_raw:R:3 ipi_comment="Step:       11700  Bead:       0 forces_component_raw{ase}  cell{ase}" pbc="T T T"
O        0.00000000       0.00000000       0.00000000       0.28599501       0.39989019       0.16451386
H        0.00000000       0.00000000       0.00000000       0.03381937       0.35393888      -0.01411760
H        0.00000000       0.00000000       0.00000000      -0.13354950      -0.42100340      -0.40233749
O        0.00000000       0.00000000       0.00000000       0.32593733       0.58209300      -0.99457079
H        0.00000000       0.00000000       0.00000000      -0.24362153      -0.27719349       0.27003148
H        0.00000000       0.00000000       0.00000000      -0.66243881       0.03949024       0.50188243
H        0.00000000       0.00000000       0.00000000       0.39385814      -0.67721540       0.47459805
7
Lattice="529.1772105638412 0.0 0.0 0.0 529.1772105638412 0.0 0.0 0.0 529.1772105638412" Properties=species:S:1:pos:R:3:forces_component_raw:R:3 ipi_comment="Step:       11720  Bead:       0 forces_component_raw{ase}  cell{ase}" pbc="T T T"
O        0.00000000       0.00000000       0.00000000      -0.44119668      -0.45990014       1.62044227
H        0.00000000       0.00000000       0.00000000       0.14833918       0.31173670      -0.58273065
H        0.00000000       0.00000000       0.00000000       0.04190506       0.19913587      -0.76519925
O        0.00000000       0.00000000       0.00000000      -0.79340887      -0.15537468      -0.26723480
H        0.00000000       0.00000000       0.00000000       0.34745073       0.27246881      -0.31867591
H        0.00000000       0.00000000       0.00000000       0.09462190       0.26567251      -0.17154309
H        0.00000000       0.00000000       0.00000000       0.60228872      -0.43373907       0.48494142
7
Lattice="529.1772105638412 0.0 0.0 0.0 529.1772105638412 0.0 0.0 0.0 529.1772105638412" Properties=species:S:1:pos:R:3:forces_component_raw:R:3 ipi_comment="Step:       11740  Bead:       0 forces_component_raw{ase}  cell{ase}" pbc="T T T"
O        0.00000000       0.00000000       0.00000000       0.23690656       1.37877417       0.38049755
H        0.00000000       0.00000000       0.00000000      -0.29045558      -0.86032152       0.30449930
H        0.00000000       0.00000000       0.00000000      -0.09208273      -0.63348234      -0.38837358
O        0.00000000       0.00000000       0.00000000      -0.91112387       0.23349345      -0.83100951
H        0.00000000       0.00000000       0.00000000       0.04063395      -0.06450766      -0.03592443
H        0.00000000       0.00000000       0.00000000       0.27714002       0.15910021      -0.08396775
H        0.00000000       0.00000000       0.00000000       0.73898184      -0.21305651       0.65427840
7
Lattice="529.1772105638412 0.0 0.0 0.0 529.1772105638412 0.0 0.0 0.0 529.1772105638412" Properties=species:S:1:pos:R:3:forces_component_raw:R:3 ipi_comment="Step:       11760  Bead:       0 forces_component_raw{ase}  cell{ase}" pbc="T T T"
O        0.00000000       0.00000000       0.00000000       0.09035841       0.02815694       0.65645403
H        0.00000000       0.00000000       0.00000000      -0.42282251      -1.08427632      -0.98018748
H        0.00000000       0.00000000       0.00000000       0.19975913       0.64341778       0.61093724
O        0.00000000       0.00000000       0.00000000      -0.00885040       0.71504259      -0.42446539
H        0.00000000       0.00000000       0.00000000      -0.14629880      -0.16103686       0.07402486
H        0.00000000       0.00000000       0.00000000      -0.19332838       0.16068012      -0.00824386
H        0.00000000       0.00000000       0.00000000       0.48118240      -0.30198404       0.07148061
7
Lattice="529.1772105638412 0.0 0.0 0.0 529.1772105638412 0.0 0.0 0.0 529.1772105638412" Properties=species:S:1:pos:R:3:forces_component_raw:R:3 ipi_comment="Step:       11780  Bead:       0 forces_component_raw{ase}  cell{ase}" pbc="T T T"
O        0.00000000       0.00000000       0.00000000       1.51986540       1.03930271      -0.92646116
H        0.00000000       0.00000000       0.00000000      -1.12687993      -1.25565446      -0.32429284
H        0.00000000       0.00000000       0.00000000      -0.36265373       0.14416572       0.92533040
O        0.00000000       0.00000000       0.00000000       0.64182884      -0.37539649       0.10908610
H        0.00000000       0.00000000       0.00000000      -0.10731505       0.08742331       0.23160636
H        0.00000000       0.00000000       0.00000000      -0.12023407      -0.04088551       0.16587812
H        0.00000000       0.00000000       0.00000000      -0.44461137       0.40104455      -0.18114716
7
Lattice="529.1772105638412 0.0 0.0 0.0 529.1772105638412 0.0 0.0 0.0 529.1772105638412" Properties=species:S:1:pos:R:3:forces_component_raw:R:3 ipi_comment="Step:       11800  Bead:       0 forces_component_raw{ase}  cell{ase}" pbc="T T T"
O        0.00000000       0.00000000       0.00000000       0.56943250       0.12887162      -0.23357564
H        0.00000000       0.00000000       0.00000000      -0.50781572      -0.34972164      -0.22354382
H        0.00000000       0.00000000       0.00000000      -0.09506978       0.15270536       0.72853536
O        0.00000000       0.00000000       0.00000000       0.56346798      -0.97226113       0.54213053
H        0.00000000       0.00000000       0.00000000       0.02890286       0.21399176      -0.52469570
H        0.00000000       0.00000000       0.00000000       0.04202914      -0.01458928       0.01978371
H        0.00000000       0.00000000       0.00000000      -0.60094714       0.84100330      -0.30863452
7
Lattice="529.1772105638412 0.0 0.0 0.0 529.1772105638412 0.0 0.0 0.0 529.1772105638412" Properties=species:S:1:pos:R:3:forces_component_raw:R:3 ipi_comment="Step:       11820  Bead:       0 forces_component_raw{ase}  cell{ase}" pbc="T T T"
O        0.00000000       0.00000000       0.00000000      -0.04690379       0.58468217      -1.35188246
H        0.00000000       0.00000000       0.00000000      -0.17188641      -0.29049507      -0.21945934
H        0.00000000       0.00000000       0.00000000       0.19408631       0.37989473       0.97716773
O        0.00000000       0.00000000       0.00000000       0.25672412      -1.51198972       0.91749501
H        0.00000000       0.00000000       0.00000000       0.25375402      -0.12296602       0.16093034
H        0.00000000       0.00000000       0.00000000      -0.10912740       0.18882056      -0.10922669
H        0.00000000       0.00000000       0.00000000      -0.37664673       0.77205354      -0.37502465
7
Lattice="529.1772105638412 0.0 0.0 0.0 529.1772105638412 0.0 0.0 0.0 529.1772105638412" Properties=species:S:1:pos:R:3:forces_component_raw:R:3 ipi_comment="Step:       11840  Bead:       0 forces_component_raw{ase}  cell{ase}" pbc="T T T"
O        0.00000000       0.00000000       0.00000000      -0.22287321      -0.07088462      -0.46241516
H        0.00000000       0.00000000       0.00000000       0.48813367       0.39822185      -0.17830898
H        0.00000000       0.00000000       0.00000000      -0.03829396      -0.03535676       0.35615724
O        0.00000000       0.00000000       0.00000000       0.69914246      -0.31654760      -0.02409899
H        0.00000000       0.00000000       0.00000000      -0.39523286       0.01518889       0.31569982
H        0.00000000       0.00000000       0.00000000      -0.05057383      -0.10779564      -0.01038641
H        0.00000000       0.00000000       0.00000000      -0.48030222       0.11717391       0.00335249
7
Lattice="529.1772105638412 0.0 0.0 0.0 529.1772105638412 0.0 0.0 0.0 529.1772105638412" Properties=species:S:1:pos:R:3:forces_component_raw:R:3 ipi_comment="Step:       11860  Bead:       0 forces_component_raw{ase}  cell{ase}" pbc="T T T"
O        0.00000000       0.00000000       0.00000000      -0.80727434      -0.39155346       0.89423675
H        0.00000000       0.00000000       0.00000000       0.96398175       0.55199850       0.05238512
H        0.00000000       0.00000000       0.00000000      -0.52144837      -0.47574550      -0.53699792
O        0.00000000       0.00000000       0.00000000      -1.17506433       0.76597041      -0.74166787
H        0.00000000       0.00000000       0.00000000       0.76263327      -0.22872971       0.15531921
H        0.00000000       0.00000000       0.00000000       0.23949701       0.03021525       0.08274125
H        0.00000000       0.00000000       0.00000000       0.53767496      -0.25215548       0.09398350
7
Lattice="529.1772105638412 0.0 0.0 0.0 529.1772105638412 0.0 0.0 0.0 529.1772105638412" Properties=species:S:1:pos:R:3:forces_component_raw:R:3 ipi_comment="Step:       11880  Bead:       0 forces_component_raw{ase}  cell{ase}" pbc="T T T"
O        0.00000000       0.00000000       0.00000000      -0.02841570      -0.70792389       2.23194314
H        0.00000000       0.00000000       0.00000000       0.67925334       0.30347523      -0.28182209
H        0.00000000       0.00000000       0.00000000      -0.53392083      -0.30905616      -1.27407456
O        0.00000000       0.00000000       0.00000000       0.39890483       1.29263413      -0.62277246
H        0.00000000       0.00000000       0.00000000      -0.74466610       0.11108667      -0.05780774
H        0.00000000       0.00000000       0.00000000      -0.40083915       0.02584002      -0.32064164
H        0.00000000       0.00000000       0.00000000       0.62968350      -0.71605599       0.32517532
7
Lattice="529.1772105638412 0.0 0.0 0.0 529.1772105638412 0.0 0.0 0.0 529.1772105638412" Properties=species:S:1:pos:R:3:forces_component_raw:R:3 ipi_comment="Step:       11900  Bead:       0 forces_component_raw{ase}  cell{ase}" pbc="T T T"
O        0.00000000       0.00000000       0.00000000      -0.31526122      -0.05191055       0.61496234
H        0.00000000       0.00000000       0.00000000       0.63166452      -0.19052544       0.39276564
H        0.00000000       0.00000000       0.00000000      -0.72192961       0.17371282      -1.34707332
O        0.00000000       0.00000000       0.00000000      -0.10970442       1.12690306       0.52316284
H        0.00000000       0.00000000       0.00000000       0.72616422       0.13361821       0.37286413
H        0.00000000       0.00000000       0.00000000      -0.81842542      -0.76855636      -0.31964743
H        0.00000000       0.00000000       0.00000000       0.60749179      -0.42324159      -0.23703453
7
Lattice="529.1772105638412 0.0 0.0 0.0 529.1772105638412 0.0 0.0 0.0 529.1772105638412" Properties=species:S:1:pos:R:3:forces_component_raw:R:3 ipi_comment="Step:       11920  Bead:       0 forces_component_raw{ase}  cell{ase}" pbc="T T T"
O        0.00000000       0.00000000       0.00000000       1.63656211       0.46165893       0.73711795
H        0.00000000       0.00000000       0.00000000      -0.81325615      -0.10070923      -0.16374043
H        0.00000000       0.00000000       0.00000000      -0.24806309       0.10505804      -0.79278672
O        0.00000000       0.00000000       0.00000000       1.40394521       0.02776369       1.28850174
H        0.00000000       0.00000000       0.00000000      -0.98404289       0.01651478      -0.57647395
H        0.00000000       0.00000000       0.00000000      -1.05351877      -0.58363330      -0.49289951
H        0.00000000       0.00000000       0.00000000       0.05837369       0.07334696       0.00028110
7
Lattice="529.1772105638412 0.0 0.0 0.0 529.1772105638412 0.0 0.0 0.0 529.1772105638412" Properties=species:S:1:pos:R:3:forces_component_raw:R:3 ipi_comment="Step:       11940  Bead:       0 forces_component_raw{ase}  cell{ase}" pbc="T T T"
O        0.00000000       0.00000000       0.00000000       0.48715782       0.89830268      -0.93935347
H        0.00000000       0.00000000       0.00000000      -0.74950552      -0.64391548       0.29824147
H        0.00000000       0.00000000       0.00000000       0.01651526      -0.07044583       0.32421151
O        0.00000000       0.00000000       0.00000000       0.21113086       0.84237862      -0.68247688
H        0.00000000       0.00000000       0.00000000       0.91674411      -0.38627058       0.85272205
H        0.00000000       0.00000000       0.00000000      -0.79494894      -0.99243808       0.37199643
H        0.00000000       0.00000000       0.00000000      -0.08709359       0.35238877      -0.22534111
7
Lattice="529.1772105638412 0.0 0.0 0.0 529.1772105638412 0.0 0.0 0.0 529.1772105638412" Properties=species:S:1:pos:R:3:forces_component_raw:R:3 ipi_comment="Step:       11960  Bead:       0 forces_component_raw{ase}  cell{ase}" pbc="T T T"
O        0.00000000       0.00000000       0.00000000       0.34970361       0.17970896       0.07863402
H        0.00000000       0.00000000       0.00000000      -0.91864389      -0.53083289      -0.46314034
H        0.00000000       0.00000000       0.00000000       0.95443905      -0.24284872       1.21329594
O        0.00000000       0.00000000       0.00000000       0.50195265       0.51538038      -0.19198686
H        0.00000000       0.00000000       0.00000000      -0.74087203       0.44962883      -0.84198451
H        0.00000000       0.00000000       0.00000000      -0.49141142      -0.17932923      -0.10116832
H        0.00000000       0.00000000       0.00000000       0.34483218      -0.19170734       0.30635002
7
Lattice="529.1772105638412 0.0 0.0 0.0 529.1772105638412 0.0 0.0 0.0 529.1772105638412" Properties=species:S:1:pos:R:3:forces_component_raw:R:3 ipi_comment="Step:       11980  Bead:       0 forces_component_raw{ase}  cell{ase}" pbc="T T T"
O        0.00000000       0.00000000       0.00000000      -1.95454133       0.13494992      -1.55557633
H        0.00000000       0.00000000       0.00000000       0.03922987      -0.27708888       0.15773720
H        0.00000000       0.00000000       0.00000000       1.40035391      -0.31567723       1.33255709
O        0.00000000       0.00000000       0.00000000      -1.53205204       0.12826759      -0.93908751
H        0.00000000       0.00000000       0.00000000       0.90913451       0.20891732       0.43864775
H        0.00000000       0.00000000       0.00000000       0.57282299       0.23878723      -0.00781021
H        0.00000000       0.00000000       0.00000000       0.56505197      -0.11815605       0.57353187
7
Lattice="529.1772105638412 0.0 0.0 0.0 529.1772105638412 0.0 0.0 0.0 529.1772105638412" Properties=species:S:1:pos:R:3:forces_component_raw:R:3 ipi_comment="Step:       12000  Bead:       0 forces_component_raw{ase}  cell{ase}" pbc="T T T"
O        0.00000000       0.00000000       0.00000000      -0.64554656       0.05974969      -1.28432834
H        0.00000000       0.00000000       0.00000000       0.06087708       0.50418490       0.30708322
H        0.00000000       0.00000000       0.00000000       0.87074429      -0.34613031       1.05702019
O        0.00000000       0.00000000       0.00000000      -1.02600861      -0.23498511      -0.96952158
H        0.00000000       0.00000000       0.00000000      -0.71474278      -0.43528712      -0.30341175
H        0.00000000       0.00000000       0.00000000       1.17333675       0.74573374      -0.07801893
H        0.00000000       0.00000000       0.00000000       0.28133991      -0.29326588       1.27117753
7
Lattice="529.1772105638412 0.0 0.0 0.0 529.1772105638412 0.0 0.0 0.0 529.1772105638412" Properties=species:S:1:pos:R:3:forces_component_raw:R:3 ipi_comment="Step:       12020  Bead:       0 forces_component_raw{ase}  cell{ase}" pbc="T T T"
O        0.00000000       0.00000000       0.00000000       0.36812723       0.46371830      -0.14378563
H        0.00000000       0.00000000       0.00000000      -0.14526786      -0.18166697      -0.16255543
H        0.00000000       0.00000000       0.00000000      -0.20391837       0.09626006       0.08301252
O        0.00000000       0.00000000       0.00000000      -0.66695100      -1.29972661      -0.17298569
H        0.00000000       0.00000000       0.00000000       0.26425391       0.21422844       0.30063397
H        0.00000000       0.00000000       0.00000000       0.08531463      -0.00203735      -0.14413431
H        0.00000000       0.00000000       0.00000000       0.29844141       0.70922423       0.23981458
7
Lattice="529.1772105638412 0.0 0.0 0.0 529.1772105638412 0.0 0.0 0.0 529.1772105638412" Properties=species:S:1:pos:R:3:forces_component_raw:R:3 ipi_comment="Step:       12040  Bead:       0 forces_component_raw{ase}  cell{ase}" pbc="T T T"
O        0.00000000       0.00000000       0.00000000       0.34098846       0.95857275       1.14910293
H        0.00000000       0.00000000       0.00000000       0.13634303      -0.07660258      -0.11119428
H        0.00000000       0.00000000       0.00000000      -0.48782700      -0.33734381      -0.71277929
O        0.00000000       0.00000000       0.00000000       0.43260527       0.67084325       0.19787681
H        0.00000000       0.00000000       0.00000000       0.25604403      -0.57425738      -0.58880133
H        0.00000000       0.00000000       0.00000000      -0.27347630      -0.41039851       0.43063495
H        0.00000000       0.00000000       0.00000000      -0.40467742      -0.23081352      -0.36483991
7
Lattice="529.1772105638412 0.0 0.0 0.0 529.1772105638412 0.0 0.0 0.0 529.1772105638412" Properties=species:S:1:pos:R:3:forces_component_raw:R:3 ipi_comment="Step:       12060  Bead:       0 forces_component_raw{ase}  cell{ase}" pbc="T T T"
O        0.00000000       0.00000000       0.00000000       0.39079431      -1.15623582       0.96286643
H        0.00000000       0.00000000       0.00000000      -0.04818906      -0.16536826       0.10121614
H        0.00000000       0.00000000       0.00000000      -0.17188394       0.65175975      -1.46075881
O        0.00000000       0.00000000       0.00000000       0.94429559       0.10440564       0.41188550
H        0.00000000       0.00000000       0.00000000      -0.44359237       0.74946535       0.66367912
H        0.00000000       0.00000000       0.00000000      -0.72033882      -0.45841465      -0.37088344
H        0.00000000       0.00000000       0.00000000       0.04891431       0.27438819      -0.30800507
7
Lattice="529.1772105638412 0.0 0.0 0.0 529.1772105638412 0.0 0.0 0.0 529.1772105638412" Properties=species:S:1:pos:R:3:forces_component_raw:R:3 ipi_comment="Step:       12080  Bead:       0 forces_component_raw{ase}  cell{ase}" pbc="T T T"
O        0.00000000       0.00000000       0.00000000      -0.04079329      -0.98825628       1.06781793
H        0.00000000       0.00000000       0.00000000      -0.37635472       0.92103172       0.58622509
H        0.00000000       0.00000000       0.00000000       0.29352105      -0.39067635      -0.85703802
O        0.00000000       0.00000000       0.00000000       0.71656978       2.20378566       0.19307941
H        0.00000000       0.00000000       0.00000000       0.20310704      -0.71747458      -0.71166253
H        0.00000000       0.00000000       0.00000000      -0.41606405      -0.58156389       0.15237722
H        0.00000000       0.00000000       0.00000000      -0.37998578      -0.44684631      -0.43079913
7
Lattice="529.1772105638412 0.0 0.0 0.0 529.1772105638412 0.0 0.0 0.0 529.1772105638412" Properties=species:S:1:pos:R:3:forces_component_raw:R:3 ipi_comment="Step:       12100  Bead:       0 forces_component_raw{ase}  cell{ase}" pbc="T T T"
O        0.00000000       0.00000000       0.00000000       1.22730279      -1.40974570      -1.09265495
H        0.00000000       0.00000000       0.00000000      -0.39812714       1.07647050       0.12181729
H        0.00000000       0.00000000       0.00000000      -0.78196263      -0.04440253       0.95406097
O        0.00000000       0.00000000       0.00000000      -0.53955895      -1.29429007       0.38792735
H        0.00000000       0.00000000       0.00000000       0.13279527       0.58076489       0.49967623
H        0.00000000       0.00000000       0.00000000       0.38621810       0.45422176      -0.18197048
H        0.00000000       0.00000000       0.00000000      -0.02666748       0.63698113      -0.68885648
7
Lattice="529.1772105638412 0.0 0.0 0.0 529.1772105638412 0.0 0.0 0.0 529.1772105638412" Properties=species:S:1:pos:R:3:forces_component_raw:R:3 ipi_comment="Step:       12120  Bead:       0 forces_component_raw{ase}  cell{ase}" pbc="T T T"
O        0.00000000       0.00000000       0.00000000       1.75368441       0.39698881      -1.37145579
H        0.00000000       0.00000000       0.00000000      -0.37447682       0.72216779       0.15361787
H        0.00000000       0.00000000       0.00000000      -1.40526140      -0.61146313       1.11887193
O        0.00000000       0.00000000       0.00000000      -1.35265684      -0.78080654      -0.96270609
H        0.00000000       0.00000000       0.00000000      -0.38536617      -0.74819470      -0.25147331
H        0.00000000       0.00000000       0.00000000       1.70864714       1.94246364       1.09171796
H        0.00000000       0.00000000       0.00000000       0.05542958      -0.92115605       0.22142729
7
Lattice="529.1772105638412 0.0 0.0 0.0 529.1772105638412 0.0 0.0 0.0 529.1772105638412" Properties=species:S:1:pos:R:3:forces_component_raw:R:3 ipi_comment="Step:       12140  Bead:       0 forces_component_raw{ase}  cell{ase}" pbc="T T T"
O        0.00000000       0.00000000       0.00000000       0.44125259       0.90800798      -0.81038118
H        0.00000000       0.00000000       0.00000000       0.34767842      -0.12163264      -0.36331949
H        0.00000000       0.00000000       0.00000000      -1.18647409      -0.51405794       0.82095909
O        0.00000000       0.00000000       0.00000000      -1.90323997      -3.29808045      -1.17981887
H        0.00000000       0.00000000       0.00000000       0.35063002       0.41192627       0.57680380
H        0.00000000       0.00000000       0.00000000       1.59248853       2.20435763       0.66030646
H        0.00000000       0.00000000       0.00000000       0.35766435       0.40947923       0.29545009
7
Lattice="529.1772105638412 0.0 0.0 0.0 529.1772105638412 0.0 0.0 0.0 529.1772105638412" Properties=species:S:1:pos:R:3:forces_component_raw:R:3 ipi_comment="Step:       12160  Bead:       0 forces_component_raw{ase}  cell{ase}" pbc="T T T"
O        0.00000000       0.00000000       0.00000000       0.92262185       0.36096287      -0.15414652
H        0.00000000       0.00000000       0.00000000       0.26085955      -0.26064348      -0.13256802
H        0.00000000       0.00000000       0.00000000      -0.74777115      -0.34526581       0.30097750
O        0.00000000       0.00000000       0.00000000      -0.04509728      -0.05503178       0.28401870
H        0.00000000       0.00000000       0.00000000      -0.57577181      -0.08358613      -0.10148230
H        0.00000000       0.00000000       0.00000000       0.57000750       0.73369622       0.59861583
H        0.00000000       0.00000000       0.00000000      -0.38484868      -0.35013199      -0.79541511
7
Lattice="529.1772105638412 0.0 0.0 0.0 529.1772105638412 0.0 0.0 0.0 529.1772105638412" Properties=species:S:1:pos:R:3:forces_component_raw:R:3 ipi_comment="Step:       12180  Bead:       0 forces_component_raw{ase}  cell{ase}" pbc="T T T"
O        0.00000000       0.00000000       0.00000000      -1.03462899       0.19542128       0.96483481
H        0.00000000       0.00000000       0.00000000       1.10337305      -0.52396846      -0.75495243
H        0.00000000       0.00000000       0.00000000      -0.11617199      -0.24729005       0.09104031
O        0.00000000       0.00000000       0.00000000      -0.03156334       0.53355324       0.83331675
H        0.00000000       0.00000000       0.00000000       0.58672798       0.10133624      -0.10480769
H        0.00000000       0.00000000       0.00000000      -0.34929770      -0.43315286      -0.40153313
H        0.00000000       0.00000000       0.00000000      -0.15843874       0.37410063      -0.62789881
7
Lattice="529.1772105638412 0.0 0.0 0.0 529.1772105638412 0.0 0.0 0.0 529.1772105638412" Properties=species:S:1:pos:R:3:forces_component_raw:R:3 ipi_comment="Step:       12200  Bead:       0 forces_component_raw{ase}  cell{ase}" pbc="T T T"
O        0.00000000       0.00000000       0.00000000       0.41610104      -1.41521645       0.23722269
H        0.00000000       0.00000000       0.00000000       0.51585734       0.14205219      -0.08252808
H        0.00000000       0.00000000       0.00000000      -0.36458948       0.88452423       0.11449444
O        0.00000000       0.00000000       0.00000000       0.49688202       1.70582652       1.67527223
H        0.00000000       0.00000000       0.00000000      -0.24570191      -0.23793998      -0.15421343
H        0.00000000       0.00000000       0.00000000      -0.64686084      -1.28092599      -0.58955807
H        0.00000000       0.00000000       0.00000000      -0.17168808       0.20167936      -1.20068968
7
Lattice="529.1772105638412 0.0 0.0 0.0 529.1772105638412 0.0 0.0 0.0 529.1772105638412" Properties=species:S:1:pos:R:3:forces_component_raw:R:3 ipi_comment="Step:       12220  Bead:       0 forces_component_raw{ase}  cell{ase}" pbc="T T T"
O        0.00000000       0.00000000       0.00000000      -0.70146215       0.58548981      -0.16239288
H        0.00000000       0.00000000       0.00000000      -0.56566107      -0.53286141       0.08795615
H        0.00000000       0.00000000       0.00000000       0.93172801       0.20774208      -0.10682574
O        0.00000000       0.00000000       0.00000000       0.53642118       1.46166766       0.46684468
H        0.00000000       0.00000000       0.00000000       0.35827172       0.18804225       0.20492768
H        0.00000000       0.00000000       0.00000000      -0.40098518      -1.81577766      -0.12367153
H        0.00000000       0.00000000       0.00000000      -0.15831232      -0.09430282      -0.36683846
7
Lattice="529.1772105638412 0.0 0.0 0.0 529.1772105638412 0.0 0.0 0.0 529.1772105638412" Properties=species:S:1:pos:R:3:forces_component_raw:R:3 ipi_comment="Step:       12240  Bead:       0 forces_component_raw{ase}  cell{ase}" pbc="T T T"
O        0.00000000       0.00000000       0.00000000       0.61731291      -0.31585127      -0.65905321
H        0.00000000       0.00000000       0.00000000      -0.77404618       0.90695119       0.23450156
H        0.00000000       0.00000000       0.00000000      -0.31229982       0.15548468       0.19015399
O        0.00000000       0.00000000       0.00000000       0.80672169       0.26727337       0.31283528
H        0.00000000       0.00000000       0.00000000      -0.15071505      -0.04524738      -0.14628989
H        0.00000000       0.00000000       0.00000000      -0.35915819      -1.09372950      -0.88301075
H        0.00000000       0.00000000       0.00000000       0.17218472       0.12511881       0.95086301
7
Lattice="529.1772105638412 0.0 0.0 0.0 529.1772105638412 0.0 0.0 0.0 529.1772105638412" Properties=species:S:1:pos:R:3:forces_component_raw:R:3 ipi_comment="Step:       12260  Bead:       0 forces_component_raw{ase}  cell{ase}" pbc="T T T"
O        0.00000000       0.00000000       0.00000000      -0.16850057      -0.31566480      -0.11396331
H        0.00000000       0.00000000       0.00000000      -0.22408998      -0.20238519      -0.05098671
H        0.00000000       0.00000000       0.00000000       0.45855901      -0.28325701       0.24561814
O        0.00000000       0.00000000       0.00000000       0.49423030       1.49509371      -0.92250353
H        0.00000000       0.00000000       0.00000000      -0.49738947       1.18448651      -0.29098934
H        0.00000000       0.00000000       0.00000000      -0.16078812      -0.82141602      -0.03554150
H        0.00000000       0.00000000       0.00000000       0.09797885      -1.05685735       1.16836620
7
Lattice="529.1772105638412 0.0 0.0 0.0 529.1772105638412 0.0 0.0 0.0 529.1772105638412" Properties=species:S:1:pos:R:3:forces_component_raw:R:3 ipi_comment="Step:       12280  Bead:       0 forces_component_raw{ase}  cell{ase}" pbc="T T T"
O        0.00000000       0.00000000       0.00000000      -0.19252475      -0.20350719      -0.57553208
H        0.00000000       0.00000000       0.00000000      -0.24427807       0.68535191      -0.02359076
H        0.00000000       0.00000000       0.00000000      -0.16602406       0.61523587       0.14628884
O        0.00000000       0.00000000       0.00000000       1.02002835      -1.22018028      -1.45639170
H        0.00000000       0.00000000       0.00000000      -0.27911550      -0.14515781      -0.14112338
H        0.00000000       0.00000000       0.00000000      -0.12859300       0.81299871       0.29454863
H        0.00000000       0.00000000       0.00000000      -0.00949301      -0.54474110       1.75580037
7
Lattice="529.1772105638412 0.0 0.0 0.0 529.1772105638412 0.0 0.0 0.0 529.1772105638412" Properties=species:S:1:pos:R:3:forces_component_raw:R:3 ipi_comment="Step:       12300  Bead:       0 forces_component_raw{ase}  cell{ase}" pbc="T T T"
O        0.00000000       0.00000000       0.00000000      -1.33232224       0.76654130      -0.11619763
H        0.00000000       0.00000000       0.00000000       0.84948814      -0.41021931       0.02766313
H        0.00000000       0.00000000       0.00000000       0.36361504      -0.16069979       0.02412472
O        0.00000000       0.00000000       0.00000000       0.05931914       0.24301022      -2.79666949
H        0.00000000       0.00000000       0.00000000       0.91506940      -1.12020040       0.61858821
H        0.00000000       0.00000000       0.00000000      -0.61370272       1.14356280       1.24241853
H        0.00000000       0.00000000       0.00000000      -0.24146676      -0.46199477       1.00007260
7
Lattice="529.1772105638412 0.0 0.0 0.0 529.1772105638412 0.0 0.0 0.0 529.1772105638412" Properties=species:S:1:pos:R:3:forces_component_raw:R:3 ipi_comment="Step:       12320  Bead:       0 forces_component_raw{ase}  cell{ase}" pbc="T T T"
O        0.00000000       0.00000000       0.00000000       0.78122544      -1.14157462       0.94079882
H        0.00000000       0.00000000       0.00000000       0.97734678       0.28354806       0.10174523
H        0.00000000       0.00000000       0.00000000      -0.54048163      -0.43173364      -0.19776085
O        0.00000000       0.00000000       0.00000000       0.75102258      -1.18314195      -0.47782326
H        0.00000000       0.00000000       0.00000000      -1.02006281       1.01445103      -0.80842608
H        0.00000000       0.00000000       0.00000000      -0.89268148       1.10173130       0.68131399
H        0.00000000       0.00000000       0.00000000      -0.05636865       0.35671973      -0.23984766
7
Lattice="529.1772105638412 0.0 0.0 0.0 529.1772105638412 0.0 0.0 0.0 529.1772105638412" Properties=species:S:1:pos:R:3:forces_component_raw:R:3 ipi_comment="Step:       12340  Bead:       0 forces_component_raw{ase}  cell{ase}" pbc="T T T"
O        0.00000000       0.00000000       0.00000000      -0.62093258       0.63616800       0.12725830
H        0.00000000       0.00000000       0.00000000       0.61058641      -0.02944216       0.01902437
H        0.00000000       0.00000000       0.00000000      -0.02644986      -0.96022618      -0.16543779
O        0.00000000       0.00000000       0.00000000      -1.19660151      -0.46107203       0.73006016
H        0.00000000       0.00000000       0.00000000       0.53791654      -0.06607373       0.51189941
H        0.00000000       0.00000000       0.00000000      -0.01613638      -0.12601885       0.20421746
H        0.00000000       0.00000000       0.00000000       0.71161735       1.00666499      -1.42702198
7
Lattice="529.1772105638412 0.0 0.0 0.0 529.1772105638412 0.0 0.0 0.0 529.1772105638412" Properties=species:S:1:pos:R:3:forces_component_raw:R:3 ipi_comment="Step:       12360  Bead:       0 forces_component_raw{ase}  cell{ase}" pbc="T T T"
O        0.00000000       0.00000000       0.00000000       0.58873403       0.64545739       0.07895237
H        0.00000000       0.00000000       0.00000000      -0.09592283       0.08129275       0.13576654
H        0.00000000       0.00000000       0.00000000      -0.47102976      -0.32489693      -0.25086722
O        0.00000000       0.00000000       0.00000000      -0.62962401      -1.66913379       1.36887193
H        0.00000000       0.00000000       0.00000000      -0.11832219      -0.12827948      -0.13912532
H        0.00000000       0.00000000       0.00000000      -0.11522740       0.08043255       0.10495091
H        0.00000000       0.00000000       0.00000000       0.84139204       1.31512749      -1.29854918
7
Lattice="529.1772105638412 0.0 0.0 0.0 529.1772105638412 0.0 0.0 0.0 529.1772105638412" Properties=species:S:1:pos:R:3:forces_component_raw:R:3 ipi_comment="Step:       12380  Bead:       0 forces_component_raw{ase}  cell{ase}" pbc="T T T"
O        0.00000000       0.00000000       0.00000000       0.16823229       1.21738100       0.13715193
H        0.00000000       0.00000000       0.00000000      -0.25243247      -0.22812562      -0.04342878
H        0.00000000       0.00000000       0.00000000      -0.02689818      -0.58715201      -0.29164326
O        0.00000000       0.00000000       0.00000000      -0.14300507      -1.19705713       1.07661712
H        0.00000000       0.00000000       0.00000000      -0.16756406      -0.11742526      -0.02716912
H        0.00000000       0.00000000       0.00000000       0.05892533       0.08837748      -0.33010370
H        0.00000000       0.00000000       0.00000000       0.36274216       0.82400161      -0.52142406
7
Lattice="529.1772105638412 0.0 0.0 0.0 529.1772105638412 0.0 0.0 0.0 529.1772105638412" Properties=species:S:1:pos:R:3:forces_component_raw:R:3 ipi_comment="Step:       12400  Bead:       0 forces_component_raw{ase}  cell{ase}" pbc="T T T"
O        0.00000000       0.00000000       0.00000000      -0.10267510      -0.87596655      -0.72294480
H        0.00000000       0.00000000       0.00000000      -0.12225783       0.33687699       0.00952971
H        0.00000000       0.00000000       0.00000000       0.05752513       0.31442475       0.50657249
O        0.00000000       0.00000000       0.00000000       0.35880894       0.16396144       0.18075658
H        0.00000000       0.00000000       0.00000000       0.06441227       0.25463605       0.07716222
H        0.00000000       0.00000000       0.00000000      -0.05899853       0.06388026      -0.29824340
H        0.00000000       0.00000000       0.00000000      -0.19681498      -0.25781292       0.24716729
7
Lattice="529.1772105638412 0.0 0.0 0.0 529.1772105638412 0.0 0.0 0.0 529.1772105638412" Properties=species:S:1:pos:R:3:forces_component_raw:R:3 ipi_comment="Step:       12420  Bead:       0 forces_component_raw{ase}  cell{ase}" pbc="T T T"
O        0.00000000       0.00000000       0.00000000       0.78324664      -1.01796258      -0.45992571
H        0.00000000       0.00000000       0.00000000      -0.58284557      -0.11151651      -0.16828561
H        0.00000000       0.00000000       0.00000000       0.17682473       0.92439568       0.78792280
O        0.00000000       0.00000000       0.00000000       0.09091002       1.89943195      -0.52991700
H        0.00000000       0.00000000       0.00000000      -0.17800453      -0.32449037      -0.07580730
H        0.00000000       0.00000000       0.00000000       0.26043636      -0.26747751      -0.61479205
H        0.00000000       0.00000000       0.00000000      -0.55056757      -1.10238064       1.06080485
7
Lattice="529.1772105638412 0.0 0.0 0.0 529.1772105638412 0.0 0.0 0.0 529.1772105638412" Properties=species:S:1:pos:R:3:forces_component_raw:R:3 ipi_comment="Step:       12440  Bead:       0 forces_component_raw{ase}  cell{ase}" pbc="T T T"
O        0.00000000       0.00000000       0.00000000       0.05452651      -0.93134195      -0.35481316
H        0.00000000       0.00000000       0.00000000      -0.45562750      -0.30987212      -0.32348558
H        0.00000000       0.00000000       0.00000000       0.41075194       0.87445319       0.69525385
O        0.00000000       0.00000000       0.00000000      -0.88602090       2.17986465      -1.18178892
H        0.00000000       0.00000000       0.00000000       0.36512774       0.13358490       0.21862432
H        0.00000000       0.00000000       0.00000000       0.93612474      -0.63295585      -0.64205670
H        0.00000000       0.00000000       0.00000000      -0.42488253      -1.31373287       1.58826614
7
Lattice="529.1772105638412 0.0 0.0 0.0 529.1772105638412 0.0 0.0 0.0 529.1772105638412" Properties=species:S:1:pos:R:3:forces_component_raw:R:3 ipi_comment="Step:       12460  Bead:       0 forces_component_raw{ase}  cell{ase}" pbc="T T T"
O        0.00000000       0.00000000       0.00000000       0.52370137      -1.38047147      -0.43058997
H        0.00000000       0.00000000       0.00000000      -0.26633126       0.26459837       0.05271214
H        0.00000000       0.00000000       0.00000000      -0.63201487       1.34727323       0.47930586
O        0.00000000       0.00000000       0.00000000       0.08918086       0.97995824      -1.07629562
H        0.00000000       0.00000000       0.00000000      -0.02258707       0.19038191      -0.11824322
H        0.00000000       0.00000000       0.00000000       1.11103773      -0.39563942      -0.56865907
H        0.00000000       0.00000000       0.00000000      -0.80298674      -1.00610090       1.66176987
7
Lattice="529.1772105638412 0.0 0.0 0.0 529.1772105638412 0.0 0.0 0.0 529.1772105638412" Properties=species:S:1:pos:R:3:forces_component_raw:R:3 ipi_comment="Step:       12480  Bead:       0 forces_component_raw{ase}  cell{ase}" pbc="T T T"
O        0.00000000       0.00000000       0.00000000      -0.99502856       0.47444326      -0.17738694
H        0.00000000       0.00000000       0.00000000       0.06286329      -0.58749521      -0.16675390
H        0.00000000       0.00000000       0.00000000       0.23122853       0.90089596       0.27958316
O        0.00000000       0.00000000       0.00000000       0.21453238       0.52785778      -0.92238260
H        0.00000000       0.00000000       0.00000000       0.13404870      -0.22302321      -0.16371381
H        0.00000000       0.00000000       0.00000000       0.68653774      -0.09700659      -0.23881498
H        0.00000000       0.00000000       0.00000000      -0.33418199      -0.99567199       1.38946891
7
Lattice="529.1772105638412 0.0 0.0 0.0 529.1772105638412 0.0 0.0 0.0 529.1772105638412" Properties=species:S:1:pos:R:3:forces_component_raw:R:3 ipi_comment="Step:       12500  Bead:       0 forces_component_raw{ase}  cell{ase}" pbc="T T T"
O        0.00000000       0.00000000       0.00000000       0.28749359       0.16430709      -0.52574176
H        0.00000000       0.00000000       0.00000000      -0.08240360       0.37781191       0.39432582
H        0.00000000       0.00000000       0.00000000      -0.30859310      -0.59857798      -0.09379013
O        0.00000000       0.00000000       0.00000000       0.06092328      -0.51623172      -0.13343745
H        0.00000000       0.00000000       0.00000000      -0.13841870       0.52716440       0.14619541
H        0.00000000       0.00000000       0.00000000      -0.01434457       0.09386782       0.13159889
H        0.00000000       0.00000000       0.00000000       0.19534317      -0.04834157       0.08084911
7
Lattice="529.1772105638412 0.0 0.0 0.0 529.1772105638412 0.0 0.0 0.0 529.1772105638412" Properties=species:S:1:pos:R:3:forces_component_raw:R:3 ipi_comment="Step:       12520  Bead:       0 forces_component_raw{ase}  cell{ase}" pbc="T T T"
O        0.00000000       0.00000000       0.00000000      -1.11083675       2.20961547       1.11285353
H        0.00000000       0.00000000       0.00000000       0.95619369      -0.20290661      -0.01335683
H        0.00000000       0.00000000       0.00000000       0.38734317      -1.45956493      -1.21883309
O        0.00000000       0.00000000       0.00000000       1.05590701      -0.68084031       1.63211275
H        0.00000000       0.00000000       0.00000000      -0.16933672      -0.34796739      -0.14352226
H        0.00000000       0.00000000       0.00000000      -0.97183359      -0.18693572       0.25044650
H        0.00000000       0.00000000       0.00000000      -0.14743686       0.66859937      -1.61970055
7
Lattice="529.1772105638412 0.0 0.0 0.0 529.1772105638412 0.0 0.0 0.0 529.1772105638412" Properties=species:S:1:pos:R:3:forces_component_raw:R:3 ipi_comment="Step:       12540  Bead:       0 forces_component_raw{ase}  cell{ase}" pbc="T T T"
O        0.00000000       0.00000000       0.00000000       0.29203320       1.43199873       1.02263785
H        0.00000000       0.00000000       0.00000000       0.59149498       0.72463334       0.42583805
H        0.00000000       0.00000000       0.00000000      -0.54468256      -2.20883990      -1.38685859
O        0.00000000       0.00000000       0.00000000       0.70017839      -0.22858781       1.41780377
H        0.00000000       0.00000000       0.00000000      -0.03212327      -0.22164062       0.08995146
H        0.00000000       0.00000000       0.00000000      -0.60901511      -0.08669257       0.15697750
H        0.00000000       0.00000000       0.00000000      -0.39788565       0.58912873      -1.72634983
7
Lattice="529.1772105638412 0.0 0.0 0.0 529.1772105638412 0.0 0.0 0.0 529.1772105638412" Properties=species:S:1:pos:R:3:forces_component_raw:R:3 ipi_comment="Step:       12560  Bead:       0 forces_component_raw{ase}  cell{ase}" pbc="T T T"
O        0.00000000       0.00000000       0.00000000      -1.39163208       1.05015695       0.30614328
H        0.00000000       0.00000000       0.00000000       0.78629631       0.05648032       0.10103604
H        0.00000000       0.00000000       0.00000000       0.48958132      -1.34533787      -0.54263198
O        0.00000000       0.00000000       0.00000000      -0.36577371      -0.21463770       0.73783976
H        0.00000000       0.00000000       0.00000000       0.01409112       0.05225469       0.30127120
H        0.00000000       0.00000000       0.00000000       0.53939313       0.00646581       0.13753900
H        0.00000000       0.00000000       0.00000000      -0.07195613       0.39461783      -1.04119718
7
Lattice="529.1772105638412 0.0 0.0 0.0 529.1772105638412 0.0 0.0 0.0 529.1772105638412" Properties=species:S:1:pos:R:3:forces_component_raw:R:3 ipi_comment="Step:       12580  Bead:       0 forces_component_raw{ase}  cell{ase}" pbc="T T T"
O        0.00000000       0.00000000       0.00000000       0.95968998      -0.47114331       0.26139051
H        0.00000000       0.00000000       0.00000000      -0.36995593       0.20851839      -0.03488676
H        0.00000000       0.00000000       0.00000000      -0.54604823       0.38172871       0.04550827
O        0.00000000       0.00000000       0.00000000      -0.23281162      -0.23163974       1.53323496
H        0.00000000       0.00000000       0.00000000      -0.26482642       0.05628145      -0.65760780
H        0.00000000       0.00000000       0.00000000       0.83058560      -0.03507665      -1.01518393
H        0.00000000       0.00000000       0.00000000      -0.37663341       0.09133102      -0.13245511
7
Lattice="529.1772105638412 0.0 0.0 0.0 529.1772105638412 0.0 0.0 0.0 529.1772105638412" Properties=species:S:1:pos:R:3:forces_component_raw:R:3 ipi_comment="Step:       12600  Bead:       0 forces_component_raw{ase}  cell{ase}" pbc="T T T"
O        0.00000000       0.00000000       0.00000000       0.02459612      -0.03209721       0.32435763
H        0.00000000       0.00000000       0.00000000      -0.32876581      -0.74358481      -0.72849095
H        0.00000000       0.00000000       0.00000000      -0.03226634       0.77162576       0.36055458
O        0.00000000       0.00000000       0.00000000      -2.15315891       1.84841168      -0.37665963
H        0.00000000       0.00000000       0.00000000       0.86366427      -0.36075723       0.51380146
H        0.00000000       0.00000000       0.00000000       1.42328358      -1.05398584      -0.93773616
H        0.00000000       0.00000000       0.00000000       0.20264703      -0.42961240       0.84417308
7
Lattice="529.1772105638412 0.0 0.0 0.0 529.1772105638412 0.0 0.0 0.0 529.1772105638412" Properties=species:S:1:pos:R:3:forces_component_raw:R:3 ipi_comment="Step:       12620  Bead:       0 forces_component_raw{ase}  cell{ase}" pbc="T T T"
O        0.00000000       0.00000000       0.00000000       2.07499910      -0.96234894       2.19822789
H        0.00000000       0.00000000       0.00000000      -0.26629609      -0.17295247      -1.41751051
H        0.00000000       0.00000000       0.00000000      -0.65698195       0.89177108      -0.43218637
O        0.00000000       0.00000000       0.00000000      -1.25982976       0.97880483       0.34769362
H        0.00000000       0.00000000       0.00000000      -1.16914904       0.44228318      -0.40718854
H        0.00000000       0.00000000       0.00000000       0.89275193      -0.45351932      -2.01143432
H        0.00000000       0.00000000       0.00000000       0.38450551      -0.72403848       1.72239817
7
Lattice="529.1772105638412 0.0 0.0 0.0 529.1772105638412 0.0 0.0 0.0 529.1772105638412" Properties=species:S:1:pos:R:3:forces_component_raw:R:3 ipi_comment="Step:       12640  Bead:       0 forces_component_raw{ase}  cell{ase}" pbc="T T T"
O        0.00000000       0.00000000       0.00000000      -1.22623277       0.13080299       0.28162474
H        0.00000000       0.00000000       0.00000000      -0.43142250      -0.98887271      -1.18007779
H        0.00000000       0.00000000       0.00000000       0.74291420       0.93014544       0.56061697
O        0.00000000       0.00000000       0.00000000      -1.54267359       1.33725953      -0.51573813
H        0.00000000       0.00000000       0.00000000       0.81956709       0.30684194       0.50055724
H        0.00000000       0.00000000       0.00000000       0.51951629      -0.45733228      -0.72107685
H        0.00000000       0.00000000       0.00000000       1.11833120      -1.25884497       1.07409394
7
Lattice="529.1772105638412 0.0 0.0 0.0 529.1772105638412 0.0 0.0 0.0 529.1772105638412" Properties=species:S:1:pos:R:3:forces_component_raw:R:3 ipi_comment="Step:       12660  Bead:       0 forces_component_raw{ase}  cell{ase}" pbc="T T T"
O        0.00000000       0.00000000       0.00000000      -0.01648068       0.08712548       1.65898681
H        0.00000000       0.00000000       0.00000000      -0.07171312       0.15185240      -1.04164565
H        0.00000000       0.00000000       0.00000000      -0.06814471       0.74485910      -0.61135841
O        0.00000000       0.00000000       0.00000000       0.64151853      -0.21956220      -0.81312436
H        0.00000000       0.00000000       0.00000000      -0.57165420      -0.80338818      -0.24207024
H        0.00000000       0.00000000       0.00000000      -0.45986652       0.48823118      -0.27900893
H        0.00000000       0.00000000       0.00000000       0.54634071      -0.44911787       1.32822061
7
Lattice="529.1772105638412 0.0 0.0 0.0 529.1772105638412 0.0 0.0 0.0 529.1772105638412" Properties=species:S:1:pos:R:3:forces_component_raw:R:3 ipi_comment="Step:       12680  Bead:       0 forces_component_raw{ase}  cell{ase}" pbc="T T T"
O        0.00000000       0.00000000       0.00000000      -0.27593207       0.67475557      -0.77545083
H        0.00000000       0.00000000       0.00000000      -0.51864135      -0.38443846       0.05224057
H        0.00000000       0.00000000       0.00000000       0.59429097      -1.11238206       0.55827123
O        0.00000000       0.00000000       0.00000000       0.19646287      -0.30520234      -0.99585480
H        0.00000000       0.00000000       0.00000000       0.15952060       0.80746210       0.24305123
H        0.00000000       0.00000000       0.00000000      -0.46199784       0.50093722       1.81104350
H        0.00000000       0.00000000       0.00000000       0.30629692      -0.18113206      -0.89330113
7
Lattice="529.1772105638412 0.0 0.0 0.0 529.1772105638412 0.0 0.0 0.0 529.1772105638412" Properties=species:S:1:pos:R:3:forces_component_raw:R:3 ipi_comment="Step:       12700  Bead:       0 forces_component_raw{ase}  cell{ase}" pbc="T T T"
O        0.00000000       0.00000000       0.00000000       0.57516384       0.19406486       0.08329663
H        0.00000000       0.00000000       0.00000000       0.71988118       0.67806602       0.35539660
H        0.00000000       0.00000000       0.00000000      -1.01333785      -0.50221354      -0.24244750
O        0.00000000       0.00000000       0.00000000       2.09091020      -2.28394580       0.37183368
H        0.00000000       0.00000000       0.00000000      -0.72708577      -0.53858554      -0.46770108
H        0.00000000       0.00000000       0.00000000      -1.29682505       1.63556373       1.29112304
H        0.00000000       0.00000000       0.00000000      -0.34870625       0.81705022      -1.39150143
7
Lattice="529.1772105638412 0.0 0.0 0.0 529.1772105638412 0.0 0.0 0.0 529.1772105638412" Properties=species:S:1:pos:R:3:forces_component_raw:R:3 ipi_comment="Step:       12720  Bead:       0 forces_component_raw{ase}  cell{ase}" pbc="T T T"
O        0.00000000       0.00000000       0.00000000       0.13991985       0.96422953       0.02447280
H        0.00000000       0.00000000       0.00000000      -0.32526448      -0.46583837       0.01064905
H        0.00000000       0.00000000       0.00000000       0.35871166      -1.15427685       0.17459178
O        0.00000000       0.00000000       0.00000000      -1.46421933       0.12434465       0.61455882
H        0.00000000       0.00000000       0.00000000       1.35803032      -0.54539609       0.34693876
H        0.00000000       0.00000000       0.00000000      -0.34133327       0.40768397       0.90587342
H        0.00000000       0.00000000       0.00000000       0.27415514       0.66925317      -2.07708478
7
Lattice="529.1772105638412 0.0 0.0 0.0 529.1772105638412 0.0 0.0 0.0 529.1772105638412" Properties=species:S:1:pos:R:3:forces_component_raw:R:3 ipi_comment="Step:       12740  Bead:       0 forces_component_raw{ase}  cell{ase}" pbc="T T T"
O        0.00000000       0.00000000       0.00000000       1.75687302      -0.49157864      -0.15371448
H        0.00000000       0.00000000       0.00000000       0.35057709      -0.34751174       0.07632280
H        0.00000000       0.00000000       0.00000000      -0.27997083       0.09183830       0.17629136
O        0.00000000       0.00000000       0.00000000      -0.60085261      -0.58009702       2.02891541
H        0.00000000       0.00000000       0.00000000      -1.73721767       0.41417119      -0.06550667
H        0.00000000       0.00000000       0.00000000       0.23329592      -0.36796856      -0.37965673
H        0.00000000       0.00000000       0.00000000       0.27729511       1.28114641      -1.68265164
7
Lattice="529.1772105638412 0.0 0.0 0.0 529.1772105638412 0.0 0.0 0.0 529.1772105638412" Properties=species:S:1:pos:R:3:forces_component_raw:R:3 ipi_comment="Step:       12760  Bead:       0 forces_component_raw{ase}  cell{ase}" pbc="T T T"
O        0.00000000       0.00000000       0.00000000      -0.17478156      -0.63980055       0.48769891
H        0.00000000       0.00000000       0.00000000       0.01760417       0.21851045      -0.11227426
H        0.00000000       0.00000000       0.00000000      -0.25156540       0.46451578      -0.41665834
O        0.00000000       0.00000000       0.00000000      -1.61578620       0.47350574       1.51440227
H        0.00000000       0.00000000       0.00000000       1.23078513      -0.46390653       0.32674319
H        0.00000000       0.00000000       0.00000000       0.39020380      -0.73977316      -0.93761188
H        0.00000000       0.00000000       0.00000000       0.40354014       0.68694842      -0.86229980
7
Lattice="529.1772105638412 0.0 0.0 0.0 529.1772105638412 0.0 0.0 0.0 529.1772105638412" Properties=species:S:1:pos:R:3:forces_component_raw:R:3 ipi_comment="Step:       12780  Bead:       0 forces_component_raw{ase}  cell{ase}" pbc="T T T"
O        0.00000000       0.00000000       0.00000000      -1.52730465       0.07112367      -0.17612985
H        0.00000000       0.00000000       0.00000000       0.65722507      -0.15493518       0.39015871
H        0.00000000       0.00000000       0.00000000       0.13534026       0.86695945      -0.33538944
O        0.00000000       0.00000000       0.00000000       1.28244949      -0.83296782       0.83245331
H        0.00000000       0.00000000       0.00000000      -0.28471375       0.19347337       0.03758304
H        0.00000000       0.00000000       0.00000000       0.02351263      -0.06605525      -1.24830902
H        0.00000000       0.00000000       0.00000000      -0.28650910      -0.07759848       0.49963310
7
Lattice="529.1772105638412 0.0 0.0 0.0 529.1772105638412 0.0 0.0 0.0 529.1772105638412" Properties=species:S:1:pos:R:3:forces_component_raw:R:3 ipi_comment="Step:       12800  Bead:       0 forces_component_raw{ase}  cell{ase}" pbc="T T T"
O        0.00000000       0.00000000       0.00000000      -0.01605576       0.23417786       0.77963358
H        0.00000000       0.00000000       0.00000000       0.36027318       0.37210074      -0.33388436
H        0.00000000       0.00000000       0.00000000      -0.60744512      -0.03907675      -0.46739489
O        0.00000000       0.00000000       0.00000000      -0.39207417       2.51258183       0.86681700
H        0.00000000       0.00000000       0.00000000       0.54211074      -0.70375985      -0.16926020
H        0.00000000       0.00000000       0.00000000       0.01346019      -1.05897022      -1.08066976
H        0.00000000       0.00000000       0.00000000       0.09973079      -1.31705344       0.40475834
7
Lattice="529.1772105638412 0.0 0.0 0.0 529.1772105638412 0.0 0.0 0.0 529.1772105638412" Properties=species:S:1:pos:R:3:forces_component_raw:R:3 ipi_comment="Step:       12820  Bead:       0 forces_component_raw{ase}  cell{ase}" pbc="T T T"
O        0.00000000       0.00000000       0.00000000      -0.95514137       0.46002755      -0.71328688
H        0.00000000       0.00000000       0.00000000       0.08105701      -0.00854373       0.17826974
H        0.00000000       0.00000000       0.00000000       0.27130449      -0.63832945       0.35218033
O        0.00000000       0.00000000       0.00000000       0.13012627       0.49252364      -0.41345972
H        0.00000000       0.00000000       0.00000000       0.26238293       0.77607203       0.43933898
H        0.00000000       0.00000000       0.00000000       0.54485744      -0.28327942      -1.94305873
H        0.00000000       0.00000000       0.00000000      -0.33458680      -0.79847062       2.10001636
7
Lattice="529.1772105638412 0.0 0.0 0.0 529.1772105638412 0.0 0.0 0.0 529.1772105638412" Properties=species:S:1:pos:R:3:forces_component_raw:R:3 ipi_comment="Step:       12840  Bead:       0 forces_component_raw{ase}  cell{ase}" pbc="T T T"
O        0.00000000       0.00000000       0.00000000       0.91813904      -0.47316766      -0.12715338
H        0.00000000       0.00000000       0.00000000       0.38991046      -0.04943030       0.11179391
H        0.00000000       0.00000000       0.00000000      -0.07959637      -0.03309697       0.11434181
O        0.00000000       0.00000000       0.00000000      -1.95415950       3.40845967      -1.46623969
H        0.00000000       0.00000000       0.00000000      -0.40624875      -0.17540941      -0.14751893
H        0.00000000       0.00000000       0.00000000       0.48213548      -0.81865931       0.03868416
H        0.00000000       0.00000000       0.00000000       0.64981955      -1.85869599       1.47609234
7
Lattice="529.1772105638412 0.0 0.0 0.0 529.1772105638412 0.0 0.0 0.0 529.1772105638412" Properties=species:S:1:pos:R:3:forces_component_raw:R:3 ipi_comment="Step:       12860  Bead:       0 forces_component_raw{ase}  cell{ase}" pbc="T T T"
O        0.00000000       0.00000000       0.00000000       0.63507497      -1.27282179       0.11582683
H        0.00000000       0.00000000       0.00000000       0.72846729       0.31577045       0.03737292
H        0.00000000       0.00000000       0.00000000      -0.06102359      -0.20415229       0.03795835
O        0.00000000       0.00000000       0.00000000      -0.85498637       0.63356805      -2.03717018
H        0.00000000       0.00000000       0.00000000       0.36003077      -0.14363706       0.12109131
H        0.00000000       0.00000000       0.00000000      -0.28248724       0.64230567      -0.38430321
H        0.00000000       0.00000000       0.00000000      -0.52507568       0.02896708       2.10922385
7
Lattice="529.1772105638412 0.0 0.0 0.0 529.1772105638412 0.0 0.0 0.0 529.1772105638412" Properties=species:S:1:pos:R:3:forces_component_raw:R:3 ipi_comment="Step:       12880  Bead:       0 forces_component_raw{ase}  cell{ase}" pbc="T T T"
O        0.00000000       0.00000000       0.00000000       0.07027190      -0.29781032       0.04863859
H        0.00000000       0.00000000       0.00000000      -0.31424427       0.18579204       0.04236674
H        0.00000000       0.00000000       0.00000000       0.26926690      -0.14534688       0.02994038
O        0.00000000       0.00000000       0.00000000      -0.29411507       0.42835450      -2.41158486
H        0.00000000       0.00000000       0.00000000       0.02484143       0.15805084       0.12769431
H        0.00000000       0.00000000       0.00000000      -0.07804883       0.56718564       1.41730810
H        0.00000000       0.00000000       0.00000000       0.32202786      -0.89622581       0.74563676
7
Lattice="529.1772105638412 0.0 0.0 0.0 529.1772105638412 0.0 0.0 0.0 529.1772105638412" Properties=species:S:1:pos:R:3:forces_component_raw:R:3 ipi_comment="Step:       12900  Bead:       0 forces_component_raw{ase}  cell{ase}" pbc="T T T"
O        0.00000000       0.00000000       0.00000000      -0.17797469       0.20794755       0.02934737
H        0.00000000       0.00000000       0.00000000      -0.70821268      -0.09464324       0.14573623
H        0.00000000       0.00000000       0.00000000       0.21427405       0.51921928      -0.00866862
O        0.00000000       0.00000000       0.00000000       1.95958186      -2.30312777       0.63354391
H        0.00000000       0.00000000       0.00000000      -0.52369905      -0.29136986      -0.40944740
H        0.00000000       0.00000000       0.00000000      -0.36081594       1.27093005       0.14541554
H        0.00000000       0.00000000       0.00000000      -0.40315342       0.69104397      -0.53592724
7
Lattice="529.1772105638412 0.0 0.0 0.0 529.1772105638412 0.0 0.0 0.0 529.1772105638412" Properties=species:S:1:pos:R:3:forces_component_raw:R:3 ipi_comment="Step:       12920  Bead:       0 forces_component_raw{ase}  cell{ase}" pbc="T T T"
O        0.00000000       0.00000000       0.00000000       0.48885334      -0.12316531      -0.21977109
H        0.00000000       0.00000000       0.00000000      -0.88507301      -0.26117823       0.27875820
H        0.00000000       0.00000000       0.00000000      -0.14860280       0.60977686      -0.04506062
O        0.00000000       0.00000000       0.00000000      -0.53137559       0.11335766       0.69454223
H        0.00000000       0.00000000       0.00000000       1.00473058      -0.28071466      -0.09924975
H        0.00000000       0.00000000       0.00000000       0.19350596       0.24954838       0.99245668
H        0.00000000       0.00000000       0.00000000      -0.12203831      -0.30762473      -1.60167563
7
Lattice="529.1772105638412 0.0 0.0 0.0 529.1772105638412 0.0 0.0 0.0 529.1772105638412" Properties=species:S:1:pos:R:3:forces_component_raw:R:3 ipi_comment="Step:       12940  Bead:       0 forces_component_raw{ase}  cell{ase}" pbc="T T T"
O        0.00000000       0.00000000       0.00000000      -0.80034000       0.12380412      -0.05073150
H        0.00000000       0.00000000       0.00000000       0.28932300      -0.44378042       0.05111718
H        0.00000000       0.00000000       0.00000000      -0.25685871       1.05787230      -0.35115010
O        0.00000000       0.00000000       0.00000000       1.73233617      -2.52967311       1.73884464
H        0.00000000       0.00000000       0.00000000      -0.28793514      -0.13757628       0.15871897
H        0.00000000       0.00000000       0.00000000      -0.24007395       0.98474777       0.24908233
H        0.00000000       0.00000000       0.00000000      -0.43645132       0.94460547      -1.79588151
7
Lattice="529.1772105638412 0.0 0.0 0.0 529.1772105638412 0.0 0.0 0.0 529.1772105638412" Properties=species:S:1:pos:R:3:forces_component_raw:R:3 ipi_comment="Step:       12960  Bead:       0 forces_component_raw{ase}  cell{ase}" pbc="T T T"
O        0.00000000       0.00000000       0.00000000      -0.42608070      -1.33247841       0.18206464
H        0.00000000       0.00000000       0.00000000       0.47584200       0.61669076      -0.41175428
H        0.00000000       0.00000000       0.00000000      -0.49688864       0.60165382       0.15053506
O        0.00000000       0.00000000       0.00000000       0.44978029      -0.86699110       1.49034906
H        0.00000000       0.00000000       0.00000000       0.37716103       0.59821260       0.00058705
H        0.00000000       0.00000000       0.00000000       0.19608031       0.13867658       0.92229879
H        0.00000000       0.00000000       0.00000000      -0.57589418       0.24423569      -2.33408046
7
Lattice="529.1772105638412 0.0 0.0 0.0 529.1772105638412 0.0 0.0 0.0 529.1772105638412" Properties=species:S:1:pos:R:3:forces_component_raw:R:3 ipi_comment="Step:       12980  Bead:       0 forces_component_raw{ase}  cell{ase}" pbc="T T T"
O        0.00000000       0.00000000       0.00000000      -0.32286966      -0.42751950       0.43927384
H        0.00000000       0.00000000       0.00000000       0.88923037      -0.11760849      -0.36583170
H        0.00000000       0.00000000       0.00000000       0.33486512       0.22000611       0.04009612
O        0.00000000       0.00000000       0.00000000      -0.01069474      -0.30337209       0.64287949
H        0.00000000       0.00000000       0.00000000      -0.08314440      -0.47691459      -0.26985553
H        0.00000000       0.00000000       0.00000000      -0.56331492       0.60498792      -0.09727359
H        0.00000000       0.00000000       0.00000000      -0.24407175       0.50042051      -0.38928855
7
Lattice="529.1772105638412 0.0 0.0 0.0 529.1772105638412 0.0 0.0 0.0 529.1772105638412" Properties=species:S:1:pos:R:3:forces_component_raw:R:3 ipi_comment="Step:       13000  Bead:       0 forces_component_raw{ase}  cell{ase}" pbc="T T T"
O        0.00000000       0.00000000       0.00000000      -0.09418848      -0.79897320      -0.17016351
H        0.00000000       0.00000000       0.00000000       0.27484316       0.53796047      -0.09230205
H        0.00000000       0.00000000       0.00000000       0.03789073      -0.18686533       0.35498446
O        0.00000000       0.00000000       0.00000000      -0.82273221       0.18822146      -2.13206339
H        0.00000000       0.00000000       0.00000000       0.16198388       0.13390113       0.28508744
H        0.00000000       0.00000000       0.00000000      -0.02678251       0.42911974       0.81125170
H        0.00000000       0.00000000       0.00000000       0.46898532      -0.30336446       0.94320536
7
Lattice="529.1772105638412 0.0 0.0 0.0 529.1772105638412 0.0 0.0 0.0 529.1772105638412" Properties=species:S:1:pos:R:3:forces_component_raw:R:3 ipi_comment="Step:       13020  Bead:       0 forces_component_raw{ase}  cell{ase}" pbc="T T T"
O        0.00000000       0.00000000       0.00000000       0.63878906       0.92568869       0.31185016
H        0.00000000       0.00000000       0.00000000      -0.46939007      -0.02526915      -0.02093077
H        0.00000000       0.00000000       0.00000000       0.00820488      -0.65383953      -0.02971487
O        0.00000000       0.00000000       0.00000000       0.93022698      -0.45379093      -1.64599431
H        0.00000000       0.00000000       0.00000000      -0.58541542      -0.49663150      -0.37806279
H        0.00000000       0.00000000       0.00000000      -0.48579034       0.50867200       0.08374518
H        0.00000000       0.00000000       0.00000000      -0.03662490       0.19517049       1.67910743
7
Lattice="529.1772105638412 0.0 0.0 0.0 529.1772105638412 0.0 0.0 0.0 529.1772105638412" Properties=species:S:1:pos:R:3:forces_component_raw:R:3 ipi_comment="Step:       13040  Bead:       0 forces_component_raw{ase}  cell{ase}" pbc="T T T"
O        0.00000000       0.00000000       0.00000000       0.76119423       1.35612274      -0.39483869
H        0.00000000       0.00000000       0.00000000      -1.51032687      -0.20580715       0.03185765
H        0.00000000       0.00000000       0.00000000       0.02570418      -0.69390237       0.28163549
O        0.00000000       0.00000000       0.00000000      -0.20622528      -0.05517754      -1.60093451
H        0.00000000       0.00000000       0.00000000       0.04201886      -0.21426943      -0.12772143
H        0.00000000       0.00000000       0.00000000       0.19996578       0.04632804       0.56564063
H        0.00000000       0.00000000       0.00000000       0.68766886      -0.23329435       1.24436105
7
Lattice="529.1772105638412 0.0 0.0 0.0 529.1772105638412 0.0 0.0 0.0 529.1772105638412" Properties=species:S:1:pos:R:3:forces_component_raw:R:3 ipi_comment="Step:       13060  Bead:       0 forces_component_raw{ase}  cell{ase}" pbc="T T T"
O        0.00000000       0.00000000       0.00000000       0.82394511       0.94752109      -0.25163180
H        0.00000000       0.00000000       0.00000000      -1.25901246      -0.71314681      -0.07353261
H        0.00000000       0.00000000       0.00000000      -0.16595230      -0.01225084       0.00176886
O        0.00000000       0.00000000       0.00000000       0.93379641      -0.63747114       0.67743081
H        0.00000000       0.00000000       0.00000000       0.06051806       0.38735110       0.23836450
H        0.00000000       0.00000000       0.00000000       0.02454558      -0.23966353      -0.56241101
H        0.00000000       0.00000000       0.00000000      -0.41784039       0.26766017      -0.02998877
7
Lattice="529.1772105638412 0.0 0.0 0.0 529.1772105638412 0.0 0.0 0.0 529.1772105638412" Properties=species:S:1:pos:R:3:forces_component_raw:R:3 ipi_comment="Step:       13080  Bead:       0 forces_component_raw{ase}  cell{ase}" pbc="T T T"
O        0.00000000       0.00000000       0.00000000       0.66889137       0.10496684       0.65720415
H        0.00000000       0.00000000       0.00000000      -0.03777847      -0.58208078       0.02738373
H        0.00000000       0.00000000       0.00000000      -0.44809520       0.70296014      -0.78298432
O        0.00000000       0.00000000       0.00000000      -0.07380193       0.99401742       1.36074484
H        0.00000000       0.00000000       0.00000000       0.10650116      -0.49122828      -0.05486226
H        0.00000000       0.00000000       0.00000000       0.15846483      -0.27485138      -0.19299591
H        0.00000000       0.00000000       0.00000000      -0.37418175      -0.45378414      -1.01449037
7
Lattice="529.1772105638412 0.0 0.0 0.0 529.1772105638412 0.0 0.0 0.0 529.1772105638412" Properties=species:S:1:pos:R:3:forces_component_raw:R:3 ipi_comment="Step:       13100  Bead:       0 forces_component_raw{ase}  cell{ase}" pbc="T T T"
O        0.00000000       0.00000000       0.00000000      -0.58347041      -2.25443602       1.76015854
H        0.00000000       0.00000000       0.00000000       0.70146835       0.69718355       0.20139295
H        0.00000000       0.00000000       0.00000000       0.58583778       0.63482231      -1.34973932
O        0.00000000       0.00000000       0.00000000      -0.27954778       1.20115829       1.22431088
H        0.00000000       0.00000000       0.00000000       0.07593734       0.84576214      -0.12928811
H        0.00000000       0.00000000       0.00000000       0.48507214      -0.67613524      -0.38207468
H        0.00000000       0.00000000       0.00000000      -0.98529750      -0.44835490      -1.32476032
7
Lattice="529.1772105638412 0.0 0.0 0.0 529.1772105638412 0.0 0.0 0.0 529.1772105638412" Properties=species:S:1:pos:R:3:forces_component_raw:R:3 ipi_comment="Step:       13120  Bead:       0 forces_component_raw{ase}  cell{ase}" pbc="T T T"
O        0.00000000       0.00000000       0.00000000      -0.88263095      -0.25721395       1.83569122
H        0.00000000       0.00000000       0.00000000       0.70826095       0.13115245       0.00022765
H        0.00000000       0.00000000       0.00000000       0.57067585       0.09360445      -1.41706550
O        0.00000000       0.00000000       0.00000000      -0.61571044       0.91044104       0.18009073
H        0.00000000       0.00000000       0.00000000       0.10817452      -0.34816840      -0.09633121
H        0.00000000       0.00000000       0.00000000       0.26416028      -0.54433012      -0.46862513
H        0.00000000       0.00000000       0.00000000      -0.15293029       0.01451439      -0.03398800
7
Lattice="529.1772105638412 0.0 0.0 0.0 529.1772105638412 0.0 0.0 0.0 529.1772105638412" Properties=species:S:1:pos:R:3:forces_component_raw:R:3 ipi_comment="Step:       13140  Bead:       0 forces_component_raw{ase}  cell{ase}" pbc="T T T"
O        0.00000000       0.00000000       0.00000000      -0.58885580      -0.42032153       1.41117311
H        0.00000000       0.00000000       0.00000000       0.06425321       0.20022632      -0.11461957
H        0.00000000       0.00000000       0.00000000       0.41776100       0.26085898      -1.21985138
O        0.00000000       0.00000000       0.00000000      -0.45596403      -0.29664850      -0.27738130
H        0.00000000       0.00000000       0.00000000      -0.18041137      -0.09764552      -0.22142096
H        0.00000000       0.00000000       0.00000000       0.12573013       0.08903837       0.04744682
H        0.00000000       0.00000000       0.00000000       0.61748690       0.26449174       0.37465304
7
Lattice="529.1772105638412 0.0 0.0 0.0 529.1772105638412 0.0 0.0 0.0 529.1772105638412" Properties=species:S:1:pos:R:3:forces_component_raw:R:3 ipi_comment="Step:       13160  Bead:       0 forces_component_raw{ase}  cell{ase}" pbc="T T T"
O        0.00000000       0.00000000       0.00000000       0.27067035       0.14259669      -0.66752273
H        0.00000000       0.00000000       0.00000000      -0.92665673       0.22690645       0.21185581
H        0.00000000       0.00000000       0.00000000       0.08411551      -0.03225721       0.04989964
O        0.00000000       0.00000000       0.00000000       0.97689659      -1.92609728      -0.57545865
H        0.00000000       0.00000000       0.00000000      -0.15419070       0.33639067       0.07214629
H        0.00000000       0.00000000       0.00000000      -0.57068348       0.46219707       0.47541514
H        0.00000000       0.00000000       0.00000000       0.31984830       0.79026365       0.43366444
7
Lattice="529.1772105638412 0.0 0.0 0.0 529.1772105638412 0.0 0.0 0.0 529.1772105638412" Properties=species:S:1:pos:R:3:forces_component_raw:R:3 ipi_comment="Step:       13180  Bead:       0 forces_component_raw{ase}  cell{ase}" pbc="T T T"
O        0.00000000       0.00000000       0.00000000       0.44867873       0.31321496      -1.81269956
H        0.00000000       0.00000000       0.00000000      -0.62959552       0.40454361       0.54317701
H        0.00000000       0.00000000       0.00000000      -0.06225531      -0.49353394       1.10273552
O        0.00000000       0.00000000       0.00000000      -0.15553257      -1.07670343      -1.18893671
H        0.00000000       0.00000000       0.00000000       0.76509470      -0.82599211       0.24608199
H        0.00000000       0.00000000       0.00000000      -0.98381758       1.36622584       0.79889226
H        0.00000000       0.00000000       0.00000000       0.61742747       0.31224522       0.31074935
7
Lattice="529.1772105638412 0.0 0.0 0.0 529.1772105638412 0.0 0.0 0.0 529.1772105638412" Properties=species:S:1:pos:R:3:forces_component_raw:R:3 ipi_comment="Step:       13200  Bead:       0 forces_component_raw{ase}  cell{ase}" pbc="T T T"
O        0.00000000       0.00000000       0.00000000      -0.10996032       0.90357912      -2.66463853
H        0.00000000       0.00000000       0.00000000       0.31593391      -0.01651418       0.43498325
H        0.00000000       0.00000000       0.00000000      -0.34323052      -0.71007013       1.41825855
O        0.00000000       0.00000000       0.00000000       1.21157337      -2.51405311      -0.33641955
H        0.00000000       0.00000000       0.00000000      -0.31812877       0.31511933       0.29810074
H        0.00000000       0.00000000       0.00000000      -0.93404746       1.62447942       0.69222534
H        0.00000000       0.00000000       0.00000000       0.17785960       0.39745957       0.15749049
7
Lattice="529.1772105638412 0.0 0.0 0.0 529.1772105638412 0.0 0.0 0.0 529.1772105638412" Properties=species:S:1:pos:R:3:forces_component_raw:R:3 ipi_comment="Step:       13220  Bead:       0 forces_component_raw{ase}  cell{ase}" pbc="T T T"
O        0.00000000       0.00000000       0.00000000      -0.34175146       0.66714275       0.69629848
H        0.00000000       0.00000000       0.00000000       0.28406125      -0.49512500      -0.45821911
H        0.00000000       0.00000000       0.00000000       0.06319234      -0.14659569       0.25678116
O        0.00000000       0.00000000       0.00000000      -0.09823212      -0.55746567       0.07979167
H        0.00000000       0.00000000       0.00000000       0.14305833      -0.08183390      -0.72351641
H        0.00000000       0.00000000       0.00000000      -0.05791382       0.78599715       0.18866360
H        0.00000000       0.00000000       0.00000000       0.00758561      -0.17211950      -0.03979933
7
Lattice="529.1772105638412 0.0 0.0 0.0 529.1772105638412 0.0 0.0 0.0 529.1772105638412" Properties=species:S:1:pos:R:3:forces_component_raw:R:3 ipi_comment="Step:       13240  Bead:       0 forces_component_raw{ase}  cell{ase}" pbc="T T T"
O        0.00000000       0.00000000       0.00000000      -0.18957681       0.74258310       0.94361818
H        0.00000000       0.00000000       0.00000000       0.81932426      -1.13621283      -0.49244759
H        0.00000000       0.00000000       0.00000000       0.05004292       0.17468010      -0.41720283
O        0.00000000       0.00000000       0.00000000      -0.07281017       1.52727890      -0.49279139
H        0.00000000       0.00000000       0.00000000      -0.24998388      -0.16544616       0.61548209
H        0.00000000       0.00000000       0.00000000       0.26416969      -0.83103597       0.03827079
H        0.00000000       0.00000000       0.00000000      -0.62116587      -0.31184724      -0.19492930
7
Lattice="529.1772105638412 0.0 0.0 0.0 529.1772105638412 0.0 0.0 0.0 529.1772105638412" Properties=species:S:1:pos:R:3:forces_component_raw:R:3 ipi_comment="Step:       13260  Bead:       0 forces_component_raw{ase}  cell{ase}" pbc="T T T"
O        0.00000000       0.00000000       0.00000000      -0.47349829       0.59196067       1.21204210
H        0.00000000       0.00000000       0.00000000       0.61002469      -0.65998513      -0.34911960
H        0.00000000       0.00000000       0.00000000       0.29677638      -0.03644207      -0.35149053
O        0.00000000       0.00000000       0.00000000       0.43707556       1.34350086      -0.37207112
H        0.00000000       0.00000000       0.00000000      -0.02327533      -0.28826714       0.06408793
H        0.00000000       0.00000000       0.00000000      -0.08088349      -0.73931486      -0.09484303
H        0.00000000       0.00000000       0.00000000      -0.76621944      -0.21145237      -0.10860567
7
Lattice="529.1772105638412 0.0 0.0 0.0 529.1772105638412 0.0 0.0 0.0 529.1772105638412" Properties=species:S:1:pos:R:3:forces_component_raw:R:3 ipi_comment="Step:       13280  Bead:       0 forces_component_raw{ase}  cell{ase}" pbc="T T T"
O        0.00000000       0.00000000       0.00000000      -1.08524573       0.66502547       0.76648235
H        0.00000000       0.00000000       0.00000000       0.49768242      -0.46057135      -0.34391910
H        0.00000000       0.00000000       0.00000000       0.31215924      -0.15957403      -0.35485870
O        0.00000000       0.00000000       0.00000000       0.29394943       0.42806041       0.24604178
H        0.00000000       0.00000000       0.00000000       0.02940001       0.41757268      -0.14636055
H        0.00000000       0.00000000       0.00000000       0.33660603      -0.53044903      -0.07757781
H        0.00000000       0.00000000       0.00000000      -0.38455129      -0.36006391      -0.08980786
7
Lattice="529.1772105638412 0.0 0.0 0.0 529.1772105638412 0.0 0.0 0.0 529.1772105638412" Properties=species:S:1:pos:R:3:forces_component_raw:R:3 ipi_comment="Step:       13300  Bead:       0 forces_component_raw{ase}  cell{ase}" pbc="T T T"
O        0.00000000       0.00000000       0.00000000      -0.92392713       0.54329288      -0.05719808
H        0.00000000       0.00000000       0.00000000       0.41165340      -0.22424495       0.03929210
H        0.00000000       0.00000000       0.00000000       0.28505561      -0.23991105      -0.37442392
O        0.00000000       0.00000000       0.00000000       0.05261824       0.15605038       0.22347412
H        0.00000000       0.00000000       0.00000000      -0.23298249      -0.26173210       0.42567301
H        0.00000000       0.00000000       0.00000000      -0.33842173      -0.10157269      -0.29659945
H        0.00000000       0.00000000       0.00000000       0.74600411       0.12811761       0.03978227
7
Lattice="529.1772105638412 0.0 0.0 0.0 529.1772105638412 0.0 0.0 0.0 529.1772105638412" Properties=species:S:1:pos:R:3:forces_component_raw:R:3 ipi_comment="Step:       13320  Bead:       0 forces_component_raw{ase}  cell{ase}" pbc="T T T"
O        0.00000000       0.00000000       0.00000000       0.81403768      -0.48417848      -0.23797482
H        0.00000000       0.00000000       0.00000000      -0.76522088       0.22284558      -0.20368794
H        0.00000000       0.00000000       0.00000000      -0.41024315       0.18836248       0.11968237
O        0.00000000       0.00000000       0.00000000      -1.07825434      -1.41970897       0.88608778
H        0.00000000       0.00000000       0.00000000       0.31266320       0.64825982      -0.14784893
H        0.00000000       0.00000000       0.00000000       0.00126034       0.33123720       0.01980498
H        0.00000000       0.00000000       0.00000000       1.12575698       0.51318240      -0.43606341
7
Lattice="529.1772105638412 0.0 0.0 0.0 529.1772105638412 0.0 0.0 0.0 529.1772105638412" Properties=species:S:1:pos:R:3:forces_component_raw:R:3 ipi_comment="Step:       13340  Bead:       0 forces_component_raw{ase}  cell{ase}" pbc="T T T"
O        0.00000000       0.00000000       0.00000000      -0.08178784      -0.24780631      -2.20795060
H        0.00000000       0.00000000       0.00000000      -0.57589936       0.29035002       1.07060158
H        0.00000000       0.00000000       0.00000000       0.43828076       0.32773557       0.59353310
O        0.00000000       0.00000000       0.00000000      -0.64699179       0.26164350       0.50304282
H        0.00000000       0.00000000       0.00000000      -0.33804074      -0.62707997       0.05525902
H        0.00000000       0.00000000       0.00000000       0.00696450      -0.26394898      -0.08392259
H        0.00000000       0.00000000       0.00000000       1.19747448       0.25910613       0.06943680
7
Lattice="529.1772105638412 0.0 0.0 0.0 529.1772105638412 0.0 0.0 0.0 529.1772105638412" Properties=species:S:1:pos:R:3:forces_component_raw:R:3 ipi_comment="Step:       13360  Bead:       0 forces_component_raw{ase}  cell{ase}" pbc="T T T"
O        0.00000000       0.00000000       0.00000000       1.09625101      -0.58155316      -0.88821978
H        0.00000000       0.00000000       0.00000000      -1.12384033       0.14897594       0.72125733
H        0.00000000       0.00000000       0.00000000       0.07525434       0.36814708       0.66771954
O        0.00000000       0.00000000       0.00000000      -0.24493706       0.44215983      -0.16405311
H        0.00000000       0.00000000       0.00000000       0.32908940       0.18080756      -0.70991999
H        0.00000000       0.00000000       0.00000000       0.26312101      -0.38385382       0.51309335
H        0.00000000       0.00000000       0.00000000      -0.39493823      -0.17468351      -0.13987747
7
Lattice="529.1772105638412 0.0 0.0 0.0 529.1772105638412 0.0 0.0 0.0 529.1772105638412" Properties=species:S:1:pos:R:3:forces_component_raw:R:3 ipi_comment="Step:       13380  Bead:       0 forces_component_raw{ase}  cell{ase}" pbc="T T T"
O        0.00000000       0.00000000       0.00000000       0.88054568       0.63764262      -1.10468436
H        0.00000000       0.00000000       0.00000000      -0.40729416      -0.14579704       1.12599445
H        0.00000000       0.00000000       0.00000000       0.00011352      -0.30666238      -0.11790073
O        0.00000000       0.00000000       0.00000000       1.32460964       1.88626290      -0.21240544
H        0.00000000       0.00000000       0.00000000       0.03135867      -0.45183826       0.52605319
H        0.00000000       0.00000000       0.00000000      -0.17884189      -0.35056332       0.19178131
H        0.00000000       0.00000000       0.00000000      -1.65049148      -1.26904452      -0.40883869
7
Lattice="529.1772105638412 0.0 0.0 0.0 529.1772105638412 0.0 0.0 0.0 529.1772105638412" Properties=species:S:1:pos:R:3:forces_component_raw:R:3 ipi_comment="Step:       13400  Bead:       0 forces_component_raw{ase}  cell{ase}" pbc="T T T"
O        0.00000000       0.00000000       0.00000000       0.86168677       0.13708970       1.20817924
H        0.00000000       0.00000000       0.00000000      -0.17112231      -0.16634408      -0.27125591
H        0.00000000       0.00000000       0.00000000      -0.40614656      -0.27109349      -0.22118801
O        0.00000000       0.00000000       0.00000000       0.89818281       1.40233219       0.20190048
H        0.00000000       0.00000000       0.00000000       0.18074292       0.42886669      -0.69113612
H        0.00000000       0.00000000       0.00000000       0.33452216       0.13737470       0.26367945
H        0.00000000       0.00000000       0.00000000      -1.69786597      -1.66822553      -0.49017924
7
Lattice="529.1772105638412 0.0 0.0 0.0 529.1772105638412 0.0 0.0 0.0 529.1772105638412" Properties=species:S:1:pos:R:3:forces_component_raw:R:3 ipi_comment="Step:       13420  Bead:       0 forces_component_raw{ase}  cell{ase}" pbc="T T T"
O        0.00000000       0.00000000       0.00000000      -1.75286138       0.89025861      -0.04189619
H        0.00000000       0.00000000       0.00000000       1.22159922      -0.27401245       0.01650518
H        0.00000000       0.00000000       0.00000000       0.32079941      -0.64878738      -0.50033260
O        0.00000000       0.00000000       0.00000000       1.83595324       1.01931977       1.19414747
H        0.00000000       0.00000000       0.00000000      -0.40978921      -0.02378714       0.49506232
H        0.00000000       0.00000000       0.00000000      -0.28433380       0.13942838      -0.46771634
H        0.00000000       0.00000000       0.00000000      -0.93136746      -1.10241974      -0.69576979
7
Lattice="529.1772105638412 0.0 0.0 0.0 529.1772105638412 0.0 0.0 0.0 529.1772105638412" Properties=species:S:1:pos:R:3:forces_component_raw:R:3 ipi_comment="Step:       13440  Bead:       0 forces_component_raw{ase}  cell{ase}" pbc="T T T"
O        0.00000000       0.00000000       0.00000000      -1.49849058       2.11620188       0.62104643
H        0.00000000       0.00000000       0.00000000       1.09847951      -1.28620291      -0.45315838
H        0.00000000       0.00000000       0.00000000      -0.35934454      -0.49533880      -0.44829589
O        0.00000000       0.00000000       0.00000000       0.54086238      -0.61384636       0.86259365
H        0.00000000       0.00000000       0.00000000      -0.08291142      -0.20060787      -0.40932629
H        0.00000000       0.00000000       0.00000000       0.37232184       0.81066716      -0.53972834
H        0.00000000       0.00000000       0.00000000      -0.07091725      -0.33087307       0.36686885
7
Lattice="529.1772105638412 0.0 0.0 0.0 529.1772105638412 0.0 0.0 0.0 529.1772105638412" Properties=species:S:1:pos:R:3:forces_component_raw:R:3 ipi_comment="Step:       13460  Bead:       0 forces_component_raw{ase}  cell{ase}" pbc="T T T"
O        0.00000000       0.00000000       0.00000000      -1.44388473       1.09057677      -0.53790540
H        0.00000000       0.00000000       0.00000000       0.69753397      -0.38457859       0.33838269
H        0.00000000       0.00000000       0.00000000       0.14534731      -0.73073036      -0.18333061
O        0.00000000       0.00000000       0.00000000      -0.06092238      -2.49821354       1.89877272
H        0.00000000       0.00000000       0.00000000       0.30691001       0.69390321      -0.19361499
H        0.00000000       0.00000000       0.00000000       0.20277588       0.26667887      -0.97006560
H        0.00000000       0.00000000       0.00000000       0.15223990       1.56236351      -0.35223878
7
Lattice="529.1772105638412 0.0 0.0 0.0 529.1772105638412 0.0 0.0 0.0 529.1772105638412" Properties=species:S:1:pos:R:3:forces_component_raw:R:3 ipi_comment="Step:       13480  Bead:       0 forces_component_raw{ase}  cell{ase}" pbc="T T T"
O        0.00000000       0.00000000       0.00000000       0.92375779      -1.04631341       0.41838828
H        0.00000000       0.00000000       0.00000000      -0.51424849       0.88532603      -0.30765542
H        0.00000000       0.00000000       0.00000000      -0.27857459       0.22781459      -0.24960464
O        0.00000000       0.00000000       0.00000000      -1.86100078      -1.18620599      -1.41572249
H        0.00000000       0.00000000       0.00000000       0.45733219      -0.63976294       0.78185010
H        0.00000000       0.00000000       0.00000000       0.18969668       0.45878151      -0.04487640
H        0.00000000       0.00000000       0.00000000       1.08303726       1.30036009       0.81762070
7
Lattice="529.1772105638412 0.0 0.0 0.0 529.1772105638412 0.0 0.0 0.0 529.1772105638412" Properties=species:S:1:pos:R:3:forces_component_raw:R:3 ipi_comment="Step:       13500  Bead:       0 forces_component_raw{ase}  cell{ase}" pbc="T T T"
O        0.00000000       0.00000000       0.00000000       1.16333068      -2.23399616       0.47607640
H        0.00000000       0.00000000       0.00000000      -0.01337183       1.82421530       0.00982170
H        0.00000000       0.00000000       0.00000000      -0.05930111       0.05429876       0.19180110
O        0.00000000       0.00000000       0.00000000      -0.53487909      -1.18681240       0.53483594
H        0.00000000       0.00000000       0.00000000      -0.69732917       0.52338052      -0.71840179
H        0.00000000       0.00000000       0.00000000       0.01214367      -0.34706599       0.31935591
H        0.00000000       0.00000000       0.00000000       0.12940684       1.36598015      -0.81348920
7
Lattice="529.1772105638412 0.0 0.0 0.0 529.1772105638412 0.0 0.0 0.0 529.1772105638412" Properties=species:S:1:pos:R:3:forces_component_raw:R:3 ipi_comment="Step:       13520  Bead:       0 forces_component_raw{ase}  cell{ase}" pbc="T T T"
O        0.00000000       0.00000000       0.00000000       0.77598250      -0.58349371       1.30779743
H        0.00000000       0.00000000       0.00000000      -0.32550493       1.01950884      -0.71858645
H        0.00000000       0.00000000       0.00000000      -0.12240498      -0.09288871      -0.35653859
O        0.00000000       0.00000000       0.00000000      -2.40655256      -0.46265298      -2.04294229
H        0.00000000       0.00000000       0.00000000       1.31137622      -0.37093520       0.48666504
H        0.00000000       0.00000000       0.00000000       0.41707450      -0.15529007       1.61753917
H        0.00000000       0.00000000       0.00000000       0.35002938       0.64575184      -0.29393438
7
Lattice="529.1772105638412 0.0 0.0 0.0 529.1772105638412 0.0 0.0 0.0 529.1772105638412" Properties=species:S:1:pos:R:3:forces_component_raw:R:3 ipi_comment="Step:       13540  Bead:       0 forces_component_raw{ase}  cell{ase}" pbc="T T T"
O        0.00000000       0.00000000       0.00000000       0.43273348      -0.81101012       0.09525681
H        0.00000000       0.00000000       0.00000000       0.08124968       0.63776320      -0.09272563
H        0.00000000       0.00000000       0.00000000      -0.31215400      -0.45447150      -0.38698924
O        0.00000000       0.00000000       0.00000000       1.31185508       0.18467180      -2.30185152
H        0.00000000       0.00000000       0.00000000      -0.81112069       0.80991537       0.54886133
H        0.00000000       0.00000000       0.00000000      -0.57509554      -0.26150215       2.42190600
H        0.00000000       0.00000000       0.00000000      -0.12746796      -0.10536641      -0.28445780
7
Lattice="529.1772105638412 0.0 0.0 0.0 529.1772105638412 0.0 0.0 0.0 529.1772105638412" Properties=species:S:1:pos:R:3:forces_component_raw:R:3 ipi_comment="Step:       13560  Bead:       0 forces_component_raw{ase}  cell{ase}" pbc="T T T"
O        0.00000000       0.00000000       0.00000000      -1.82074488      -0.42503482       0.30664024
H        0.00000000       0.00000000       0.00000000      -0.19347975       0.42627379      -0.57671976
H        0.00000000       0.00000000       0.00000000       0.60557866       0.24034506       0.19524092
O        0.00000000       0.00000000       0.00000000       1.21899939       0.16651145      -2.29743767
H        0.00000000       0.00000000       0.00000000       0.58229655      -0.29563475      -0.61913169
H        0.00000000       0.00000000       0.00000000       0.24584505       0.43499366       2.28244830
H        0.00000000       0.00000000       0.00000000      -0.63849509      -0.54745442       0.70895976
7
Lattice="529.1772105638412 0.0 0.0 0.0 529.1772105638412 0.0 0.0 0.0 529.1772105638412" Properties=species:S:1:pos:R:3:forces_component_raw:R:3 ipi_comment="Step:       13580  Bead:       0 forces_component_raw{ase}  cell{ase}" pbc="T T T"
O        0.00000000       0.00000000       0.00000000      -0.90578401      -0.85658115      -0.42465824
H        0.00000000       0.00000000       0.00000000      -0.20391104       0.05606312      -0.35616329
H        0.00000000       0.00000000       0.00000000      -0.09215656       0.25419307      -0.00986290
O        0.00000000       0.00000000       0.00000000       3.20295215       0.76062614      -0.83094776
H        0.00000000       0.00000000       0.00000000      -0.35220137       0.71332896       0.58719981
H        0.00000000       0.00000000       0.00000000      -0.91607493      -0.16442786       0.99331570
H        0.00000000       0.00000000       0.00000000      -0.73282421      -0.76320219       0.04111660
7
Lattice="529.1772105638412 0.0 0.0 0.0 529.1772105638412 0.0 0.0 0.0 529.1772105638412" Properties=species:S:1:pos:R:3:forces_component_raw:R:3 ipi_comment="Step:       13600  Bead:       0 forces_component_raw{ase}  cell{ase}" pbc="T T T"
O        0.00000000       0.00000000       0.00000000       0.12107301       0.03105855      -0.19983704
H        0.00000000       0.00000000       0.00000000      -0.24941018      -0.28885719       0.08264455
H        0.00000000       0.00000000       0.00000000       0.20656696       0.69521320       0.16937658
O        0.00000000       0.00000000       0.00000000      -0.14359939       0.19671182       0.36108109
H        0.00000000       0.00000000       0.00000000      -0.13968661      -0.62812585      -0.30521959
H        0.00000000       0.00000000       0.00000000       0.50564957       0.06253082      -0.76636917
H        0.00000000       0.00000000       0.00000000      -0.30059338      -0.06853136       0.65832377
7
Lattice="529.1772105638412 0.0 0.0 0.0 529.1772105638412 0.0 0.0 0.0 529.1772105638412" Properties=species:S:1:pos:R:3:forces_component_raw:R:3 ipi_comment="Step:       13620  Bead:       0 forces_component_raw{ase}  cell{ase}" pbc="T T T"
O        0.00000000       0.00000000       0.00000000      -0.54650593       0.39016104      -0.45492080
H        0.00000000       0.00000000       0.00000000       1.01573670      -0.83222526       0.85223240
H        0.00000000       0.00000000       0.00000000       0.31199324       0.26253015       0.21087843
O        0.00000000       0.00000000       0.00000000      -1.73945785       0.35886943       1.60917676
H        0.00000000       0.00000000       0.00000000       1.18172848       0.45196492       0.10724354
H        0.00000000       0.00000000       0.00000000      -0.00280553      -0.54452610      -2.13033844
H        0.00000000       0.00000000       0.00000000      -0.22068909      -0.08677412      -0.19427198
7
Lattice="529.1772105638412 0.0 0.0 0.0 529.1772105638412 0.0 0.0 0.0 529.1772105638412" Properties=species:S:1:pos:R:3:forces_component_raw:R:3 ipi_comment="Step:       13640  Bead:       0 forces_component_raw{ase}  cell{ase}" pbc="T T T"
O        0.00000000       0.00000000       0.00000000       2.02619839       2.20011235       0.92084241
H        0.00000000       0.00000000       0.00000000       0.55245507      -1.66751838       0.62624180
H        0.00000000       0.00000000       0.00000000      -0.49549577      -0.06079000      -0.25288338
O        0.00000000       0.00000000       0.00000000       0.23187077       0.52409721       0.37375778
H        0.00000000       0.00000000       0.00000000      -1.61272049      -0.39232504      -0.46084181
H        0.00000000       0.00000000       0.00000000      -0.39551598      -0.48236466      -1.48450673
H        0.00000000       0.00000000       0.00000000      -0.30679214      -0.12121145       0.27738965
7
Lattice="529.1772105638412 0.0 0.0 0.0 529.1772105638412 0.0 0.0 0.0 529.1772105638412" Properties=species:S:1:pos:R:3:forces_component_raw:R:3 ipi_comment="Step:       13660  Bead:       0 forces_component_raw{ase}  cell{ase}" pbc="T T T"
O        0.00000000       0.00000000       0.00000000      -0.96264929       0.64532328      -0.58020598
H        0.00000000       0.00000000       0.00000000       0.67164493      -0.48849172       0.21280411
H        0.00000000       0.00000000       0.00000000      -0.11997844      -0.34800971       0.26124430
O        0.00000000       0.00000000       0.00000000      -0.21645999       0.36255831      -0.52465516
H        0.00000000       0.00000000       0.00000000       1.14886809       0.13891563      -0.22720426
H        0.00000000       0.00000000       0.00000000       0.55834246       0.03642809       0.01147473
H        0.00000000       0.00000000       0.00000000      -1.07976771      -0.34672403       0.84654224
7
Lattice="529.1772105638412 0.0 0.0 0.0 529.1772105638412 0.0 0.0 0.0 529.1772105638412" Properties=species:S:1:pos:R:3:forces_component_raw:R:3 ipi_comment="Step:       13680  Bead:       0 forces_component_raw{ase}  cell{ase}" pbc="T T T"
O        0.00000000       0.00000000       0.00000000      -0.59051710      -0.63048023      -1.92731905
H        0.00000000       0.00000000       0.00000000      -0.22243814       0.12245947       0.26187605
H        0.00000000       0.00000000       0.00000000      -0.04690440       0.22436282       0.52776909
O        0.00000000       0.00000000       0.00000000       2.62375975       0.40838963      -1.46739495
H        0.00000000       0.00000000       0.00000000      -0.38971454       0.16332966       0.87104398
H        0.00000000       0.00000000       0.00000000      -0.24854289       0.40762317       0.74564183
H        0.00000000       0.00000000       0.00000000      -1.12564266      -0.69568449       0.98838282
7
Lattice="529.1772105638412 0.0 0.0 0.0 529.1772105638412 0.0 0.0 0.0 529.1772105638412" Properties=species:S:1:pos:R:3:forces_component_raw:R:3 ipi_comment="Step:       13700  Bead:       0 forces_component_raw{ase}  cell{ase}" pbc="T T T"
O        0.00000000       0.00000000       0.00000000       0.06162313       0.41087297      -0.03190330
H        0.00000000       0.00000000       0.00000000       0.13317379      -0.22259846       0.09540594
H        0.00000000       0.00000000       0.00000000      -0.40532407      -0.23877782       0.20608980
O        0.00000000       0.00000000       0.00000000       1.43882537      -0.80728597      -1.58562351
H        0.00000000       0.00000000       0.00000000      -0.32008237      -0.03281879      -0.78118640
H        0.00000000       0.00000000       0.00000000      -0.09218699       1.17244840       1.49582410
H        0.00000000       0.00000000       0.00000000      -0.81602895      -0.28184050       0.60139328
7
Lattice="529.1772105638412 0.0 0.0 0.0 529.1772105638412 0.0 0.0 0.0 529.1772105638412" Properties=species:S:1:pos:R:3:forces_component_raw:R:3 ipi_comment="Step:       13720  Bead:       0 forces_component_raw{ase}  cell{ase}" pbc="T T T"
O        0.00000000       0.00000000       0.00000000      -1.23117698      -0.65164328       0.11436631
H        0.00000000       0.00000000       0.00000000      -0.31457552       0.45279205      -0.48312211
H        0.00000000       0.00000000       0.00000000       0.48819229       0.18882120      -0.11839378
O        0.00000000       0.00000000       0.00000000       2.03479672      -0.25508878      -1.55834914
H        0.00000000       0.00000000       0.00000000      -0.04294448      -0.27209291       0.14740083
H        0.00000000       0.00000000       0.00000000      -0.66513240       0.82562828       1.70815897
H        0.00000000       0.00000000       0.00000000      -0.26915991      -0.28841654       0.18993902
7
Lattice="529.1772105638412 0.0 0.0 0.0 529.1772105638412 0.0 0.0 0.0 529.1772105638412" Properties=species:S:1:pos:R:3:forces_component_raw:R:3 ipi_comment="Step:       13740  Bead:       0 forces_component_raw{ase}  cell{ase}" pbc="T T T"
O        0.00000000       0.00000000       0.00000000       1.15622545      -0.90440321       1.08446050
H        0.00000000       0.00000000       0.00000000      -0.80722183       0.56346673      -0.58458561
H        0.00000000       0.00000000       0.00000000      -0.21441448       0.24803680      -0.27557236
O        0.00000000       0.00000000       0.00000000      -2.06993509      -1.21176982      -1.02520836
H        0.00000000       0.00000000       0.00000000       0.75219357       0.21394911       0.26983774
H        0.00000000       0.00000000       0.00000000       0.10592625       0.72225404       0.98205531
H        0.00000000       0.00000000       0.00000000       1.07722616       0.36846638      -0.45098701
7
Lattice="529.1772105638412 0.0 0.0 0.0 529.1772105638412 0.0 0.0 0.0 529.1772105638412" Properties=species:S:1:pos:R:3:forces_component_raw:R:3 ipi_comment="Step:       13760  Bead:       0 forces_component_raw{ase}  cell{ase}" pbc="T T T"
O        0.00000000       0.00000000       0.00000000       1.28950036      -0.03207168       0.86981875
H        0.00000000       0.00000000       0.00000000      -0.20778979       0.75997979      -0.68703228
H        0.00000000       0.00000000       0.00000000       0.32138175      -0.21166915       0.30798495
O        0.00000000       0.00000000       0.00000000      -2.04570389      -0.53985918       1.33553267
H        0.00000000       0.00000000       0.00000000      -0.64969111      -0.40170226      -0.21681593
H        0.00000000       0.00000000       0.00000000      -0.13724469       0.09819865       0.21417415
H        0.00000000       0.00000000       0.00000000       1.42954743       0.32712376      -1.82366217
7
Lattice="529.1772105638412 0.0 0.0 0.0 529.1772105638412 0.0 0.0 0.0 529.1772105638412" Properties=species:S:1:pos:R:3:forces_component_raw:R:3 ipi_comment="Step:       13780  Bead:       0 forces_component_raw{ase}  cell{ase}" pbc="T T T"
O        0.00000000       0.00000000       0.00000000       1.40525472       1.02054918       0.03362393
H        0.00000000       0.00000000       0.00000000      -0.06698087      -0.54498053       0.23796502
H        0.00000000       0.00000000       0.00000000      -0.55783093      -0.31116548      -0.03980905
O        0.00000000       0.00000000       0.00000000      -2.56373501       0.28185123       1.97582913
H        0.00000000       0.00000000       0.00000000       0.84874004       0.13029796       0.35507044
H        0.00000000       0.00000000       0.00000000      -0.21035413      -0.98065734      -1.03071332
H        0.00000000       0.00000000       0.00000000       1.14490581       0.40410489      -1.53196621
7
Lattice="529.1772105638412 0.0 0.0 0.0 529.1772105638412 0.0 0.0 0.0 529.1772105638412" Properties=species:S:1:pos:R:3:forces_component_raw:R:3 ipi_comment="Step:       13800  Bead:       0 forces_component_raw{ase}  cell{ase}" pbc="T T T"
O        0.00000000       0.00000000       0.00000000      -1.15594769       0.71623826      -1.05664933
H        0.00000000       0.00000000       0.00000000       0.62263250      -0.05892980       0.22049642
H        0.00000000       0.00000000       0.00000000      -0.02184212      -0.97865755       0.54797024
O        0.00000000       0.00000000       0.00000000       0.75984842       1.65849400       2.74144459
H        0.00000000       0.00000000       0.00000000      -0.07631943       0.46805927       0.02607104
H        0.00000000       0.00000000       0.00000000      -0.65580821      -1.80723167      -1.57529056
H        0.00000000       0.00000000       0.00000000       0.52743667       0.00202727      -0.90404260
7
Lattice="529.1772105638412 0.0 0.0 0.0 529.1772105638412 0.0 0.0 0.0 529.1772105638412" Properties=species:S:1:pos:R:3:forces_component_raw:R:3 ipi_comment="Step:       13820  Bead:       0 forces_component_raw{ase}  cell{ase}" pbc="T T T"
O        0.00000000       0.00000000       0.00000000      -0.73509371       0.64752644      -0.66380859
H        0.00000000       0.00000000       0.00000000      -0.06781015      -0.52663207       0.23379636
H        0.00000000       0.00000000       0.00000000      -0.29071829      -0.13327122      -0.10436940
O        0.00000000       0.00000000       0.00000000       2.13303233       1.33912254       0.73569989
H        0.00000000       0.00000000       0.00000000      -0.12154052      -0.36632982       0.14877415
H        0.00000000       0.00000000       0.00000000      -0.24400485      -1.13164759      -1.06496978
H        0.00000000       0.00000000       0.00000000      -0.67386502       0.17123160       0.71487749
7
Lattice="529.1772105638412 0.0 0.0 0.0 529.1772105638412 0.0 0.0 0.0 529.1772105638412" Properties=species:S:1:pos:R:3:forces_component_raw:R:3 ipi_comment="Step:       13840  Bead:       0 forces_component_raw{ase}  cell{ase}" pbc="T T T"
O        0.00000000       0.00000000       0.00000000      -1.06878472      -1.95095301      -0.03319586
H        0.00000000       0.00000000       0.00000000      -0.08052000       0.81549645      -0.27067286
H        0.00000000       0.00000000       0.00000000       0.34704918       0.67228085       0.22833142
O        0.00000000       0.00000000       0.00000000       2.25897503      -0.35389459      -0.83092380
H        0.00000000       0.00000000       0.00000000       0.14743464       0.39252573      -0.22463313
H        0.00000000       0.00000000       0.00000000       0.04740623      -0.23462689      -0.13039166
H        0.00000000       0.00000000       0.00000000      -1.65156007       0.65917152       1.26148582
7
Lattice="529.1772105638412 0.0 0.0 0.0 529.1772105638412 0.0 0.0 0.0 529.1772105638412" Properties=species:S:1:pos:R:3:forces_component_raw:R:3 ipi_comment="Step:       13860  Bead:       0 forces_component_raw{ase}  cell{ase}" pbc="T T T"
O        0.00000000       0.00000000       0.00000000       0.48199093      -1.84815908       0.41894543
H        0.00000000       0.00000000       0.00000000      -0.94932485       0.82834691      -0.89094329
H        0.00000000       0.00000000       0.00000000       0.30890527       1.34634686       0.33420855
O        0.00000000       0.00000000       0.00000000       1.54760027      -1.51116240      -1.23572827
H        0.00000000       0.00000000       0.00000000      -0.00181437      -0.54440141       0.15448299
H        0.00000000       0.00000000       0.00000000      -0.07559175       1.22976411       0.85439348
H        0.00000000       0.00000000       0.00000000      -1.31176555       0.49926528       0.36464089
7
Lattice="529.1772105638412 0.0 0.0 0.0 529.1772105638412 0.0 0.0 0.0 529.1772105638412" Properties=species:S:1:pos:R:3:forces_component_raw:R:3 ipi_comment="Step:       13880  Bead:       0 forces_component_raw{ase}  cell{ase}" pbc="T T T"
O        0.00000000       0.00000000       0.00000000      -0.18472457      -2.45998002      -0.36579946
H        0.00000000       0.00000000       0.00000000       0.25743073       1.51124013      -0.23103367
H        0.00000000       0.00000000       0.00000000       0.60697949       0.83221311       0.98295689
O        0.00000000       0.00000000       0.00000000      -1.47369826      -1.68905008      -1.03938067
H        0.00000000       0.00000000       0.00000000      -0.12523925       0.29157904      -0.18369663
H        0.00000000       0.00000000       0.00000000       0.52014601       1.25887561       0.62566102
H        0.00000000       0.00000000       0.00000000       0.39910579       0.25512254       0.21129257
7
Lattice="529.1772105638412 0.0 0.0 0.0 529.1772105638412 0.0 0.0 0.0 529.1772105638412" Properties=species:S:1:pos:R:3:forces_component_raw:R:3 ipi_comment="Step:       13900  Bead:       0 forces_component_raw{ase}  cell{ase}" pbc="T T T"
O        0.00000000       0.00000000       0.00000000       0.71982670      -0.50873923       1.43444276
H        0.00000000       0.00000000       0.00000000      -0.43584418       0.03369713      -0.99828398
H        0.00000000       0.00000000       0.00000000      -0.09579819       0.85277146      -0.39679092
O        0.00000000       0.00000000       0.00000000      -0.94692636      -0.23412147      -0.35909313
H        0.00000000       0.00000000       0.00000000      -0.13758555      -0.65947324      -0.03738058
H        0.00000000       0.00000000       0.00000000       0.06134269       1.51865197       0.31057283
H        0.00000000       0.00000000       0.00000000       0.83498478      -1.00278664       0.04653309
7
Lattice="529.1772105638412 0.0 0.0 0.0 529.1772105638412 0.0 0.0 0.0 529.1772105638412" Properties=species:S:1:pos:R:3:forces_component_raw:R:3 ipi_comment="Step:       13920  Bead:       0 forces_component_raw{ase}  cell{ase}" pbc="T T T"
O        0.00000000       0.00000000       0.00000000      -1.07743418       0.22124882      -1.33266628
H        0.00000000       0.00000000       0.00000000       0.72833610       0.08461905       0.84036333
H        0.00000000       0.00000000       0.00000000      -0.00990604      -0.75391770       0.17460369
O        0.00000000       0.00000000       0.00000000      -1.24076247      -0.16105747      -1.08579803
H        0.00000000       0.00000000       0.00000000       0.02949379       0.51850683       0.34907374
H        0.00000000       0.00000000       0.00000000       0.33141142       1.07800293       0.25781196
H        0.00000000       0.00000000       0.00000000       1.23886133      -0.98740244       0.79661161
7
Lattice="529.1772105638412 0.0 0.0 0.0 529.1772105638412 0.0 0.0 0.0 529.1772105638412" Properties=species:S:1:pos:R:3:forces_component_raw:R:3 ipi_comment="Step:       13940  Bead:       0 forces_component_raw{ase}  cell{ase}" pbc="T T T"
O        0.00000000       0.00000000       0.00000000       0.60496348       1.96461392       1.17562759
H        0.00000000       0.00000000       0.00000000       0.19028920      -1.55078125      -0.06063735
H        0.00000000       0.00000000       0.00000000      -0.63845498      -0.15338698      -1.14855933
O        0.00000000       0.00000000       0.00000000      -0.14456332       1.71967602      -1.36247588
H        0.00000000       0.00000000       0.00000000      -0.45530662      -0.63327664      -0.00103199
H        0.00000000       0.00000000       0.00000000       0.09472787       0.11412948      -0.05553261
H        0.00000000       0.00000000       0.00000000       0.34834436      -1.46097470       1.45260930
7
Lattice="529.1772105638412 0.0 0.0 0.0 529.1772105638412 0.0 0.0 0.0 529.1772105638412" Properties=species:S:1:pos:R:3:forces_component_raw:R:3 ipi_comment="Step:       13960  Bead:       0 forces_component_raw{ase}  cell{ase}" pbc="T T T"
O        0.00000000       0.00000000       0.00000000      -1.78548968       1.57247639       0.04456632
H        0.00000000       0.00000000       0.00000000       1.04106033      -0.64698452       0.66895944
H        0.00000000       0.00000000       0.00000000       0.38096371      -1.21660626      -0.56168532
O        0.00000000       0.00000000       0.00000000       0.26688033       0.71750415      -0.52743209
H        0.00000000       0.00000000       0.00000000       0.34678388       0.63221717      -0.35162830
H        0.00000000       0.00000000       0.00000000      -0.32086280      -0.47221500      -0.12365966
H        0.00000000       0.00000000       0.00000000       0.07066402      -0.58639199       0.85087961
7
Lattice="529.1772105638412 0.0 0.0 0.0 529.1772105638412 0.0 0.0 0.0 529.1772105638412" Properties=species:S:1:pos:R:3:forces_component_raw:R:3 ipi_comment="Step:       13980  Bead:       0 forces_component_raw{ase}  cell{ase}" pbc="T T T"
O        0.00000000       0.00000000       0.00000000       0.48828566       1.04178179       0.84198535
H        0.00000000       0.00000000       0.00000000      -0.08555388      -0.57845414      -0.36160600
H        0.00000000       0.00000000       0.00000000      -0.45225853      -0.38040289      -0.49720496
O        0.00000000       0.00000000       0.00000000       0.45575130       1.06419301      -0.77994025
H        0.00000000       0.00000000       0.00000000       0.17887726      -0.34483752       0.51800591
H        0.00000000       0.00000000       0.00000000      -0.16008467      -0.77106214       0.10928594
H        0.00000000       0.00000000       0.00000000      -0.42501706      -0.03121811       0.16947398
7
Lattice="529.1772105638412 0.0 0.0 0.0 529.1772105638412 0.0 0.0 0.0 529.1772105638412" Properties=species:S:1:pos:R:3:forces_component_raw:R:3 ipi_comment="Step:       14000  Bead:       0 forces_component_raw{ase}  cell{ase}" pbc="T T T"
O        0.00000000       0.00000000       0.00000000       0.76564253      -1.37748409      -1.07513213
H        0.00000000       0.00000000       0.00000000      -0.89162874       1.02904248       0.80586577
H        0.00000000       0.00000000       0.00000000       0.56285298       0.21553445       0.43681815
O        0.00000000       0.00000000       0.00000000       0.92907793       0.60449350       0.50489223
H        0.00000000       0.00000000       0.00000000      -0.38162670       0.45209253      -0.22616282
H        0.00000000       0.00000000       0.00000000      -0.78786183      -0.99040330       0.00499177
H        0.00000000       0.00000000       0.00000000      -0.19645621       0.06672448      -0.45127291
7
Lattice="529.1772105638412 0.0 0.0 0.0 529.1772105638412 0.0 0.0 0.0 529.1772105638412" Properties=species:S:1:pos:R:3:forces_component_raw:R:3 ipi_comment="Step:       14020  Bead:       0 forces_component_raw{ase}  cell{ase}" pbc="T T T"
O        0.00000000       0.00000000       0.00000000       1.25528527      -0.70411354      -0.65186381
H        0.00000000       0.00000000       0.00000000      -0.70212716       0.14585856       0.04949453
H        0.00000000       0.00000000       0.00000000      -0.15451747       0.59802073       0.60551161
O        0.00000000       0.00000000       0.00000000      -0.48486579       0.25656653       0.03729633
H        0.00000000       0.00000000       0.00000000       0.32925394      -0.04998072       0.22323683
H        0.00000000       0.00000000       0.00000000      -0.15337464      -0.73703945       0.53656262
H        0.00000000       0.00000000       0.00000000      -0.08965415       0.49068782      -0.80023825
7
Lattice="529.1772105638412 0.0 0.0 0.0 529.1772105638412 0.0 0.0 0.0 529.1772105638412" Properties=species:S:1:pos:R:3:forces_component_raw:R:3 ipi_comment="Step:       14040  Bead:       0 forces_component_raw{ase}  cell{ase}" pbc="T T T"
O        0.00000000       0.00000000       0.00000000       0.03124624      -0.11873442      -0.34092072
H        0.00000000       0.00000000       0.00000000      -0.06404957       0.29095990       0.37750521
H        0.00000000       0.00000000       0.00000000       0.13116400       0.02410093      -0.07385468
O        0.00000000       0.00000000       0.00000000       1.37920118      -0.36713243       1.53039587
H        0.00000000       0.00000000       0.00000000       0.06734859      -0.21794190      -0.14143303
H        0.00000000       0.00000000       0.00000000      -0.55012238       0.14575887      -0.51795930
H        0.00000000       0.00000000       0.00000000      -0.99478793       0.24298915      -0.83373350
7
Lattice="529.1772105638412 0.0 0.0 0.0 529.1772105638412 0.0 0.0 0.0 529.1772105638412" Properties=species:S:1:pos:R:3:forces_component_raw:R:3 ipi_comment="Step:       14060  Bead:       0 forces_component_raw{ase}  cell{ase}" pbc="T T T"
O        0.00000000       0.00000000       0.00000000       0.64678639       0.36625493       0.33359113
H        0.00000000       0.00000000       0.00000000       0.37703827      -0.14041674      -0.12632135
H        0.00000000       0.00000000       0.00000000      -0.27104515      -0.06895413      -0.34877706
O        0.00000000       0.00000000       0.00000000      -1.10135079      -1.11474586       0.69101656
H        0.00000000       0.00000000       0.00000000      -0.47721234      -0.08843938       0.25713933
H        0.00000000       0.00000000       0.00000000       0.71755022       0.36345571      -0.24315992
H        0.00000000       0.00000000       0.00000000       0.10823345       0.68284547      -0.56348866
7
Lattice="529.1772105638412 0.0 0.0 0.0 529.1772105638412 0.0 0.0 0.0 529.1772105638412" Properties=species:S:1:pos:R:3:forces_component_raw:R:3 ipi_comment="Step:       14080  Bead:       0 forces_component_raw{ase}  cell{ase}" pbc="T T T"
O        0.00000000       0.00000000       0.00000000      -0.69768173       0.94098455       1.75680590
H        0.00000000       0.00000000       0.00000000       0.70146626      -0.38359511      -0.23408571
H        0.00000000       0.00000000       0.00000000       0.05049404      -0.37674522      -1.45066643
O        0.00000000       0.00000000       0.00000000      -0.38352344      -0.40081912       0.04074478
H        0.00000000       0.00000000       0.00000000       0.52420730      -0.03276212       0.07847220
H        0.00000000       0.00000000       0.00000000      -0.19640419       0.75461114      -0.71548999
H        0.00000000       0.00000000       0.00000000       0.00144182      -0.50167406       0.52421904
7
Lattice="529.1772105638412 0.0 0.0 0.0 529.1772105638412 0.0 0.0 0.0 529.1772105638412" Properties=species:S:1:pos:R:3:forces_component_raw:R:3 ipi_comment="Step:       14100  Bead:       0 forces_component_raw{ase}  cell{ase}" pbc="T T T"
O        0.00000000       0.00000000       0.00000000      -0.14225644       0.13716686       1.69793630
H        0.00000000       0.00000000       0.00000000      -0.18020642      -0.11905789      -0.28661096
H        0.00000000       0.00000000       0.00000000      -0.04470749      -0.13913608      -1.56568218
O        0.00000000       0.00000000       0.00000000      -0.70935702       0.95904446       0.30523294
H        0.00000000       0.00000000       0.00000000      -0.16686739       0.12972522       0.31145907
H        0.00000000       0.00000000       0.00000000       0.57052881       0.03271413      -0.41679281
H        0.00000000       0.00000000       0.00000000       0.67286593      -1.00045657      -0.04554236
7
Lattice="529.1772105638412 0.0 0.0 0.0 529.1772105638412 0.0 0.0 0.0 529.1772105638412" Properties=species:S:1:pos:R:3:forces_component_raw:R:3 ipi_comment="Step:       14120  Bead:       0 forces_component_raw{ase}  cell{ase}" pbc="T T T"
O        0.00000000       0.00000000       0.00000000      -0.62789685      -0.42909375       0.61218715
H        0.00000000       0.00000000       0.00000000      -0.17323014       0.10660225       0.04418704
H        0.00000000       0.00000000       0.00000000       0.34259191      -0.05006957      -0.59816587
O        0.00000000       0.00000000       0.00000000       0.68300164       1.11871386       0.59956426
H        0.00000000       0.00000000       0.00000000      -0.18218999       0.29261020      -0.25340319
H        0.00000000       0.00000000       0.00000000       0.01338509       0.26468390      -0.33611158
H        0.00000000       0.00000000       0.00000000      -0.05566167      -1.30344677      -0.06825762
7
Lattice="529.1772105638412 0.0 0.0 0.0 529.1772105638412 0.0 0.0 0.0 529.1772105638412" Properties=species:S:1:pos:R:3:forces_component_raw:R:3 ipi_comment="Step:       14140  Bead:       0 forces_component_raw{ase}  cell{ase}" pbc="T T T"
O        0.00000000       0.00000000       0.00000000       0.88146937      -0.69150371      -0.40724743
H        0.00000000       0.00000000       0.00000000      -0.95780629       0.58424473       0.12203276
H        0.00000000       0.00000000       0.00000000      -0.07993805       0.13439029       0.21175265
O        0.00000000       0.00000000       0.00000000      -0.44104683       2.02762318      -0.63851333
H        0.00000000       0.00000000       0.00000000       0.14408042      -0.27467614       0.28661043
H        0.00000000       0.00000000       0.00000000      -0.17938337      -0.58727056       0.49351490
H        0.00000000       0.00000000       0.00000000       0.63262499      -1.19280792      -0.06814998
7
Lattice="529.1772105638412 0.0 0.0 0.0 529.1772105638412 0.0 0.0 0.0 529.1772105638412" Properties=species:S:1:pos:R:3:forces_component_raw:R:3 ipi_comment="Step:       14160  Bead:       0 forces_component_raw{ase}  cell{ase}" pbc="T T T"
O        0.00000000       0.00000000       0.00000000       0.44973481      -0.35289237      -0.15123451
H        0.00000000       0.00000000       0.00000000      -0.35999018       0.48819137       0.59244895
H        0.00000000       0.00000000       0.00000000       0.13872609      -0.14438191      -0.15016460
O        0.00000000       0.00000000       0.00000000      -0.11423695       1.02211166      -0.64576435
H        0.00000000       0.00000000       0.00000000       0.30273771       0.46729672      -0.40943197
H        0.00000000       0.00000000       0.00000000      -0.91095090      -1.25062585       0.51208830
H        0.00000000       0.00000000       0.00000000       0.49397937      -0.22969985       0.25205818
7
Lattice="529.1772105638412 0.0 0.0 0.0 529.1772105638412 0.0 0.0 0.0 529.1772105638412" Properties=species:S:1:pos:R:3:forces_component_raw:R:3 ipi_comment="Step:       14180  Bead:       0 forces_component_raw{ase}  cell{ase}" pbc="T T T"
O        0.00000000       0.00000000       0.00000000       0.55241042       0.70070839       0.18337330
H        0.00000000       0.00000000       0.00000000       0.63441110      -0.27540141      -0.18070602
H        0.00000000       0.00000000       0.00000000      -0.22582342      -0.14938784      -0.18907112
O        0.00000000       0.00000000       0.00000000      -0.13307101       1.00175536      -0.23885313
H        0.00000000       0.00000000       0.00000000      -0.55054015      -0.52457965       0.25940073
H        0.00000000       0.00000000       0.00000000      -0.22145981      -0.84339738       0.18270931
H        0.00000000       0.00000000       0.00000000      -0.05592707       0.09030241      -0.01685289
7
Lattice="529.1772105638412 0.0 0.0 0.0 529.1772105638412 0.0 0.0 0.0 529.1772105638412" Properties=species:S:1:pos:R:3:forces_component_raw:R:3 ipi_comment="Step:       14200  Bead:       0 forces_component_raw{ase}  cell{ase}" pbc="T T T"
O        0.00000000       0.00000000       0.00000000      -0.79832220       0.53027141       0.67922843
H        0.00000000       0.00000000       0.00000000       0.93589634      -0.71822101      -1.18010497
H        0.00000000       0.00000000       0.00000000      -0.17158070       0.15274115       0.43607450
O        0.00000000       0.00000000       0.00000000      -0.23232287      -0.47386891       0.42283788
H        0.00000000       0.00000000       0.00000000       0.40722686       0.42293540      -0.16784042
H        0.00000000       0.00000000       0.00000000      -0.28067052      -0.06174797      -0.07739598
H        0.00000000       0.00000000       0.00000000       0.13977304       0.14788991      -0.11279933
7
Lattice="529.1772105638412 0.0 0.0 0.0 529.1772105638412 0.0 0.0 0.0 529.1772105638412" Properties=species:S:1:pos:R:3:forces_component_raw:R:3 ipi_comment="Step:       14220  Bead:       0 forces_component_raw{ase}  cell{ase}" pbc="T T T"
O        0.00000000       0.00000000       0.00000000      -1.55112326       0.31810781       0.10260536
H        0.00000000       0.00000000       0.00000000       0.59170312      -0.30621058      -0.33521277
H        0.00000000       0.00000000       0.00000000       0.33845258      -0.00938636       0.30453473
O        0.00000000       0.00000000       0.00000000       1.37282324      -0.17185175      -0.50660431
H        0.00000000       0.00000000       0.00000000       0.04893832      -0.34906256       0.21455810
H        0.00000000       0.00000000       0.00000000      -0.19518071       0.12302041       0.41481292
H        0.00000000       0.00000000       0.00000000      -0.60561323       0.39538306      -0.19469407
7
Lattice="529.1772105638412 0.0 0.0 0.0 529.1772105638412 0.0 0.0 0.0 529.1772105638412" Properties=species:S:1:pos:R:3:forces_component_raw:R:3 ipi_comment="Step:       14240  Bead:       0 forces_component_raw{ase}  cell{ase}" pbc="T T T"
O        0.00000000       0.00000000       0.00000000      -0.23823336      -0.25115442      -0.87276304
H        0.00000000       0.00000000       0.00000000      -0.68992883       0.02543347       0.21115878
H        0.00000000       0.00000000       0.00000000       0.45572096       0.12382237       1.00488711
O        0.00000000       0.00000000       0.00000000       1.58166600      -0.42440230       0.50111902
H        0.00000000       0.00000000       0.00000000      -0.14114557       0.13256419      -0.22266084
H        0.00000000       0.00000000       0.00000000      -0.47406015       0.41885030      -0.15680051
H        0.00000000       0.00000000       0.00000000      -0.49401915      -0.02511370      -0.46494058
7
Lattice="529.1772105638412 0.0 0.0 0.0 529.1772105638412 0.0 0.0 0.0 529.1772105638412" Properties=species:S:1:pos:R:3:forces_component_raw:R:3 ipi_comment="Step:       14260  Bead:       0 forces_component_raw{ase}  cell{ase}" pbc="T T T"
O        0.00000000       0.00000000       0.00000000       0.71462011      -0.25150469      -1.15139437
H        0.00000000       0.00000000       0.00000000      -0.71347463       0.16731927       0.56077421
H        0.00000000       0.00000000       0.00000000      -0.16839288      -0.05533302       0.24337083
O        0.00000000       0.00000000       0.00000000      -0.37079799      -0.51448679      -0.15524396
H        0.00000000       0.00000000       0.00000000       0.15980101       0.15609995       0.47362205
H        0.00000000       0.00000000       0.00000000       0.36960402       0.04183400       0.20099807
H        0.00000000       0.00000000       0.00000000       0.00864041       0.45607126      -0.17212683
7
Lattice="529.1772105638412 0.0 0.0 0.0 529.1772105638412 0.0 0.0 0.0 529.1772105638412" Properties=species:S:1:pos:R:3:forces_component_raw:R:3 ipi_comment="Step:       14280  Bead:       0 forces_component_raw{ase}  cell{ase}" pbc="T T T"
O        0.00000000       0.00000000       0.00000000       1.77279079       0.76718921       0.05501192
H        0.00000000       0.00000000       0.00000000      -0.44233209      -0.10807297       0.79654116
H        0.00000000       0.00000000       0.00000000       0.08843127       0.01134504      -0.51878178
O        0.00000000       0.00000000       0.00000000      -0.22628227      -0.20128885       0.11362222
H        0.00000000       0.00000000       0.00000000      -1.01958072      -0.60203564      -0.32688642
H        0.00000000       0.00000000       0.00000000       0.02582249       0.13637883      -0.08274356
H        0.00000000       0.00000000       0.00000000      -0.19884932      -0.00351542      -0.03676346
7
Lattice="529.1772105638412 0.0 0.0 0.0 529.1772105638412 0.0 0.0 0.0 529.1772105638412" Properties=species:S:1:pos:R:3:forces_component_raw:R:3 ipi_comment="Step:       14300  Bead:       0 forces_component_raw{ase}  cell{ase}" pbc="T T T"
O        0.00000000       0.00000000       0.00000000       1.37907994      -0.21122751      -0.18410009
H        0.00000000       0.00000000       0.00000000      -0.90099991      -0.13757296       1.09519732
H        0.00000000       0.00000000       0.00000000      -0.61742270       0.25584036      -0.80214942
O        0.00000000       0.00000000       0.00000000      -1.28259588      -1.30472136       0.36601883
H        0.00000000       0.00000000       0.00000000       0.70404208       0.49184388      -0.04000148
H        0.00000000       0.00000000       0.00000000       0.52865863       0.63631606      -0.42341116
H        0.00000000       0.00000000       0.00000000       0.18923780       0.26952142      -0.01155385
7
Lattice="529.1772105638412 0.0 0.0 0.0 529.1772105638412 0.0 0.0 0.0 529.1772105638412" Properties=species:S:1:pos:R:3:forces_component_raw:R:3 ipi_comment="Step:       14320  Bead:       0 forces_component_raw{ase}  cell{ase}" pbc="T T T"
O        0.00000000       0.00000000       0.00000000       0.03380513      -0.50150722       0.10878297
H        0.00000000       0.00000000       0.00000000      -0.09385505      -0.18116441       0.68975943
H        0.00000000       0.00000000       0.00000000      -0.54268742       0.45395756      -0.92769128
O        0.00000000       0.00000000       0.00000000      -0.02889711       0.83611524       0.03005674
H        0.00000000       0.00000000       0.00000000      -0.03737941      -0.02291314       0.07613020
H        0.00000000       0.00000000       0.00000000       0.04751892      -0.04085445      -0.04337215
H        0.00000000       0.00000000       0.00000000       0.62149501      -0.54363352       0.06633422
7
Lattice="529.1772105638412 0.0 0.0 0.0 529.1772105638412 0.0 0.0 0.0 529.1772105638412" Properties=species:S:1:pos:R:3:forces_component_raw:R:3 ipi_comment="Step:       14340  Bead:       0 forces_component_raw{ase}  cell{ase}" pbc="T T T"
O        0.00000000       0.00000000       0.00000000       0.89636570      -1.03938663       0.02691455
H        0.00000000       0.00000000       0.00000000      -0.30696419       0.19367212       0.19182840
H        0.00000000       0.00000000       0.00000000      -0.53709990       0.75680608      -0.22766116
O        0.00000000       0.00000000       0.00000000       0.21794051       2.04926587      -0.58957404
H        0.00000000       0.00000000       0.00000000      -0.50823325      -0.32435682      -0.10239055
H        0.00000000       0.00000000       0.00000000      -0.39666289      -0.41510689       0.59594762
H        0.00000000       0.00000000       0.00000000       0.63465399      -1.22089362       0.10493520
7
Lattice="529.1772105638412 0.0 0.0 0.0 529.1772105638412 0.0 0.0 0.0 529.1772105638412" Properties=species:S:1:pos:R:3:forces_component_raw:R:3 ipi_comment="Step:       14360  Bead:       0 forces_component_raw{ase}  cell{ase}" pbc="T T T"
O        0.00000000       0.00000000       0.00000000      -0.57313144      -1.29970491       0.14602852
H        0.00000000       0.00000000       0.00000000       0.15937856       0.14492810      -0.11970949
H        0.00000000       0.00000000       0.00000000      -0.35336202       0.65815312      -0.31973261
O        0.00000000       0.00000000       0.00000000      -0.36599839       1.96654833       0.05811627
H        0.00000000       0.00000000       0.00000000       0.00112313      -0.05920185       0.34198606
H        0.00000000       0.00000000       0.00000000       0.13297664      -0.10096282       0.00896806
H        0.00000000       0.00000000       0.00000000       0.99901366      -1.30975998      -0.11565679
7
Lattice="529.1772105638412 0.0 0.0 0.0 529.1772105638412 0.0 0.0 0.0 529.1772105638412" Properties=species:S:1:pos:R:3:forces_component_raw:R:3 ipi_comment="Step:       14380  Bead:       0 forces_component_raw{ase}  cell{ase}" pbc="T T T"
O        0.00000000       0.00000000       0.00000000      -0.62425858      -0.21066541       0.41460192
H        0.00000000       0.00000000       0.00000000       0.16941285       0.16720241      -0.56250727
H        0.00000000       0.00000000       0.00000000       0.18930417      -0.14425661       0.19938922
O        0.00000000       0.00000000       0.00000000      -0.33282751       0.54899484       0.17525911
H        0.00000000       0.00000000       0.00000000      -0.13466972       0.13199991      -0.14364298
H        0.00000000       0.00000000       0.00000000      -0.07303806       0.36148840      -0.23862915
H        0.00000000       0.00000000       0.00000000       0.80607689      -0.85476351       0.15552911
7
Lattice="529.1772105638412 0.0 0.0 0.0 529.1772105638412 0.0 0.0 0.0 529.1772105638412" Properties=species:S:1:pos:R:3:forces_component_raw:R:3 ipi_comment="Step:       14400  Bead:       0 forces_component_raw{ase}  cell{ase}" pbc="T T T"
O        0.00000000       0.00000000       0.00000000      -0.62705380       0.49687779      -0.18968761
H        0.00000000       0.00000000       0.00000000       0.44966871       0.22186777      -0.32583153
H        0.00000000       0.00000000       0.00000000       0.86257643      -0.32475784       0.44137955
O        0.00000000       0.00000000       0.00000000      -1.97723198      -0.96628976      -0.07281053
H        0.00000000       0.00000000       0.00000000       0.65740556       0.28296059       0.29152772
H        0.00000000       0.00000000       0.00000000       0.17953149       0.42649192      -0.20554686
H        0.00000000       0.00000000       0.00000000       0.45510340      -0.13715044       0.06096922
7
Lattice="529.1772105638412 0.0 0.0 0.0 529.1772105638412 0.0 0.0 0.0 529.1772105638412" Properties=species:S:1:pos:R:3:forces_component_raw:R:3 ipi_comment="Step:       14420  Bead:       0 forces_component_raw{ase}  cell{ase}" pbc="T T T"
O        0.00000000       0.00000000       0.00000000       0.49471784       1.38134504      -0.73690856
H        0.00000000       0.00000000       0.00000000      -0.05809211      -0.06134754      -0.06127214
H        0.00000000       0.00000000       0.00000000       1.29001832      -0.52443785       0.93790013
O        0.00000000       0.00000000       0.00000000       0.48658869      -1.10696054      -0.03727573
H        0.00000000       0.00000000       0.00000000      -1.11791623      -0.41856393      -0.29634059
H        0.00000000       0.00000000       0.00000000      -0.21809855       0.28052801      -0.10534724
H        0.00000000       0.00000000       0.00000000      -0.87721789       0.44943684       0.29924423
7
Lattice="529.1772105638412 0.0 0.0 0.0 529.1772105638412 0.0 0.0 0.0 529.1772105638412" Properties=species:S:1:pos:R:3:forces_component_raw:R:3 ipi_comment="Step:       14440  Bead:       0 forces_component_raw{ase}  cell{ase}" pbc="T T T"
O        0.00000000       0.00000000       0.00000000      -1.01528275       0.33372739      -0.65768862
H        0.00000000       0.00000000       0.00000000       0.21832584      -0.17789361       0.27821314
H        0.00000000       0.00000000       0.00000000       0.79947418      -0.16529110       0.34428212
O        0.00000000       0.00000000       0.00000000      -0.75228161      -1.68440593      -0.45669741
H        0.00000000       0.00000000       0.00000000       1.24730039       0.42069233       0.17708674
H        0.00000000       0.00000000       0.00000000       0.18666604       0.70333851      -0.12414216
H        0.00000000       0.00000000       0.00000000      -0.68420196       0.56983245       0.43894622
7
Lattice="529.1772105638412 0.0 0.0 0.0 529.1772105638412 0.0 0.0 0.0 529.1772105638412" Properties=species:S:1:pos:R:3:forces_component_raw:R:3 ipi_comment="Step:       14460  Bead:       0 forces_component_raw{ase}  cell{ase}" pbc="T T T"
O        0.00000000       0.00000000       0.00000000      -0.47603667      -0.46374211       0.43583912
H        0.00000000       0.00000000       0.00000000       0.03274646      -0.01248389      -0.21149740
H        0.00000000       0.00000000       0.00000000      -0.47729904       0.01013315      -0.37220788
O        0.00000000       0.00000000       0.00000000       1.58637953      -0.63069070      -0.44420716
H        0.00000000       0.00000000       0.00000000      -0.17906131       0.07758459       0.19133736
H        0.00000000       0.00000000       0.00000000       0.13212243       0.66095662      -0.08086965
H        0.00000000       0.00000000       0.00000000      -0.61885148       0.35824227       0.48160565
7
Lattice="529.1772105638412 0.0 0.0 0.0 529.1772105638412 0.0 0.0 0.0 529.1772105638412" Properties=species:S:1:pos:R:3:forces_component_raw:R:3 ipi_comment="Step:       14480  Bead:       0 forces_component_raw{ase}  cell{ase}" pbc="T T T"
O        0.00000000       0.00000000       0.00000000      -0.14365372      -0.55714733       1.38858426
H        0.00000000       0.00000000       0.00000000      -0.01233678      -0.19574976      -0.14322799
H        0.00000000       0.00000000       0.00000000      -0.29592401       0.49199092      -0.90503597
O        0.00000000       0.00000000       0.00000000       0.53441835       0.09922470       0.37895680
H        0.00000000       0.00000000       0.00000000      -0.18982905      -0.15817231      -0.41644484
H        0.00000000       0.00000000       0.00000000       0.28026617       0.04519057      -0.24358515
H        0.00000000       0.00000000       0.00000000      -0.17294091       0.27466321      -0.05924693
7
Lattice="529.1772105638412 0.0 0.0 0.0 529.1772105638412 0.0 0.0 0.0 529.1772105638412" Properties=species:S:1:pos:R:3:forces_component_raw:R:3 ipi_comment="Step:       14500  Bead:       0 forces_component_raw{ase}  cell{ase}" pbc="T T T"
O        0.00000000       0.00000000       0.00000000      -0.15984434      -1.02434004       0.69744605
H        0.00000000       0.00000000       0.00000000       0.43061823       0.24269848      -0.91610855
H        0.00000000       0.00000000       0.00000000      -0.53462869       0.50205344      -0.20839328
O        0.00000000       0.00000000       0.00000000       0.66221059       1.21151161      -0.62556231
H        0.00000000       0.00000000       0.00000000      -0.07754412       0.12855172       0.69147200
H        0.00000000       0.00000000       0.00000000      -0.35027677      -0.69943333       0.34616485
H        0.00000000       0.00000000       0.00000000       0.02946514      -0.36104184       0.01498141
7
Lattice="529.1772105638412 0.0 0.0 0.0 529.1772105638412 0.0 0.0 0.0 529.1772105638412" Properties=species:S:1:pos:R:3:forces_component_raw:R:3 ipi_comment="Step:       14520  Bead:       0 forces_component_raw{ase}  cell{ase}" pbc="T T T"
O        0.00000000       0.00000000       0.00000000      -0.25419340       0.15082397       1.63991440
H        0.00000000       0.00000000       0.00000000       0.37808716      -0.23456924      -0.79000330
H        0.00000000       0.00000000       0.00000000       0.44540531       0.27269167      -0.16441250
O        0.00000000       0.00000000       0.00000000      -1.58386767       0.64737642       0.41124982
H        0.00000000       0.00000000       0.00000000       0.35531253       0.10746679      -0.89831895
H        0.00000000       0.00000000       0.00000000       0.15810961      -0.93330783       0.10769130
H        0.00000000       0.00000000       0.00000000       0.50114638      -0.01048169      -0.30612105
7
Lattice="529.1772105638412 0.0 0.0 0.0 529.1772105638412 0.0 0.0 0.0 529.1772105638412" Properties=species:S:1:pos:R:3:forces_component_raw:R:3 ipi_comment="Step:       14540  Bead:       0 forces_component_raw{ase}  cell{ase}" pbc="T T T"
O        0.00000000       0.00000000       0.00000000       0.27200997       0.42618740      -1.30848992
H        0.00000000       0.00000000       0.00000000       0.33614606       0.13854261      -0.16281080
H        0.00000000       0.00000000       0.00000000       0.55773836       0.05184305       0.86940831
O        0.00000000       0.00000000       0.00000000      -0.75889743       0.04080549       0.08926204
H        0.00000000       0.00000000       0.00000000      -0.63069946      -0.25444496       0.64028669
H        0.00000000       0.00000000       0.00000000      -0.30650300       0.11657077       0.09858415
H        0.00000000       0.00000000       0.00000000       0.53020567      -0.51950413      -0.22624064
7
Lattice="529.1772105638412 0.0 0.0 0.0 529.1772105638412 0.0 0.0 0.0 529.1772105638412" Properties=species:S:1:pos:R:3:forces_component_raw:R:3 ipi_comment="Step:       14560  Bead:       0 forces_component_raw{ase}  cell{ase}" pbc="T T T"
O        0.00000000       0.00000000       0.00000000      -0.56118953      -0.57979977      -0.81386960
H        0.00000000       0.00000000       0.00000000      -0.15534222       0.02880148       0.26059896
H        0.00000000       0.00000000       0.00000000       0.66113401       0.59559953       0.75886405
O        0.00000000       0.00000000       0.00000000      -0.85994923      -0.09298028       0.98320240
H        0.00000000       0.00000000       0.00000000       0.42056483      -0.08056767      -0.47811610
H        0.00000000       0.00000000       0.00000000       0.02659166       0.58060593      -0.24289900
H        0.00000000       0.00000000       0.00000000       0.46819055      -0.45165905      -0.46778077
7
Lattice="529.1772105638412 0.0 0.0 0.0 529.1772105638412 0.0 0.0 0.0 529.1772105638412" Properties=species:S:1:pos:R:3:forces_component_raw:R:3 ipi_comment="Step:       14580  Bead:       0 forces_component_raw{ase}  cell{ase}" pbc="T T T"
O        0.00000000       0.00000000       0.00000000      -0.29961902      -0.56081760      -0.52287334
H        0.00000000       0.00000000       0.00000000      -0.21471480       0.00835560       0.26151812
H        0.00000000       0.00000000       0.00000000      -0.02611193       0.13972062       0.14513624
O        0.00000000       0.00000000       0.00000000       0.46252447      -1.32893586       0.79115629
H        0.00000000       0.00000000       0.00000000      -0.29018924       0.21741678       0.29729486
H        0.00000000       0.00000000       0.00000000      -0.00252041       1.60309840      -0.79706562
H        0.00000000       0.00000000       0.00000000       0.37063095      -0.07883790      -0.17516650
7
Lattice="529.1772105638412 0.0 0.0 0.0 529.1772105638412 0.0 0.0 0.0 529.1772105638412" Properties=species:S:1:pos:R:3:forces_component_raw:R:3 ipi_comment="Step:       14600  Bead:       0 forces_component_raw{ase}  cell{ase}" pbc="T T T"
O        0.00000000       0.00000000       0.00000000      -0.34376428       0.13380110       0.24078248
H        0.00000000       0.00000000       0.00000000      -0.32900333      -0.06720907       0.14984947
H        0.00000000       0.00000000       0.00000000       0.13727675      -0.13910767      -0.24387074
O        0.00000000       0.00000000       0.00000000       0.61312294      -1.54712844       0.40800041
H        0.00000000       0.00000000       0.00000000       0.19212079      -0.40164283       0.05590092
H        0.00000000       0.00000000       0.00000000       0.28001538       1.71633387      -0.81442219
H        0.00000000       0.00000000       0.00000000      -0.54976821       0.30495298       0.20375961
7
Lattice="529.1772105638412 0.0 0.0 0.0 529.1772105638412 0.0 0.0 0.0 529.1772105638412" Properties=species:S:1:pos:R:3:forces_component_raw:R:3 ipi_comment="Step:       14620  Bead:       0 forces_component_raw{ase}  cell{ase}" pbc="T T T"
O        0.00000000       0.00000000       0.00000000       0.15536332       0.68955678       0.22427596
H        0.00000000       0.00000000       0.00000000      -0.03663039      -0.19176742       0.00470394
H        0.00000000       0.00000000       0.00000000      -0.05652388      -0.63945270      -0.23462346
O        0.00000000       0.00000000       0.00000000       1.35037446      -3.16779471       0.38349640
H        0.00000000       0.00000000       0.00000000       0.07212172       0.60797197       0.03301807
H        0.00000000       0.00000000       0.00000000       0.04384738       1.50165415      -0.82514405
H        0.00000000       0.00000000       0.00000000      -1.52855218       1.19983220       0.41427311
7
Lattice="529.1772105638412 0.0 0.0 0.0 529.1772105638412 0.0 0.0 0.0 529.1772105638412" Properties=species:S:1:pos:R:3:forces_component_raw:R:3 ipi_comment="Step:       14640  Bead:       0 forces_component_raw{ase}  cell{ase}" pbc="T T T"
O        0.00000000       0.00000000       0.00000000       0.24535370       0.40936625       1.10636711
H        0.00000000       0.00000000       0.00000000       0.49115104       0.50475776      -0.57364506
H        0.00000000       0.00000000       0.00000000       0.20243998      -0.33450255      -0.70730853
O        0.00000000       0.00000000       0.00000000       0.36565429      -0.95045251       0.16389149
H        0.00000000       0.00000000       0.00000000      -0.40779090      -0.53632915       0.17549151
H        0.00000000       0.00000000       0.00000000       0.07234851       0.49538887      -0.26700890
H        0.00000000       0.00000000       0.00000000      -0.96915651       0.41177151       0.10221219
7
Lattice="529.1772105638412 0.0 0.0 0.0 529.1772105638412 0.0 0.0 0.0 529.1772105638412" Properties=species:S:1:pos:R:3:forces_component_raw:R:3 ipi_comment="Step:       14660  Bead:       0 forces_component_raw{ase}  cell{ase}" pbc="T T T"
O        0.00000000       0.00000000       0.00000000       0.73316300       0.92670822      -0.23268567
H        0.00000000       0.00000000       0.00000000      -0.30302721      -0.50281358       0.08603090
H        0.00000000       0.00000000       0.00000000      -0.33531892      -0.41126430       0.36964777
O        0.00000000       0.00000000       0.00000000      -0.34067184       0.84468240      -0.58779055
H        0.00000000       0.00000000       0.00000000       0.14001788       0.23710558      -0.47692251
H        0.00000000       0.00000000       0.00000000      -0.24449877      -0.94186282       0.73594141
H        0.00000000       0.00000000       0.00000000       0.35033584      -0.15255553       0.10577872
7
Lattice="529.1772105638412 0.0 0.0 0.0 529.1772105638412 0.0 0.0 0.0 529.1772105638412" Properties=species:S:1:pos:R:3:forces_component_raw:R:3 ipi_comment="Step:       14680  Bead:       0 forces_component_raw{ase}  cell{ase}" pbc="T T T"
O        0.00000000       0.00000000       0.00000000      -1.31709743      -1.51499606      -1.23336602
H        0.00000000       0.00000000       0.00000000       0.50283784       0.42780024       0.51334411
H        0.00000000       0.00000000       0.00000000       0.28810668       0.81437445       0.21871215
O        0.00000000       0.00000000       0.00000000      -0.56218046       2.02743960      -1.47878421
H        0.00000000       0.00000000       0.00000000       0.16292106      -0.04639733       0.70126486
H        0.00000000       0.00000000       0.00000000      -0.09329510      -1.21691668       1.08442629
H        0.00000000       0.00000000       0.00000000       1.01870764      -0.49130425       0.19440295
7
Lattice="529.1772105638412 0.0 0.0 0.0 529.1772105638412 0.0 0.0 0.0 529.1772105638412" Properties=species:S:1:pos:R:3:forces_component_raw:R:3 ipi_comment="Step:       14700  Bead:       0 forces_component_raw{ase}  cell{ase}" pbc="T T T"
O        0.00000000       0.00000000       0.00000000       0.17489457      -0.28874317      -0.04260687
H        0.00000000       0.00000000       0.00000000      -0.47980636      -0.30854747      -0.27145389
H        0.00000000       0.00000000       0.00000000       0.24319011       0.68532264       0.85302437
O        0.00000000       0.00000000       0.00000000      -0.38810316       0.97433979      -0.29359570
H        0.00000000       0.00000000       0.00000000      -0.37319690      -0.44906080      -0.67022056
H        0.00000000       0.00000000       0.00000000       0.05019312      -0.31887555       0.30649990
H        0.00000000       0.00000000       0.00000000       0.77282864      -0.29443547       0.11835283
7
Lattice="529.1772105638412 0.0 0.0 0.0 529.1772105638412 0.0 0.0 0.0 529.1772105638412" Properties=species:S:1:pos:R:3:forces_component_raw:R:3 ipi_comment="Step:       14720  Bead:       0 forces_component_raw{ase}  cell{ase}" pbc="T T T"
O        0.00000000       0.00000000       0.00000000      -1.53025830      -1.72634721      -0.26601440
H        0.00000000       0.00000000       0.00000000       0.58913618       0.54536533      -0.37131333
H        0.00000000       0.00000000       0.00000000       0.25320333       0.69092101       0.21117413
O        0.00000000       0.00000000       0.00000000       0.61637312       0.22326461      -0.36317164
H        0.00000000       0.00000000       0.00000000       0.02032712       0.22818735       0.76837135
H        0.00000000       0.00000000       0.00000000       0.06077747       0.15987206      -0.09944055
H        0.00000000       0.00000000       0.00000000      -0.00955898      -0.12126321       0.12039447
7
Lattice="529.1772105638412 0.0 0.0 0.0 529.1772105638412 0.0 0.0 0.0 529.1772105638412" Properties=species:S:1:pos:R:3:forces_component_raw:R:3 ipi_comment="Step:       14740  Bead:       0 forces_component_raw{ase}  cell{ase}" pbc="T T T"
O        0.00000000       0.00000000       0.00000000      -0.30424202       0.02296031       1.69352341
H        0.00000000       0.00000000       0.00000000       0.11927217       0.14607871      -1.47883535
H        0.00000000       0.00000000       0.00000000       0.04241690      -0.24471757       0.21789086
O        0.00000000       0.00000000       0.00000000       0.51482701      -0.99361944       0.71179944
H        0.00000000       0.00000000       0.00000000       0.07053524       0.08018839      -0.50917357
H        0.00000000       0.00000000       0.00000000       0.23653060       0.43896988      -0.54007912
H        0.00000000       0.00000000       0.00000000      -0.67933989       0.55013967      -0.09512559
7
Lattice="529.1772105638412 0.0 0.0 0.0 529.1772105638412 0.0 0.0 0.0 529.1772105638412" Properties=species:S:1:pos:R:3:forces_component_raw:R:3 ipi_comment="Step:       14760  Bead:       0 forces_component_raw{ase}  cell{ase}" pbc="T T T"
O        0.00000000       0.00000000       0.00000000      -0.41844565      -0.71834546       1.51012755
H        0.00000000       0.00000000       0.00000000       0.49151832       0.76666200      -1.10020840
H        0.00000000       0.00000000       0.00000000       0.03065786      -0.00425205      -0.52756107
O        0.00000000       0.00000000       0.00000000       0.90847928      -1.19364918       0.35693747
H        0.00000000       0.00000000       0.00000000       0.14908278       0.00109887       0.20983717
H        0.00000000       0.00000000       0.00000000       0.12419636       0.32558376      -0.34257531
H        0.00000000       0.00000000       0.00000000      -1.28548897       0.82290209      -0.10655716
7
Lattice="529.1772105638412 0.0 0.0 0.0 529.1772105638412 0.0 0.0 0.0 529.1772105638412" Properties=species:S:1:pos:R:3:forces_component_raw:R:3 ipi_comment="Step:       14780  Bead:       0 forces_component_raw{ase}  cell{ase}" pbc="T T T"
O        0.00000000       0.00000000       0.00000000       1.06386423       0.31826073       0.30733085
H        0.00000000       0.00000000       0.00000000      -0.05905534       0.01662517      -0.41192651
H        0.00000000       0.00000000       0.00000000      -0.32472760      -0.21114753      -0.00485110
O        0.00000000       0.00000000       0.00000000      -0.29734796      -0.09320587      -0.07155381
H        0.00000000       0.00000000       0.00000000      -0.47991377       0.16763943      -0.00621212
H        0.00000000       0.00000000       0.00000000      -0.03737216      -0.24443758       0.18053246
H        0.00000000       0.00000000       0.00000000       0.13455248       0.04626551       0.00668031
7
Lattice="529.1772105638412 0.0 0.0 0.0 529.1772105638412 0.0 0.0 0.0 529.1772105638412" Properties=species:S:1:pos:R:3:forces_component_raw:R:3 ipi_comment="Step:       14800  Bead:       0 forces_component_raw{ase}  cell{ase}" pbc="T T T"
O        0.00000000       0.00000000       0.00000000       0.73200977       0.57895529       0.29226366
H        0.00000000       0.00000000       0.00000000      -0.06951906      -0.11403300       0.77869952
H        0.00000000       0.00000000       0.00000000      -0.66216529      -0.24664120      -0.83829177
O        0.00000000       0.00000000       0.00000000      -1.22079277       2.12986470      -1.09692705
H        0.00000000       0.00000000       0.00000000       0.51046682      -0.54525912      -0.31978756
H        0.00000000       0.00000000       0.00000000      -0.13095990      -0.84061015       0.96765202
H        0.00000000       0.00000000       0.00000000       0.84096021      -0.96227670       0.21639121
7
Lattice="529.1772105638412 0.0 0.0 0.0 529.1772105638412 0.0 0.0 0.0 529.1772105638412" Properties=species:S:1:pos:R:3:forces_component_raw:R:3 ipi_comment="Step:       14820  Bead:       0 forces_component_raw{ase}  cell{ase}" pbc="T T T"
O        0.00000000       0.00000000       0.00000000       1.70814205       0.83189148      -0.36567700
H        0.00000000       0.00000000       0.00000000      -0.41203719      -0.39213163       1.16408372
H        0.00000000       0.00000000       0.00000000      -1.20041716      -0.52518994      -0.89123684
O        0.00000000       0.00000000       0.00000000      -0.67418260       1.68275702      -0.90199149
H        0.00000000       0.00000000       0.00000000      -0.39356345       0.33331746       0.04853809
H        0.00000000       0.00000000       0.00000000      -0.42557263      -0.76940853       0.84096134
H        0.00000000       0.00000000       0.00000000       1.39763093      -1.16123581       0.10532206
7
Lattice="529.1772105638412 0.0 0.0 0.0 529.1772105638412 0.0 0.0 0.0 529.1772105638412" Properties=species:S:1:pos:R:3:forces_component_raw:R:3 ipi_comment="Step:       14840  Bead:       0 forces_component_raw{ase}  cell{ase}" pbc="T T T"
O        0.00000000       0.00000000       0.00000000       0.73349154       0.42983663      -0.49292299
H        0.00000000       0.00000000       0.00000000      -0.30480236      -0.29500941       1.39788688
H        0.00000000       0.00000000       0.00000000      -0.54375106      -0.09674685      -0.95291257
O        0.00000000       0.00000000       0.00000000      -1.05048979       1.37932313       0.14773853
H        0.00000000       0.00000000       0.00000000       0.27877984      -0.31778294       0.18893421
H        0.00000000       0.00000000       0.00000000       0.26963633      -0.34843934       0.14165512
H        0.00000000       0.00000000       0.00000000       0.61713570      -0.75118113      -0.43037915
7
Lattice="529.1772105638412 0.0 0.0 0.0 529.1772105638412 0.0 0.0 0.0 529.1772105638412" Properties=species:S:1:pos:R:3:forces_component_raw:R:3 ipi_comment="Step:       14860  Bead:       0 forces_component_raw{ase}  cell{ase}" pbc="T T T"
O        0.00000000       0.00000000       0.00000000       0.71171087       0.29720593      -0.45760068
H        0.00000000       0.00000000       0.00000000      -0.63621581      -0.30948332       0.52871335
H        0.00000000       0.00000000       0.00000000       0.13820162       0.03606370       0.15812171
O        0.00000000       0.00000000       0.00000000       0.42904252      -0.57269478       0.60973990
H        0.00000000       0.00000000       0.00000000      -0.13661233       0.27883494      -0.51781213
H        0.00000000       0.00000000       0.00000000      -0.45393467       0.38672653      -0.41285518
H        0.00000000       0.00000000       0.00000000      -0.05219215      -0.11665297       0.09169304
7
Lattice="529.1772105638412 0.0 0.0 0.0 529.1772105638412 0.0 0.0 0.0 529.1772105638412" Properties=species:S:1:pos:R:3:forces_component_raw:R:3 ipi_comment="Step:       14880  Bead:       0 forces_component_raw{ase}  cell{ase}" pbc="T T T"
O        0.00000000       0.00000000       0.00000000      -0.12399465      -0.03476578      -0.89871419
H        0.00000000       0.00000000       0.00000000       0.10050470       0.02559851      -0.02346313
H        0.00000000       0.00000000       0.00000000       0.15353534       0.05090550       0.35960633
O        0.00000000       0.00000000       0.00000000       0.55080730      -2.35532237       0.38356316
H        0.00000000       0.00000000       0.00000000       0.21147427      -0.00110050       0.94860548
H        0.00000000       0.00000000       0.00000000       0.12893984       1.28637243      -1.17182613
H        0.00000000       0.00000000       0.00000000      -1.02126694       1.02831197       0.40222839
7
Lattice="529.1772105638412 0.0 0.0 0.0 529.1772105638412 0.0 0.0 0.0 529.1772105638412" Properties=species:S:1:pos:R:3:forces_component_raw:R:3 ipi_comment="Step:       14900  Bead:       0 forces_component_raw{ase}  cell{ase}" pbc="T T T"
O        0.00000000       0.00000000       0.00000000      -0.29394442       0.43272919       1.44749618
H        0.00000000       0.00000000       0.00000000       0.42162851      -0.23185279      -0.89279950
H        0.00000000       0.00000000       0.00000000       0.56174463       0.15572917      -0.08677405
O        0.00000000       0.00000000       0.00000000       0.89379657      -2.04378272       0.59217417
H        0.00000000       0.00000000       0.00000000      -0.43585867      -0.15766332      -0.89213330
H        0.00000000       0.00000000       0.00000000      -0.15536131       0.98891759      -0.65965593
H        0.00000000       0.00000000       0.00000000      -0.99200523       0.85592282       0.49169254
7
Lattice="529.1772105638412 0.0 0.0 0.0 529.1772105638412 0.0 0.0 0.0 529.1772105638412" Properties=species:S:1:pos:R:3:forces_component_raw:R:3 ipi_comment="Step:       14920  Bead:       0 forces_component_raw{ase}  cell{ase}" pbc="T T T"
O        0.00000000       0.00000000       0.00000000      -0.01066071       0.79000938       1.17791248
H        0.00000000       0.00000000       0.00000000       0.76417434      -0.54681707      -1.73542822
H        0.00000000       0.00000000       0.00000000      -0.44643444      -0.16613063       0.01691645
O        0.00000000       0.00000000       0.00000000      -0.14149272      -0.92724753      -0.28751057
H        0.00000000       0.00000000       0.00000000       0.37014556      -0.19649616       0.59476525
H        0.00000000       0.00000000       0.00000000       0.33136207       0.13057494      -0.11517346
H        0.00000000       0.00000000       0.00000000      -0.86709386       0.91610706       0.34851787
7
Lattice="529.1772105638412 0.0 0.0 0.0 529.1772105638412 0.0 0.0 0.0 529.1772105638412" Properties=species:S:1:pos:R:3:forces_component_raw:R:3 ipi_comment="Step:       14940  Bead:       0 forces_component_raw{ase}  cell{ase}" pbc="T T T"
O        0.00000000       0.00000000       0.00000000      -0.72854686       0.14232141       0.60978127
H        0.00000000       0.00000000       0.00000000       0.23573965      -0.42341501      -0.97836715
H        0.00000000       0.00000000       0.00000000       0.34102085       0.02932543       0.50579625
O        0.00000000       0.00000000       0.00000000       0.46091119       1.16199768      -0.21985298
H        0.00000000       0.00000000       0.00000000      -0.32427180       0.38475320      -0.34353310
H        0.00000000       0.00000000       0.00000000      -0.37879539      -0.66506547       0.52225697
H        0.00000000       0.00000000       0.00000000       0.39394221      -0.62991715      -0.09608082
7
Lattice="529.1772105638412 0.0 0.0 0.0 529.1772105638412 0.0 0.0 0.0 529.1772105638412" Properties=species:S:1:pos:R:3:forces_component_raw:R:3 ipi_comment="Step:       14960  Bead:       0 forces_component_raw{ase}  cell{ase}" pbc="T T T"
O        0.00000000       0.00000000       0.00000000      -1.03557110      -0.30456144      -0.90139139
H        0.00000000       0.00000000       0.00000000      -0.07881507       0.21779403       0.32686639
H        0.00000000       0.00000000       0.00000000       0.71766281       0.02157760       0.69230533
O        0.00000000       0.00000000       0.00000000      -0.64688897       1.92997551      -0.19189824
H        0.00000000       0.00000000       0.00000000       0.33042464      -0.23241112      -0.09911051
H        0.00000000       0.00000000       0.00000000       0.01159844      -0.74959088       0.44511443
H        0.00000000       0.00000000       0.00000000       0.70158917      -0.88278365      -0.27188593
7
Lattice="529.1772105638412 0.0 0.0 0.0 529.1772105638412 0.0 0.0 0.0 529.1772105638412" Properties=species:S:1:pos:R:3:forces_component_raw:R:3 ipi_comment="Step:       14980  Bead:       0 forces_component_raw{ase}  cell{ase}" pbc="T T T"
O        0.00000000       0.00000000       0.00000000       0.02420372      -0.53567296      -1.16036582
H        0.00000000       0.00000000       0.00000000      -0.55203527       0.48843151       0.93396658
H        0.00000000       0.00000000       0.00000000       0.21621600       0.00026654       0.32970005
O        0.00000000       0.00000000       0.00000000       0.01645100       0.82199603      -0.13882910
H        0.00000000       0.00000000       0.00000000      -0.04261799       0.10187429       0.01335765
H        0.00000000       0.00000000       0.00000000      -0.27207375       0.09116447       0.20043394
H        0.00000000       0.00000000       0.00000000       0.60985625      -0.96805990      -0.17826335
7
Lattice="529.1772105638412 0.0 0.0 0.0 529.1772105638412 0.0 0.0 0.0 529.1772105638412" Properties=species:S:1:pos:R:3:forces_component_raw:R:3 ipi_comment="Step:       15000  Bead:       0 forces_component_raw{ase}  cell{ase}" pbc="T T T"
O        0.00000000       0.00000000       0.00000000       0.51866633      -0.12024972      -0.08723462
H        0.00000000       0.00000000       0.00000000      -0.27839142       0.24251866       0.54384196
H        0.00000000       0.00000000       0.00000000       0.12724848       0.00725514      -0.45387882
O        0.00000000       0.00000000       0.00000000      -1.01716900      -0.62817603       0.91423565
H        0.00000000       0.00000000       0.00000000      -0.30515003      -0.00603926       0.15718231
H        0.00000000       0.00000000       0.00000000       0.32577753       0.62415093      -0.51585466
H        0.00000000       0.00000000       0.00000000       0.62901795      -0.11945966      -0.55829167
7
Lattice="529.1772105638412 0.0 0.0 0.0 529.1772105638412 0.0 0.0 0.0 529.1772105638412" Properties=species:S:1:pos:R:3:forces_component_raw:R:3 ipi_comment="Step:       15020  Bead:       0 forces_component_raw{ase}  cell{ase}" pbc="T T T"
O        0.00000000       0.00000000       0.00000000       0.43380481      -0.30576730       1.31598437
H        0.00000000       0.00000000       0.00000000       0.02017730       0.19802241       0.03158468
H        0.00000000       0.00000000       0.00000000      -0.64453775       0.24703792      -1.44829011
O        0.00000000       0.00000000       0.00000000      -0.09038982      -0.82996345      -0.23034498
H        0.00000000       0.00000000       0.00000000       0.43331629      -0.34092021       0.29506600
H        0.00000000       0.00000000       0.00000000      -0.03971009       1.42835820      -0.03254101
H        0.00000000       0.00000000       0.00000000      -0.11266054      -0.39676765       0.06854097
7
Lattice="529.1772105638412 0.0 0.0 0.0 529.1772105638412 0.0 0.0 0.0 529.1772105638412" Properties=species:S:1:pos:R:3:forces_component_raw:R:3 ipi_comment="Step:       15040  Bead:       0 forces_component_raw{ase}  cell{ase}" pbc="T T T"
O        0.00000000       0.00000000       0.00000000       0.24538681       0.05195360       1.64235807
H        0.00000000       0.00000000       0.00000000       0.09436151      -0.17199096      -0.31106269
H        0.00000000       0.00000000       0.00000000      -0.42490459       0.08643124      -0.91733980
O        0.00000000       0.00000000       0.00000000      -0.08181626      -1.47833288      -0.07747616
H        0.00000000       0.00000000       0.00000000      -0.01056862       0.07437184      -0.41505379
H        0.00000000       0.00000000       0.00000000       0.32583991       0.92237580      -0.21916673
H        0.00000000       0.00000000       0.00000000      -0.14829874       0.51519144       0.29774112
7
Lattice="529.1772105638412 0.0 0.0 0.0 529.1772105638412 0.0 0.0 0.0 529.1772105638412" Properties=species:S:1:pos:R:3:forces_component_raw:R:3 ipi_comment="Step:       15060  Bead:       0 forces_component_raw{ase}  cell{ase}" pbc="T T T"
O        0.00000000       0.00000000       0.00000000       0.47121424       0.12149712      -0.33144122
H        0.00000000       0.00000000       0.00000000      -0.07942327       0.02989209       0.07431871
H        0.00000000       0.00000000       0.00000000      -0.34103671      -0.09153593       0.16760193
O        0.00000000       0.00000000       0.00000000       0.79602140      -1.59282446      -0.80321205
H        0.00000000       0.00000000       0.00000000      -0.42741716      -0.25563404       0.07109046
H        0.00000000       0.00000000       0.00000000       0.42391792       0.61503065      -0.09621911
H        0.00000000       0.00000000       0.00000000      -0.84327644       1.17357445       0.91786105
7
Lattice="529.1772105638412 0.0 0.0 0.0 529.1772105638412 0.0 0.0 0.0 529.1772105638412" Properties=species:S:1:pos:R:3:forces_component_raw:R:3 ipi_comment="Step:       15080  Bead:       0 forces_component_raw{ase}  cell{ase}" pbc="T T T"
O        0.00000000       0.00000000       0.00000000      -0.28191593      -0.49906165      -0.09778702
H        0.00000000       0.00000000       0.00000000       0.04252075       0.08090138       0.04167128
H        0.00000000       0.00000000       0.00000000       0.05023184       0.16976970       0.18043770
O        0.00000000       0.00000000       0.00000000       0.04971296      -0.91017068      -0.50755489
H        0.00000000       0.00000000       0.00000000       0.95793325       0.52054572      -0.42841572
H        0.00000000       0.00000000       0.00000000      -0.23125160      -0.63969320       0.08388730
H        0.00000000       0.00000000       0.00000000      -0.58723128       1.27770853       0.72776127
7
Lattice="529.1772105638412 0.0 0.0 0.0 529.1772105638412 0.0 0.0 0.0 529.1772105638412" Properties=species:S:1:pos:R:3:forces_component_raw:R:3 ipi_comment="Step:       15100  Bead:       0 forces_component_raw{ase}  cell{ase}" pbc="T T T"
O        0.00000000       0.00000000       0.00000000      -0.31023347      -0.49099398      -0.28445649
H        0.00000000       0.00000000       0.00000000      -0.23676258       0.38132554       0.58061224
H        0.00000000       0.00000000       0.00000000      -0.09397534       0.03451157       0.01414613
O        0.00000000       0.00000000       0.00000000       1.75742245       1.48606873      -0.94510710
H        0.00000000       0.00000000       0.00000000       0.00143510      -0.23473953       0.00427233
H        0.00000000       0.00000000       0.00000000      -0.70475644      -0.94228673       0.39308143
H        0.00000000       0.00000000       0.00000000      -0.41312954      -0.23388565       0.23745167
7
Lattice="529.1772105638412 0.0 0.0 0.0 529.1772105638412 0.0 0.0 0.0 529.1772105638412" Properties=species:S:1:pos:R:3:forces_component_raw:R:3 ipi_comment="Step:       15120  Bead:       0 forces_component_raw{ase}  cell{ase}" pbc="T T T"
O        0.00000000       0.00000000       0.00000000       0.20825112      -0.21795636      -1.48677469
H        0.00000000       0.00000000       0.00000000       0.10960415       0.33198029       0.81638140
H        0.00000000       0.00000000       0.00000000      -0.05026883      -0.18461138       0.06334914
O        0.00000000       0.00000000       0.00000000      -0.69233412       1.57005954       0.43340165
H        0.00000000       0.00000000       0.00000000      -0.26986769       0.02507150       0.85262913
H        0.00000000       0.00000000       0.00000000      -0.09165281      -1.30540657      -0.00727570
H        0.00000000       0.00000000       0.00000000       0.78626818      -0.21913704      -0.67171109
7
Lattice="529.1772105638412 0.0 0.0 0.0 529.1772105638412 0.0 0.0 0.0 529.1772105638412" Properties=species:S:1:pos:R:3:forces_component_raw:R:3 ipi_comment="Step:       15140  Bead:       0 forces_component_raw{ase}  cell{ase}" pbc="T T T"
O        0.00000000       0.00000000       0.00000000      -0.08202523       0.38755596       0.30563298
H        0.00000000       0.00000000       0.00000000      -0.21253946      -0.06044269       0.24604279
H        0.00000000       0.00000000       0.00000000       0.23564798      -0.20726752      -0.10576296
O        0.00000000       0.00000000       0.00000000       0.43225613       1.74635029      -0.47459528
H        0.00000000       0.00000000       0.00000000      -0.09283992       0.04188612      -0.59020436
H        0.00000000       0.00000000       0.00000000      -0.57028580      -0.62720651       0.73595119
H        0.00000000       0.00000000       0.00000000       0.28978643      -1.28087580      -0.11706433
7
Lattice="529.1772105638412 0.0 0.0 0.0 529.1772105638412 0.0 0.0 0.0 529.1772105638412" Properties=species:S:1:pos:R:3:forces_component_raw:R:3 ipi_comment="Step:       15160  Bead:       0 forces_component_raw{ase}  cell{ase}" pbc="T T T"
O        0.00000000       0.00000000       0.00000000       0.06013900       0.22057314       0.77443928
H        0.00000000       0.00000000       0.00000000       0.05731586      -0.43454906      -0.88773382
H        0.00000000       0.00000000       0.00000000       0.07954051       0.09012800       0.08923934
O        0.00000000       0.00000000       0.00000000      -1.11684931      -0.41629720       1.29856563
H        0.00000000       0.00000000       0.00000000       0.06855126       0.56326783      -0.08546988
H        0.00000000       0.00000000       0.00000000       0.18120171       0.43133402      -0.39798316
H        0.00000000       0.00000000       0.00000000       0.67010105      -0.45445660      -0.79105747
7
Lattice="529.1772105638412 0.0 0.0 0.0 529.1772105638412 0.0 0.0 0.0 529.1772105638412" Properties=species:S:1:pos:R:3:forces_component_raw:R:3 ipi_comment="Step:       15180  Bead:       0 forces_component_raw{ase}  cell{ase}" pbc="T T T"
O        0.00000000       0.00000000       0.00000000      -0.28725830       1.12296868       1.47825849
H        0.00000000       0.00000000       0.00000000       0.18087453      -0.53166247      -1.72310305
H        0.00000000       0.00000000       0.00000000       0.38558009      -0.10996246      -0.23819953
O        0.00000000       0.00000000       0.00000000      -0.10470074      -1.24875546       0.43436039
H        0.00000000       0.00000000       0.00000000       0.06667139      -0.69516635       0.32816982
H        0.00000000       0.00000000       0.00000000       0.07926395       1.09699333      -0.70497769
H        0.00000000       0.00000000       0.00000000      -0.32043102       0.36558443       0.42549145
7
Lattice="529.1772105638412 0.0 0.0 0.0 529.1772105638412 0.0 0.0 0.0 529.1772105638412" Properties=species:S:1:pos:R:3:forces_component_raw:R:3 ipi_comment="Step:       15200  Bead:       0 forces_component_raw{ase}  cell{ase}" pbc="T T T"
O        0.00000000       0.00000000       0.00000000      -0.13357705       0.54075235       0.81927502
H        0.00000000       0.00000000       0.00000000       0.09578934      -0.58296728      -0.88259959
H        0.00000000       0.00000000       0.00000000      -0.00770596      -0.13624096       0.20787370
O        0.00000000       0.00000000       0.00000000       1.02716565      -2.57439161      -1.12180007
H        0.00000000       0.00000000       0.00000000      -0.17981175       0.66828835      -0.33525211
H        0.00000000       0.00000000       0.00000000      -0.58819544       1.54396212       0.02276140
H        0.00000000       0.00000000       0.00000000      -0.21366480       0.54059690       1.28974188
7
Lattice="529.1772105638412 0.0 0.0 0.0 529.1772105638412 0.0 0.0 0.0 529.1772105638412" Properties=species:S:1:pos:R:3:forces_component_raw:R:3 ipi_comment="Step:       15220  Bead:       0 forces_component_raw{ase}  cell{ase}" pbc="T T T"
O        0.00000000       0.00000000       0.00000000       0.18109030       0.80699855       0.04171724
H        0.00000000       0.00000000       0.00000000      -0.16973412       0.06895447       0.01420492
H        0.00000000       0.00000000       0.00000000      -0.21767496      -0.72309613       0.02982336
O        0.00000000       0.00000000       0.00000000       0.15215349      -1.88501168      -0.29751372
H        0.00000000       0.00000000       0.00000000      -0.03343714      -0.36125574       0.33690003
H        0.00000000       0.00000000       0.00000000       0.10094602       1.57503224      -0.47888345
H        0.00000000       0.00000000       0.00000000      -0.01334366       0.51837832       0.35375169
7
Lattice="529.1772105638412 0.0 0.0 0.0 529.1772105638412 0.0 0.0 0.0 529.1772105638412" Properties=species:S:1:pos:R:3:forces_component_raw:R:3 ipi_comment="Step:       15240  Bead:       0 forces_component_raw{ase}  cell{ase}" pbc="T T T"
O        0.00000000       0.00000000       0.00000000       0.11735266      -1.20131970      -0.74332678
H        0.00000000       0.00000000       0.00000000      -0.11337878       1.25576473       0.81297386
H        0.00000000       0.00000000       0.00000000      -0.48965064      -0.54215831       0.21034113
O        0.00000000       0.00000000       0.00000000       0.41374630      -0.22860029      -0.65126574
H        0.00000000       0.00000000       0.00000000      -0.04422632       0.21951914       0.26712072
H        0.00000000       0.00000000       0.00000000       0.00774751       0.72237677       0.23195282
H        0.00000000       0.00000000       0.00000000       0.10840921      -0.22558227      -0.12779582
7
Lattice="529.1772105638412 0.0 0.0 0.0 529.1772105638412 0.0 0.0 0.0 529.1772105638412" Properties=species:S:1:pos:R:3:forces_component_raw:R:3 ipi_comment="Step:       15260  Bead:       0 forces_component_raw{ase}  cell{ase}" pbc="T T T"
O        0.00000000       0.00000000       0.00000000       0.33209303      -1.46727300      -0.87954790
H        0.00000000       0.00000000       0.00000000      -0.26209080       1.32917261       1.04925966
H        0.00000000       0.00000000       0.00000000      -0.18069682      -0.04378420       0.16505623
O        0.00000000       0.00000000       0.00000000      -0.23298293       2.10279108       1.36649800
H        0.00000000       0.00000000       0.00000000       0.31538156      -0.02857359      -0.70511973
H        0.00000000       0.00000000       0.00000000      -0.35008526      -1.65737152      -0.32746556
H        0.00000000       0.00000000       0.00000000       0.37838128      -0.23496151      -0.66868067
7
Lattice="529.1772105638412 0.0 0.0 0.0 529.1772105638412 0.0 0.0 0.0 529.1772105638412" Properties=species:S:1:pos:R:3:forces_component_raw:R:3 ipi_comment="Step:       15280  Bead:       0 forces_component_raw{ase}  cell{ase}" pbc="T T T"
O        0.00000000       0.00000000       0.00000000       0.62517196       0.02619272      -1.14317096
H        0.00000000       0.00000000       0.00000000      -0.13786349       0.58046711       0.44620010
H        0.00000000       0.00000000       0.00000000       0.15685460      -0.21115685       0.05943181
O        0.00000000       0.00000000       0.00000000       0.98673439       2.23564554       0.81672126
H        0.00000000       0.00000000       0.00000000      -0.27651227      -0.21844038       0.53003138
H        0.00000000       0.00000000       0.00000000      -1.36453617      -1.76460266       0.00837845
H        0.00000000       0.00000000       0.00000000       0.01015105      -0.64810538      -0.71759224
7
Lattice="529.1772105638412 0.0 0.0 0.0 529.1772105638412 0.0 0.0 0.0 529.1772105638412" Properties=species:S:1:pos:R:3:forces_component_raw:R:3 ipi_comment="Step:       15300  Bead:       0 forces_component_raw{ase}  cell{ase}" pbc="T T T"
O        0.00000000       0.00000000       0.00000000      -0.06344748      -0.07902229       0.46629530
H        0.00000000       0.00000000       0.00000000       0.16470659      -0.15504959      -0.22020400
H        0.00000000       0.00000000       0.00000000       0.01895741       0.12357658      -0.19322908
O        0.00000000       0.00000000       0.00000000      -1.10211277      -0.39850152       0.97798228
H        0.00000000       0.00000000       0.00000000       0.12488820       0.38035715      -0.25088334
H        0.00000000       0.00000000       0.00000000       0.21231496      -0.12454334      -0.41333768
H        0.00000000       0.00000000       0.00000000       0.64469308       0.25318316      -0.36662334
7
Lattice="529.1772105638412 0.0 0.0 0.0 529.1772105638412 0.0 0.0 0.0 529.1772105638412" Properties=species:S:1:pos:R:3:forces_component_raw:R:3 ipi_comment="Step:       15320  Bead:       0 forces_component_raw{ase}  cell{ase}" pbc="T T T"
O        0.00000000       0.00000000       0.00000000      -1.27929473       1.38610101       1.13764882
H        0.00000000       0.00000000       0.00000000       1.00408149      -1.53718496      -1.02652002
H        0.00000000       0.00000000       0.00000000       0.07955027       0.14816111       0.18924719
O        0.00000000       0.00000000       0.00000000       0.45858839      -0.32908881      -1.38642776
H        0.00000000       0.00000000       0.00000000      -0.31449807      -0.07602549      -0.10946985
H        0.00000000       0.00000000       0.00000000       0.42047662       0.61485630       0.60892874
H        0.00000000       0.00000000       0.00000000      -0.36890411      -0.20681906       0.58659285
7
Lattice="529.1772105638412 0.0 0.0 0.0 529.1772105638412 0.0 0.0 0.0 529.1772105638412" Properties=species:S:1:pos:R:3:forces_component_raw:R:3 ipi_comment="Step:       15340  Bead:       0 forces_component_raw{ase}  cell{ase}" pbc="T T T"
O        0.00000000       0.00000000       0.00000000      -2.17615748       1.71328640       1.98322308
H        0.00000000       0.00000000       0.00000000       1.04088831      -1.65263367      -1.54547000
H        0.00000000       0.00000000       0.00000000       0.44391912      -0.25694043      -0.16612010
O        0.00000000       0.00000000       0.00000000      -1.25675893      -1.19596100       0.06768286
H        0.00000000       0.00000000       0.00000000       0.37200055       0.02036855       0.09932792
H        0.00000000       0.00000000       0.00000000       1.07234550       0.86363840      -0.78745282
H        0.00000000       0.00000000       0.00000000       0.50376290       0.50824213       0.34880924
7
Lattice="529.1772105638412 0.0 0.0 0.0 529.1772105638412 0.0 0.0 0.0 529.1772105638412" Properties=species:S:1:pos:R:3:forces_component_raw:R:3 ipi_comment="Step:       15360  Bead:       0 forces_component_raw{ase}  cell{ase}" pbc="T T T"
O        0.00000000       0.00000000       0.00000000      -0.19680595       0.54149699       0.01240453
H        0.00000000       0.00000000       0.00000000       0.27503818      -0.63178772      -0.12615967
H        0.00000000       0.00000000       0.00000000      -0.28077203      -0.09611344       0.43872377
O        0.00000000       0.00000000       0.00000000      -0.11673383      -0.29075253      -0.98705632
H        0.00000000       0.00000000       0.00000000      -0.31349927      -0.17053819       0.09169418
H        0.00000000       0.00000000       0.00000000       1.07900870       1.03467071       0.23325151
H        0.00000000       0.00000000       0.00000000      -0.44623566      -0.38697583       0.33714193
7
Lattice="529.1772105638412 0.0 0.0 0.0 529.1772105638412 0.0 0.0 0.0 529.1772105638412" Properties=species:S:1:pos:R:3:forces_component_raw:R:3 ipi_comment="Step:       15380  Bead:       0 forces_component_raw{ase}  cell{ase}" pbc="T T T"
O        0.00000000       0.00000000       0.00000000      -0.31130049      -0.92950106       0.57610572
H        0.00000000       0.00000000       0.00000000      -0.27255878       0.71477658       0.09627578
H        0.00000000       0.00000000       0.00000000      -0.00630631       0.07776892      -0.33884460
O        0.00000000       0.00000000       0.00000000      -0.82047403      -0.47592172       0.99942368
H        0.00000000       0.00000000       0.00000000       0.64585656      -0.11666687      -0.08342853
H        0.00000000       0.00000000       0.00000000       0.60743487       0.60123253      -0.64787775
H        0.00000000       0.00000000       0.00000000       0.15734814       0.12831163      -0.60165441
7
Lattice="529.1772105638412 0.0 0.0 0.0 529.1772105638412 0.0 0.0 0.0 529.1772105638412" Properties=species:S:1:pos:R:3:forces_component_raw:R:3 ipi_comment="Step:       15400  Bead:       0 forces_component_raw{ase}  cell{ase}" pbc="T T T"
O        0.00000000       0.00000000       0.00000000       1.64523602      -1.85721946      -1.76530683
H        0.00000000       0.00000000       0.00000000      -0.74286115       1.38811720       1.30766118
H        0.00000000       0.00000000       0.00000000      -0.28959465       0.39484927       0.00159699
O        0.00000000       0.00000000       0.00000000       0.15066886      -0.00238982       0.83473832
H        0.00000000       0.00000000       0.00000000      -0.29165524       0.37788367       0.03857364
H        0.00000000       0.00000000       0.00000000       0.05037010       0.05517784       0.47922915
H        0.00000000       0.00000000       0.00000000      -0.52216399      -0.35641873      -0.89649236
7
Lattice="529.1772105638412 0.0 0.0 0.0 529.1772105638412 0.0 0.0 0.0 529.1772105638412" Properties=species:S:1:pos:R:3:forces_component_raw:R:3 ipi_comment="Step:       15420  Bead:       0 forces_component_raw{ase}  cell{ase}" pbc="T T T"
O        0.00000000       0.00000000       0.00000000       0.97802735      -0.64887655      -1.02550817
H        0.00000000       0.00000000       0.00000000      -0.83695895       1.30009985       1.16442871
H        0.00000000       0.00000000       0.00000000       0.24126695       0.16726524      -0.76413161
O        0.00000000       0.00000000       0.00000000       0.09499443      -0.50371313       1.67335773
H        0.00000000       0.00000000       0.00000000       0.16405422      -0.67516911       0.07398701
H        0.00000000       0.00000000       0.00000000      -0.57532311      -0.30979991      -0.33057475
H        0.00000000       0.00000000       0.00000000      -0.06606090       0.67019361      -0.79155898
7
Lattice="529.1772105638412 0.0 0.0 0.0 529.1772105638412 0.0 0.0 0.0 529.1772105638412" Properties=species:S:1:pos:R:3:forces_component_raw:R:3 ipi_comment="Step:       15440  Bead:       0 forces_component_raw{ase}  cell{ase}" pbc="T T T"
O        0.00000000       0.00000000       0.00000000       0.53174198      -0.32238537      -1.45972991
H        0.00000000       0.00000000       0.00000000      -0.31610134       0.42128533       1.23054910
H        0.00000000       0.00000000       0.00000000       0.02010174      -0.13440365       0.29673663
O        0.00000000       0.00000000       0.00000000       1.17299235       0.04340425       0.12823531
H        0.00000000       0.00000000       0.00000000      -0.24290800       0.67532611      -0.48484367
H        0.00000000       0.00000000       0.00000000      -0.68027079      -0.61230254       0.35969043
H        0.00000000       0.00000000       0.00000000      -0.48555580      -0.07092416      -0.07063782
7
Lattice="529.1772105638412 0.0 0.0 0.0 529.1772105638412 0.0 0.0 0.0 529.1772105638412" Properties=species:S:1:pos:R:3:forces_component_raw:R:3 ipi_comment="Step:       15460  Bead:       0 forces_component_raw{ase}  cell{ase}" pbc="T T T"
O        0.00000000       0.00000000       0.00000000      -0.41699949       1.57710290       0.65368086
H        0.00000000       0.00000000       0.00000000      -0.16446887      -0.01196301      -0.08795574
H        0.00000000       0.00000000       0.00000000       0.26495513      -1.15811718      -0.06402688
O        0.00000000       0.00000000       0.00000000      -0.71209926      -0.23401329      -0.48871350
H        0.00000000       0.00000000       0.00000000       0.23719072      -0.68056470      -0.00487458
H        0.00000000       0.00000000       0.00000000       0.05541492       0.35849291      -0.33661845
H        0.00000000       0.00000000       0.00000000       0.73600686       0.14906244       0.32850826
7
Lattice="529.1772105638412 0.0 0.0 0.0 529.1772105638412 0.0 0.0 0.0 529.1772105638412" Properties=species:S:1:pos:R:3:forces_component_raw:R:3 ipi_comment="Step:       15480  Bead:       0 forces_component_raw{ase}  cell{ase}" pbc="T T T"
O        0.00000000       0.00000000       0.00000000       0.15013444       0.97790754       0.07973731
H        0.00000000       0.00000000       0.00000000       0.07360803      -0.66426325      -0.90851945
H        0.00000000       0.00000000       0.00000000      -0.29414433      -0.88999725       0.73338926
O        0.00000000       0.00000000       0.00000000      -0.36601424       0.70925331      -1.97884345
H        0.00000000       0.00000000       0.00000000      -0.10333973       0.58527637       0.53996921
H        0.00000000       0.00000000       0.00000000      -0.08671749      -0.20094413       0.26235181
H        0.00000000       0.00000000       0.00000000       0.62647343      -0.51723260       1.27191520
7
Lattice="529.1772105638412 0.0 0.0 0.0 529.1772105638412 0.0 0.0 0.0 529.1772105638412" Properties=species:S:1:pos:R:3:forces_component_raw:R:3 ipi_comment="Step:       15500  Bead:       0 forces_component_raw{ase}  cell{ase}" pbc="T T T"
O        0.00000000       0.00000000       0.00000000       0.06127867       2.76811696       1.87529934
H        0.00000000       0.00000000       0.00000000      -0.68818450      -1.56433773      -1.68357861
H        0.00000000       0.00000000       0.00000000       0.13967910      -0.92876053       0.31414726
O        0.00000000       0.00000000       0.00000000       0.36235392       0.06320700       0.29356891
H        0.00000000       0.00000000       0.00000000       0.09242290      -0.50879318      -0.54427624
H        0.00000000       0.00000000       0.00000000      -0.23830128       0.21190131      -0.46796876
H        0.00000000       0.00000000       0.00000000       0.27075124      -0.04133385       0.21280816
7
Lattice="529.1772105638412 0.0 0.0 0.0 529.1772105638412 0.0 0.0 0.0 529.1772105638412" Properties=species:S:1:pos:R:3:forces_component_raw:R:3 ipi_comment="Step:       15520  Bead:       0 forces_component_raw{ase}  cell{ase}" pbc="T T T"
O        0.00000000       0.00000000       0.00000000      -0.05200586       1.90635431       0.14550728
H        0.00000000       0.00000000       0.00000000      -0.25851545      -1.15645421      -1.32347954
H        0.00000000       0.00000000       0.00000000       0.25736815      -0.79169333       0.50774407
O        0.00000000       0.00000000       0.00000000       0.85016871      -0.21594766       0.01896381
H        0.00000000       0.00000000       0.00000000       0.09304962       0.05429372       0.78957963
H        0.00000000       0.00000000       0.00000000      -0.32723183       0.04816687       0.21813390
H        0.00000000       0.00000000       0.00000000      -0.56283343       0.15528017      -0.35644922
7
Lattice="529.1772105638412 0.0 0.0 0.0 529.1772105638412 0.0 0.0 0.0 529.1772105638412" Properties=species:S:1:pos:R:3:forces_component_raw:R:3 ipi_comment="Step:       15540  Bead:       0 forces_component_raw{ase}  cell{ase}" pbc="T T T"
O        0.00000000       0.00000000       0.00000000       0.04879239      -0.37854263       0.55142212
H        0.00000000       0.00000000       0.00000000      -0.05355208       0.23020649       0.16727191
H        0.00000000       0.00000000       0.00000000       0.12803398       0.27564043      -0.47905216
O        0.00000000       0.00000000       0.00000000      -0.38146883      -0.08676177       0.68815053
H        0.00000000       0.00000000       0.00000000      -0.24659666       0.21244451      -0.69950819
H        0.00000000       0.00000000       0.00000000       0.57523394      -0.27207577      -0.29472184
H        0.00000000       0.00000000       0.00000000      -0.07044283       0.01908883       0.06643754
7
Lattice="529.1772105638412 0.0 0.0 0.0 529.1772105638412 0.0 0.0 0.0 529.1772105638412" Properties=species:S:1:pos:R:3:forces_component_raw:R:3 ipi_comment="Step:       15560  Bead:       0 forces_component_raw{ase}  cell{ase}" pbc="T T T"
O        0.00000000       0.00000000       0.00000000      -0.21902514      -1.95423234      -0.50377756
H        0.00000000       0.00000000       0.00000000      -0.20688602      -0.10920733       0.51911914
H        0.00000000       0.00000000       0.00000000       0.39802960       1.86971796      -0.08520281
O        0.00000000       0.00000000       0.00000000      -1.37716496       1.99534941      -0.76457077
H        0.00000000       0.00000000       0.00000000       0.38475520      -0.01474564       0.43648672
H        0.00000000       0.00000000       0.00000000       0.42749137      -1.53574717       0.08211647
H        0.00000000       0.00000000       0.00000000       0.59280008      -0.25113478       0.31582892
7
Lattice="529.1772105638412 0.0 0.0 0.0 529.1772105638412 0.0 0.0 0.0 529.1772105638412" Properties=species:S:1:pos:R:3:forces_component_raw:R:3 ipi_comment="Step:       15580  Bead:       0 forces_component_raw{ase}  cell{ase}" pbc="T T T"
O        0.00000000       0.00000000       0.00000000      -1.09465206      -2.58675266       0.59237123
H        0.00000000       0.00000000       0.00000000       0.23680008       0.50953776      -0.02693254
H        0.00000000       0.00000000       0.00000000       1.10816467       1.85351766      -0.66867143
O        0.00000000       0.00000000       0.00000000      -0.46166885       1.87392486      -0.59759206
H        0.00000000       0.00000000       0.00000000      -0.41162336       0.44948852      -0.38347635
H        0.00000000       0.00000000       0.00000000       0.30271187      -1.82892132       0.04600452
H        0.00000000       0.00000000       0.00000000       0.32026762      -0.27079472       1.03829646
7
Lattice="529.1772105638412 0.0 0.0 0.0 529.1772105638412 0.0 0.0 0.0 529.1772105638412" Properties=species:S:1:pos:R:3:forces_component_raw:R:3 ipi_comment="Step:       15600  Bead:       0 forces_component_raw{ase}  cell{ase}" pbc="T T T"
O        0.00000000       0.00000000       0.00000000       0.15016967       0.92181140       0.17494375
H        0.00000000       0.00000000       0.00000000      -0.09773281      -1.16503477      -1.00111699
H        0.00000000       0.00000000       0.00000000       0.28065166       0.59430957       0.26093069
O        0.00000000       0.00000000       0.00000000      -1.48722041       2.28403664       1.57650006
H        0.00000000       0.00000000       0.00000000       0.10520953      -0.35770601       0.20489806
H        0.00000000       0.00000000       0.00000000       0.62765563      -1.83182836      -1.17346955
H        0.00000000       0.00000000       0.00000000       0.42126671      -0.44558805      -0.04268575
7
Lattice="529.1772105638412 0.0 0.0 0.0 529.1772105638412 0.0 0.0 0.0 529.1772105638412" Properties=species:S:1:pos:R:3:forces_component_raw:R:3 ipi_comment="Step:       15620  Bead:       0 forces_component_raw{ase}  cell{ase}" pbc="T T T"
O        0.00000000       0.00000000       0.00000000       0.51225942       2.76850439       1.67123819
H        0.00000000       0.00000000       0.00000000       0.58903539      -1.49055767      -1.93483878
H        0.00000000       0.00000000       0.00000000      -0.62069422      -0.95678508      -0.49282038
O        0.00000000       0.00000000       0.00000000      -0.13221835      -0.17482251       0.51625866
H        0.00000000       0.00000000       0.00000000      -0.54939908       0.12609735       0.55057335
H        0.00000000       0.00000000       0.00000000       0.61946845      -0.69055581      -0.63741928
H        0.00000000       0.00000000       0.00000000      -0.41845167       0.41811937       0.32700813
7
Lattice="529.1772105638412 0.0 0.0 0.0 529.1772105638412 0.0 0.0 0.0 529.1772105638412" Properties=species:S:1:pos:R:3:forces_component_raw:R:3 ipi_comment="Step:       15640  Bead:       0 forces_component_raw{ase}  cell{ase}" pbc="T T T"
O        0.00000000       0.00000000       0.00000000       1.12418223       2.21742964       1.55405879
H        0.00000000       0.00000000       0.00000000      -0.07845858      -1.37922883      -1.01322031
H        0.00000000       0.00000000       0.00000000      -1.88787938      -0.69322229       0.10500246
O        0.00000000       0.00000000       0.00000000       0.59576047      -1.52013278      -0.46873778
H        0.00000000       0.00000000       0.00000000       0.73043960      -0.55618298      -0.02010749
H        0.00000000       0.00000000       0.00000000      -0.61979032       0.81654859       0.27385670
H        0.00000000       0.00000000       0.00000000       0.13574591       1.11478889      -0.43085244
7
Lattice="529.1772105638412 0.0 0.0 0.0 529.1772105638412 0.0 0.0 0.0 529.1772105638412" Properties=species:S:1:pos:R:3:forces_component_raw:R:3 ipi_comment="Step:       15660  Bead:       0 forces_component_raw{ase}  cell{ase}" pbc="T T T"
O        0.00000000       0.00000000       0.00000000       0.92563296      -0.45078468       1.48169649
H        0.00000000       0.00000000       0.00000000       0.41532451       0.52512223      -0.35862249
H        0.00000000       0.00000000       0.00000000      -1.62482381      -0.58835095      -0.64671660
O        0.00000000       0.00000000       0.00000000       0.86385262      -1.65991974      -1.10854221
H        0.00000000       0.00000000       0.00000000       0.10524187       0.50407964      -0.02943879
H        0.00000000       0.00000000       0.00000000      -0.73642504       0.41555134       0.20838791
H        0.00000000       0.00000000       0.00000000       0.05119666       1.25430203       0.45323587
7
Lattice="529.1772105638412 0.0 0.0 0.0 529.1772105638412 0.0 0.0 0.0 529.1772105638412" Properties=species:S:1:pos:R:3:forces_component_raw:R:3 ipi_comment="Step:       15680  Bead:       0 forces_component_raw{ase}  cell{ase}" pbc="T T T"
O        0.00000000       0.00000000       0.00000000       0.81757564      -1.91355920       0.17273448
H        0.00000000       0.00000000       0.00000000      -0.29595295       1.39597881       1.00817847
H        0.00000000       0.00000000       0.00000000      -0.34871948       0.28856275      -0.37198711
O        0.00000000       0.00000000       0.00000000       0.01055199      -0.59593827      -1.44452620
H        0.00000000       0.00000000       0.00000000      -0.08344386      -0.47191262      -0.37393588
H        0.00000000       0.00000000       0.00000000      -0.88659811       0.75278020       0.67812324
H        0.00000000       0.00000000       0.00000000       0.78658676       0.54408854       0.33141261
7
Lattice="529.1772105638412 0.0 0.0 0.0 529.1772105638412 0.0 0.0 0.0 529.1772105638412" Properties=species:S:1:pos:R:3:forces_component_raw:R:3 ipi_comment="Step:       15700  Bead:       0 forces_component_raw{ase}  cell{ase}" pbc="T T T"
O        0.00000000       0.00000000       0.00000000       0.41216254      -0.29159010      -2.47965193
H        0.00000000       0.00000000       0.00000000      -0.04988763       0.28499031       2.18846369
H        0.00000000       0.00000000       0.00000000      -0.36173204      -0.33347735       0.20710486
O        0.00000000       0.00000000       0.00000000       0.64016825      -0.65908617      -0.94686395
H        0.00000000       0.00000000       0.00000000      -0.20083241       0.73926258       0.61405963
H        0.00000000       0.00000000       0.00000000      -0.32212469       0.02354497       0.12751742
H        0.00000000       0.00000000       0.00000000      -0.11775392       0.23635560       0.28937054
7
Lattice="529.1772105638412 0.0 0.0 0.0 529.1772105638412 0.0 0.0 0.0 529.1772105638412" Properties=species:S:1:pos:R:3:forces_component_raw:R:3 ipi_comment="Step:       15720  Bead:       0 forces_component_raw{ase}  cell{ase}" pbc="T T T"
O        0.00000000       0.00000000       0.00000000      -0.89187360       0.40710887      -2.84932852
H        0.00000000       0.00000000       0.00000000       0.62245298      -0.60028201       1.75902033
H        0.00000000       0.00000000       0.00000000       0.57832950       0.58491093       0.36331874
O        0.00000000       0.00000000       0.00000000      -1.60962212       1.09839583       2.05200768
H        0.00000000       0.00000000       0.00000000       0.65039742      -0.01679208      -0.84476358
H        0.00000000       0.00000000       0.00000000       0.38167799      -0.09388879      -0.23723897
H        0.00000000       0.00000000       0.00000000       0.26863775      -1.37945283      -0.24301571
7
Lattice="529.1772105638412 0.0 0.0 0.0 529.1772105638412 0.0 0.0 0.0 529.1772105638412" Properties=species:S:1:pos:R:3:forces_component_raw:R:3 ipi_comment="Step:       15740  Bead:       0 forces_component_raw{ase}  cell{ase}" pbc="T T T"
O        0.00000000       0.00000000       0.00000000      -1.51888097       0.78133059      -1.34993685
H        0.00000000       0.00000000       0.00000000       1.07881570      -0.60513425       0.34078145
H        0.00000000       0.00000000       0.00000000       0.60481191       0.45704070       0.17481354
O        0.00000000       0.00000000       0.00000000      -1.16873789       0.96526015       0.66766310
H        0.00000000       0.00000000       0.00000000       0.27011970      -0.01251164       0.36089447
H        0.00000000       0.00000000       0.00000000       0.26467678      -0.14273599      -0.56260109
H        0.00000000       0.00000000       0.00000000       0.46919474      -1.44324959       0.36838538
7
Lattice="529.1772105638412 0.0 0.0 0.0 529.1772105638412 0.0 0.0 0.0 529.1772105638412" Properties=species:S:1:pos:R:3:forces_component_raw:R:3 ipi_comment="Step:       15760  Bead:       0 forces_component_raw{ase}  cell{ase}" pbc="T T T"
O        0.00000000       0.00000000       0.00000000       0.09566537      -0.27729926       1.48997093
H        0.00000000       0.00000000       0.00000000      -0.18876153       0.04809354      -0.19567019
H        0.00000000       0.00000000       0.00000000       0.30146340       0.27498239      -0.60004175
O        0.00000000       0.00000000       0.00000000       0.03797582       1.02183378       0.27278093
H        0.00000000       0.00000000       0.00000000      -0.73325896       0.30001122      -0.58439386
H        0.00000000       0.00000000       0.00000000       0.19789812      -0.25628954      -0.78376132
H        0.00000000       0.00000000       0.00000000       0.28901777      -1.11133194       0.40111533
7
Lattice="529.1772105638412 0.0 0.0 0.0 529.1772105638412 0.0 0.0 0.0 529.1772105638412" Properties=species:S:1:pos:R:3:forces_component_raw:R:3 ipi_comment="Step:       15780  Bead:       0 forces_component_raw{ase}  cell{ase}" pbc="T T T"
O        0.00000000       0.00000000       0.00000000      -0.08379641      -0.12002518       0.50543213
H        0.00000000       0.00000000       0.00000000      -0.67182940       0.20616619      -0.96499765
H        0.00000000       0.00000000       0.00000000      -0.34187868      -0.52964145       0.61866319
O        0.00000000       0.00000000       0.00000000       0.59749341       1.30192805      -0.45292384
H        0.00000000       0.00000000       0.00000000       0.79396093      -0.57628918       0.77745652
H        0.00000000       0.00000000       0.00000000      -0.16288014      -0.33210448      -0.44194833
H        0.00000000       0.00000000       0.00000000      -0.13106969       0.04996598      -0.04168206
7
Lattice="529.1772105638412 0.0 0.0 0.0 529.1772105638412 0.0 0.0 0.0 529.1772105638412" Properties=species:S:1:pos:R:3:forces_component_raw:R:3 ipi_comment="Step:       15800  Bead:       0 forces_component_raw{ase}  cell{ase}" pbc="T T T"
O        0.00000000       0.00000000       0.00000000       0.50460363      -0.26626080       1.30654109
H        0.00000000       0.00000000       0.00000000      -0.19283944       0.23906100      -0.84455955
H        0.00000000       0.00000000       0.00000000      -0.38278300      -0.12121522      -0.20276256
O        0.00000000       0.00000000       0.00000000       1.03118420      -1.47517133       0.77286947
H        0.00000000       0.00000000       0.00000000       0.18191770       0.86869896      -0.97804314
H        0.00000000       0.00000000       0.00000000      -0.29986894      -0.18077818      -0.37170881
H        0.00000000       0.00000000       0.00000000      -0.84221399       0.93566561       0.31766358
7
Lattice="529.1772105638412 0.0 0.0 0.0 529.1772105638412 0.0 0.0 0.0 529.1772105638412" Properties=species:S:1:pos:R:3:forces_component_raw:R:3 ipi_comment="Step:       15820  Bead:       0 forces_component_raw{ase}  cell{ase}" pbc="T T T"
O        0.00000000       0.00000000       0.00000000       1.16015804       0.83173227      -0.45968682
H        0.00000000       0.00000000       0.00000000      -0.81540209      -0.31864050      -0.51569855
H        0.00000000       0.00000000       0.00000000      -0.42941922      -0.08566555       0.83530462
O        0.00000000       0.00000000       0.00000000      -0.08967641      -1.64810634      -0.12183452
H        0.00000000       0.00000000       0.00000000       0.13821855      -0.63509417       0.08865936
H        0.00000000       0.00000000       0.00000000       0.01534578       0.23222187       0.01596677
H        0.00000000       0.00000000       0.00000000       0.02077533       1.62355233       0.15728909
7
Lattice="529.1772105638412 0.0 0.0 0.0 529.1772105638412 0.0 0.0 0.0 529.1772105638412" Properties=species:S:1:pos:R:3:forces_component_raw:R:3 ipi_comment="Step:       15840  Bead:       0 forces_component_raw{ase}  cell{ase}" pbc="T T T"
O        0.00000000       0.00000000       0.00000000      -0.33888149      -0.64988685       0.76278013
H        0.00000000       0.00000000       0.00000000       0.37554005       0.26955751      -0.64268649
H        0.00000000       0.00000000       0.00000000       0.57001031       0.30723995      -0.52681273
O        0.00000000       0.00000000       0.00000000      -0.69317562      -2.02930260      -0.34538245
H        0.00000000       0.00000000       0.00000000      -0.42841017       0.59288651      -0.09072821
H        0.00000000       0.00000000       0.00000000      -0.09668773       0.21356547       0.48792297
H        0.00000000       0.00000000       0.00000000       0.61160469       1.29593993       0.35490683
7
Lattice="529.1772105638412 0.0 0.0 0.0 529.1772105638412 0.0 0.0 0.0 529.1772105638412" Properties=species:S:1:pos:R:3:forces_component_raw:R:3 ipi_comment="Step:       15860  Bead:       0 forces_component_raw{ase}  cell{ase}" pbc="T T T"
O        0.00000000       0.00000000       0.00000000      -0.89550489       0.04214835      -0.80965263
H        0.00000000       0.00000000       0.00000000      -0.54879606       0.11649422      -0.06652409
H        0.00000000       0.00000000       0.00000000       1.01842594       0.22587690       0.81972772
O        0.00000000       0.00000000       0.00000000      -0.96756494       0.30566859      -0.65598089
H        0.00000000       0.00000000       0.00000000       1.23108459      -0.59900451      -0.21686119
H        0.00000000       0.00000000       0.00000000      -0.14223713      -0.03962757       0.65352565
H        0.00000000       0.00000000       0.00000000       0.30459240      -0.05155599       0.27576572
7
Lattice="529.1772105638412 0.0 0.0 0.0 529.1772105638412 0.0 0.0 0.0 529.1772105638412" Properties=species:S:1:pos:R:3:forces_component_raw:R:3 ipi_comment="Step:       15880  Bead:       0 forces_component_raw{ase}  cell{ase}" pbc="T T T"
O        0.00000000       0.00000000       0.00000000      -0.53927451      -0.81979042      -0.26734373
H        0.00000000       0.00000000       0.00000000       0.15495199       0.03112309       0.65346843
H        0.00000000       0.00000000       0.00000000       1.16088379       0.75485063      -0.14833653
O        0.00000000       0.00000000       0.00000000       0.21659780      -0.43026477      -1.11750210
H        0.00000000       0.00000000       0.00000000      -0.98689527       0.29837099       0.20309131
H        0.00000000       0.00000000       0.00000000      -0.06040500       0.48339132       0.53902036
H        0.00000000       0.00000000       0.00000000       0.05414116      -0.31768078       0.13760221
7
Lattice="529.1772105638412 0.0 0.0 0.0 529.1772105638412 0.0 0.0 0.0 529.1772105638412" Properties=species:S:1:pos:R:3:forces_component_raw:R:3 ipi_comment="Step:       15900  Bead:       0 forces_component_raw{ase}  cell{ase}" pbc="T T T"
O        0.00000000       0.00000000       0.00000000      -0.02734417       0.09360546      -1.57664335
H        0.00000000       0.00000000       0.00000000      -0.46978015      -0.36671770       1.11473322
H        0.00000000       0.00000000       0.00000000       0.40600437       0.26695070       0.65431345
O        0.00000000       0.00000000       0.00000000       0.62624878       0.70067710      -0.25980735
H        0.00000000       0.00000000       0.00000000       0.21206480      -0.26850641      -0.31736967
H        0.00000000       0.00000000       0.00000000      -0.40512830      -0.20371592       0.37295532
H        0.00000000       0.00000000       0.00000000      -0.34206525      -0.22229332       0.01181826
7
Lattice="529.1772105638412 0.0 0.0 0.0 529.1772105638412 0.0 0.0 0.0 529.1772105638412" Properties=species:S:1:pos:R:3:forces_component_raw:R:3 ipi_comment="Step:       15920  Bead:       0 forces_component_raw{ase}  cell{ase}" pbc="T T T"
O        0.00000000       0.00000000       0.00000000      -1.29510880      -1.82662201      -0.72740632
H        0.00000000       0.00000000       0.00000000       0.46033764       0.84038371       0.62261105
H        0.00000000       0.00000000       0.00000000       0.24190353       0.29183346      -0.10217369
O        0.00000000       0.00000000       0.00000000       0.03861505       1.01283837      -0.09718621
H        0.00000000       0.00000000       0.00000000       0.67573816       0.09675241       0.69916868
H        0.00000000       0.00000000       0.00000000       0.06283830       0.08119586       0.06104517
H        0.00000000       0.00000000       0.00000000      -0.18432395      -0.49638188      -0.45605868
7
Lattice="529.1772105638412 0.0 0.0 0.0 529.1772105638412 0.0 0.0 0.0 529.1772105638412" Properties=species:S:1:pos:R:3:forces_component_raw:R:3 ipi_comment="Step:       15940  Bead:       0 forces_component_raw{ase}  cell{ase}" pbc="T T T"
O        0.00000000       0.00000000       0.00000000       0.49687699       1.07489896       0.67225266
H        0.00000000       0.00000000       0.00000000      -0.21993962      -0.71756900      -0.39161420
H        0.00000000       0.00000000       0.00000000      -0.02934839      -0.35747969       0.31270024
O        0.00000000       0.00000000       0.00000000       0.52527344       1.58329225       0.14390281
H        0.00000000       0.00000000       0.00000000      -0.70393312      -0.61636818      -0.48637393
H        0.00000000       0.00000000       0.00000000       0.00674134      -0.26191503      -0.10426188
H        0.00000000       0.00000000       0.00000000      -0.07567072      -0.70485932      -0.14660570
7
Lattice="529.1772105638412 0.0 0.0 0.0 529.1772105638412 0.0 0.0 0.0 529.1772105638412" Properties=species:S:1:pos:R:3:forces_component_raw:R:3 ipi_comment="Step:       15960  Bead:       0 forces_component_raw{ase}  cell{ase}" pbc="T T T"
O        0.00000000       0.00000000       0.00000000      -0.09977080      -0.13500086       2.28262163
H        0.00000000       0.00000000       0.00000000       0.09351648       0.24504390      -1.65203333
H        0.00000000       0.00000000       0.00000000      -0.01128535      -0.26049060      -0.52599621
O        0.00000000       0.00000000       0.00000000      -0.05247337      -1.00432110       0.18491270
H        0.00000000       0.00000000       0.00000000      -0.03840866       0.69854152      -0.00959620
H        0.00000000       0.00000000       0.00000000       0.10695824       0.40810466      -0.30281645
H        0.00000000       0.00000000       0.00000000       0.00146344       0.04812235       0.02290779
7
Lattice="529.1772105638412 0.0 0.0 0.0 529.1772105638412 0.0 0.0 0.0 529.1772105638412" Properties=species:S:1:pos:R:3:forces_component_raw:R:3 ipi_comment="Step:       15980  Bead:       0 forces_component_raw{ase}  cell{ase}" pbc="T T T"
O        0.00000000       0.00000000       0.00000000       0.17978627       1.24777568       1.34842789
H        0.00000000       0.00000000       0.00000000      -0.08312002      -0.49269459      -1.89260531
H        0.00000000       0.00000000       0.00000000      -0.18370993      -0.21755353       0.22576577
O        0.00000000       0.00000000       0.00000000       0.34436292      -0.60039723       0.27242664
H        0.00000000       0.00000000       0.00000000       0.55076397      -0.78839380       0.38922721
H        0.00000000       0.00000000       0.00000000       0.17897984      -0.14119226      -0.39274427
H        0.00000000       0.00000000       0.00000000      -0.98706305       0.99245584       0.04950213
7
Lattice="529.1772105638412 0.0 0.0 0.0 529.1772105638412 0.0 0.0 0.0 529.1772105638412" Properties=species:S:1:pos:R:3:forces_component_raw:R:3 ipi_comment="Step:       16000  Bead:       0 forces_component_raw{ase}  cell{ase}" pbc="T T T"
O        0.00000000       0.00000000       0.00000000       0.42570272      -0.67611635       1.18565798
H        0.00000000       0.00000000       0.00000000      -0.14397937      -0.05437359      -1.02780712
H        0.00000000       0.00000000       0.00000000      -0.12401316       0.57303393       0.02360106
O        0.00000000       0.00000000       0.00000000       2.09726048      -0.27795774       1.44441629
H        0.00000000       0.00000000       0.00000000      -0.94140578       0.25811622      -0.22559673
H        0.00000000       0.00000000       0.00000000       0.25338110       0.17227276      -1.04667139
H        0.00000000       0.00000000       0.00000000      -1.56694603       0.00502476      -0.35359997
7
Lattice="529.1772105638412 0.0 0.0 0.0 529.1772105638412 0.0 0.0 0.0 529.1772105638412" Properties=species:S:1:pos:R:3:forces_component_raw:R:3 ipi_comment="Step:       16020  Bead:       0 forces_component_raw{ase}  cell{ase}" pbc="T T T"
O        0.00000000       0.00000000       0.00000000      -0.55176586      -1.14537084      -1.05428207
H        0.00000000       0.00000000       0.00000000       0.43523043       0.14194483       0.45176688
H        0.00000000       0.00000000       0.00000000      -0.20771095       0.77774406       0.40734029
O        0.00000000       0.00000000       0.00000000      -0.45322168       0.37666011       1.44033027
H        0.00000000       0.00000000       0.00000000       1.10916329       0.03541607      -0.02949306
H        0.00000000       0.00000000       0.00000000       0.96396381      -0.95056725      -0.53641701
H        0.00000000       0.00000000       0.00000000      -1.29565883       0.76417297      -0.67924535
7
Lattice="529.1772105638412 0.0 0.0 0.0 529.1772105638412 0.0 0.0 0.0 529.1772105638412" Properties=species:S:1:pos:R:3:forces_component_raw:R:3 ipi_comment="Step:       16040  Bead:       0 forces_component_raw{ase}  cell{ase}" pbc="T T T"
O        0.00000000       0.00000000       0.00000000       0.71066046      -1.63611329      -1.34709716
H        0.00000000       0.00000000       0.00000000       0.17501763       0.41683632       0.81082684
H        0.00000000       0.00000000       0.00000000      -0.57345665       0.94009567       0.32456538
O        0.00000000       0.00000000       0.00000000       0.81410372      -0.17250970       1.20020914
H        0.00000000       0.00000000       0.00000000      -0.79425943       0.21662571       0.38813418
H        0.00000000       0.00000000       0.00000000       0.54737139      -0.00123930      -0.69484890
H        0.00000000       0.00000000       0.00000000      -0.87943709       0.23630467      -0.68178964
7
Lattice="529.1772105638412 0.0 0.0 0.0 529.1772105638412 0.0 0.0 0.0 529.1772105638412" Properties=species:S:1:pos:R:3:forces_component_raw:R:3 ipi_comment="Step:       16060  Bead:       0 forces_component_raw{ase}  cell{ase}" pbc="T T T"
O        0.00000000       0.00000000       0.00000000      -0.01533264       0.55793470      -0.85859680
H        0.00000000       0.00000000       0.00000000       0.20608823      -0.13265999       0.99349809
H        0.00000000       0.00000000       0.00000000      -0.00960386       0.36028823      -0.13587898
O        0.00000000       0.00000000       0.00000000      -0.70062083      -0.02657956       0.35960549
H        0.00000000       0.00000000       0.00000000      -0.37473932      -0.64832324      -0.17235692
H        0.00000000       0.00000000       0.00000000       0.55352372       0.09408507      -0.40975872
H        0.00000000       0.00000000       0.00000000       0.34068477      -0.20474511       0.22348791
7
Lattice="529.1772105638412 0.0 0.0 0.0 529.1772105638412 0.0 0.0 0.0 529.1772105638412" Properties=species:S:1:pos:R:3:forces_component_raw:R:3 ipi_comment="Step:       16080  Bead:       0 forces_component_raw{ase}  cell{ase}" pbc="T T T"
O        0.00000000       0.00000000       0.00000000      -1.02902556       0.10667321      -1.04692722
H        0.00000000       0.00000000       0.00000000       0.35634846       0.28787437       0.67503178
H        0.00000000       0.00000000       0.00000000       0.50698304      -0.59374058      -0.21053681
O        0.00000000       0.00000000       0.00000000      -1.51633203       0.70845676      -0.87963897
H        0.00000000       0.00000000       0.00000000       0.39309663       0.77862650       0.49035102
H        0.00000000       0.00000000       0.00000000      -0.35733610      -0.27294093       0.22388808
H        0.00000000       0.00000000       0.00000000       1.64626551      -1.01494932       0.74783194
7
Lattice="529.1772105638412 0.0 0.0 0.0 529.1772105638412 0.0 0.0 0.0 529.1772105638412" Properties=species:S:1:pos:R:3:forces_component_raw:R:3 ipi_comment="Step:       16100  Bead:       0 forces_component_raw{ase}  cell{ase}" pbc="T T T"
O        0.00000000       0.00000000       0.00000000      -0.65968102       2.68613506       0.89779496
H        0.00000000       0.00000000       0.00000000      -0.19473785      -0.14995733       0.32195115
H        0.00000000       0.00000000       0.00000000       0.94355321      -1.59875036      -1.16155947
O        0.00000000       0.00000000       0.00000000      -0.36161280       1.98867798      -0.90652359
H        0.00000000       0.00000000       0.00000000      -0.33476335      -0.91204155      -0.21626857
H        0.00000000       0.00000000       0.00000000      -1.51024390      -0.74342382       0.44669670
H        0.00000000       0.00000000       0.00000000       2.11748553      -1.27064014       0.61790884
7
Lattice="529.1772105638412 0.0 0.0 0.0 529.1772105638412 0.0 0.0 0.0 529.1772105638412" Properties=species:S:1:pos:R:3:forces_component_raw:R:3 ipi_comment="Step:       16120  Bead:       0 forces_component_raw{ase}  cell{ase}" pbc="T T T"
O        0.00000000       0.00000000       0.00000000      -0.33452055       1.44579065      -0.26525739
H        0.00000000       0.00000000       0.00000000      -0.09933890       0.03879152       0.27672482
H        0.00000000       0.00000000       0.00000000       0.30427045      -1.98885870      -0.18224208
O        0.00000000       0.00000000       0.00000000       0.29077798       0.94524467      -0.24608541
H        0.00000000       0.00000000       0.00000000       0.53002608       0.40550846       0.47850081
H        0.00000000       0.00000000       0.00000000      -1.20511079      -0.88736713       0.06604561
H        0.00000000       0.00000000       0.00000000       0.51389575       0.04089059      -0.12768631
7
Lattice="529.1772105638412 0.0 0.0 0.0 529.1772105638412 0.0 0.0 0.0 529.1772105638412" Properties=species:S:1:pos:R:3:forces_component_raw:R:3 ipi_comment="Step:       16140  Bead:       0 forces_component_raw{ase}  cell{ase}" pbc="T T T"
O        0.00000000       0.00000000       0.00000000      -0.06663272       1.06390167       0.12929705
H        0.00000000       0.00000000       0.00000000      -0.11253049       0.11034569       0.32397193
H        0.00000000       0.00000000       0.00000000       0.11468934      -1.35309673      -0.30248207
O        0.00000000       0.00000000       0.00000000       2.13135219       0.96297133      -0.22405413
H        0.00000000       0.00000000       0.00000000      -0.33819783       0.19137675      -0.15609627
H        0.00000000       0.00000000       0.00000000      -0.80470526      -0.84882361      -0.29540628
H        0.00000000       0.00000000       0.00000000      -0.92397511      -0.12667523       0.52476990
7
Lattice="529.1772105638412 0.0 0.0 0.0 529.1772105638412 0.0 0.0 0.0 529.1772105638412" Properties=species:S:1:pos:R:3:forces_component_raw:R:3 ipi_comment="Step:       16160  Bead:       0 forces_component_raw{ase}  cell{ase}" pbc="T T T"
O        0.00000000       0.00000000       0.00000000      -0.18636613      -0.20938599       0.20836532
H        0.00000000       0.00000000       0.00000000      -0.07819407       0.06372903       0.39590865
H        0.00000000       0.00000000       0.00000000       0.02641210       0.20912516      -0.10654330
O        0.00000000       0.00000000       0.00000000       2.12885905       0.32258734      -1.03334892
H        0.00000000       0.00000000       0.00000000       0.38408482      -0.68724775      -0.27464253
H        0.00000000       0.00000000       0.00000000      -0.27201474      -0.28881991       0.01929974
H        0.00000000       0.00000000       0.00000000      -2.00278092       0.59001207       0.79096097
7
Lattice="529.1772105638412 0.0 0.0 0.0 529.1772105638412 0.0 0.0 0.0 529.1772105638412" Properties=species:S:1:pos:R:3:forces_component_raw:R:3 ipi_comment="Step:       16180  Bead:       0 forces_component_raw{ase}  cell{ase}" pbc="T T T"
O        0.00000000       0.00000000       0.00000000       0.01886506      -0.73091287      -1.05669773
H        0.00000000       0.00000000       0.00000000      -0.10864756      -0.15220204       0.17179298
H        0.00000000       0.00000000       0.00000000       0.10107823       0.86148679       0.67186415
O        0.00000000       0.00000000       0.00000000       2.17034793      -2.59612156       0.28940880
H        0.00000000       0.00000000       0.00000000      -0.14478889       0.77720243      -0.30346841
H        0.00000000       0.00000000       0.00000000       0.36461172       0.58459473       0.15786657
H        0.00000000       0.00000000       0.00000000      -2.40146685       1.25595260       0.06923372
7
Lattice="529.1772105638412 0.0 0.0 0.0 529.1772105638412 0.0 0.0 0.0 529.1772105638412" Properties=species:S:1:pos:R:3:forces_component_raw:R:3 ipi_comment="Step:       16200  Bead:       0 forces_component_raw{ase}  cell{ase}" pbc="T T T"
O        0.00000000       0.00000000       0.00000000      -0.56056589      -1.47351051       0.18975937
H        0.00000000       0.00000000       0.00000000       0.22983056       0.09285992      -0.43852276
H        0.00000000       0.00000000       0.00000000       0.50194907       1.65664602       0.45221478
O        0.00000000       0.00000000       0.00000000       1.27887488      -1.35265863       0.55031306
H        0.00000000       0.00000000       0.00000000      -0.36846799      -0.58133221      -0.15152660
H        0.00000000       0.00000000       0.00000000       1.41317582       0.89503515       0.28653666
H        0.00000000       0.00000000       0.00000000      -2.49479676       0.76296020      -0.88877452
7
Lattice="529.1772105638412 0.0 0.0 0.0 529.1772105638412 0.0 0.0 0.0 529.1772105638412" Properties=species:S:1:pos:R:3:forces_component_raw:R:3 ipi_comment="Step:       16220  Bead:       0 forces_component_raw{ase}  cell{ase}" pbc="T T T"
O        0.00000000       0.00000000       0.00000000      -0.74566317      -0.97499716       0.72518116
H        0.00000000       0.00000000       0.00000000       0.28501102       0.15708226      -1.53180147
H        0.00000000       0.00000000       0.00000000       0.38498068       0.53065884       0.40372992
O        0.00000000       0.00000000       0.00000000      -1.05309224      -2.06670762       0.62115240
H        0.00000000       0.00000000       0.00000000       0.35435167       0.40618119       0.65026367
H        0.00000000       0.00000000       0.00000000       1.30740416       1.30430007      -0.13630581
H        0.00000000       0.00000000       0.00000000      -0.53299219       0.64348245      -0.73221994
7
Lattice="529.1772105638412 0.0 0.0 0.0 529.1772105638412 0.0 0.0 0.0 529.1772105638412" Properties=species:S:1:pos:R:3:forces_component_raw:R:3 ipi_comment="Step:       16240  Bead:       0 forces_component_raw{ase}  cell{ase}" pbc="T T T"
O        0.00000000       0.00000000       0.00000000       0.21856155       0.16044676       2.32883168
H        0.00000000       0.00000000       0.00000000       0.32342169      -0.19109125      -1.44204295
H        0.00000000       0.00000000       0.00000000      -0.25696084       0.34244865      -0.33063340
O        0.00000000       0.00000000       0.00000000      -1.43877828      -0.27302569      -0.58534074
H        0.00000000       0.00000000       0.00000000      -0.42760742      -0.38622207      -0.70481193
H        0.00000000       0.00000000       0.00000000       0.73031205       0.55120951      -0.19247896
H        0.00000000       0.00000000       0.00000000       0.85105133      -0.20376591       0.92647654
7
Lattice="529.1772105638412 0.0 0.0 0.0 529.1772105638412 0.0 0.0 0.0 529.1772105638412" Properties=species:S:1:pos:R:3:forces_component_raw:R:3 ipi_comment="Step:       16260  Bead:       0 forces_component_raw{ase}  cell{ase}" pbc="T T T"
O        0.00000000       0.00000000       0.00000000       0.25676173       0.60109276       1.20862782
H        0.00000000       0.00000000       0.00000000       0.12395045       0.14942442      -1.52699435
H        0.00000000       0.00000000       0.00000000      -0.57363010      -0.78567779      -0.26789665
O        0.00000000       0.00000000       0.00000000      -1.64785779      -0.04912549      -1.46023584
H        0.00000000       0.00000000       0.00000000       0.54715413       0.28692979       0.61838949
H        0.00000000       0.00000000       0.00000000      -0.33913791      -0.36693996       0.12553750
H        0.00000000       0.00000000       0.00000000       1.63275946       0.16429633       1.30257201
7
Lattice="529.1772105638412 0.0 0.0 0.0 529.1772105638412 0.0 0.0 0.0 529.1772105638412" Properties=species:S:1:pos:R:3:forces_component_raw:R:3 ipi_comment="Step:       16280  Bead:       0 forces_component_raw{ase}  cell{ase}" pbc="T T T"
O        0.00000000       0.00000000       0.00000000       0.70079369       0.85506052       1.54730344
H        0.00000000       0.00000000       0.00000000      -0.02953710      -0.37948009      -1.21732533
H        0.00000000       0.00000000       0.00000000      -0.49180490      -0.37038151      -0.01492766
O        0.00000000       0.00000000       0.00000000      -0.16528702       1.18300462      -1.80378926
H        0.00000000       0.00000000       0.00000000      -0.43859166      -0.41280043      -0.89713562
H        0.00000000       0.00000000       0.00000000      -1.50851536      -0.69305980       0.95640427
H        0.00000000       0.00000000       0.00000000       1.93294239      -0.18234320       1.42947018
7
Lattice="529.1772105638412 0.0 0.0 0.0 529.1772105638412 0.0 0.0 0.0 529.1772105638412" Properties=species:S:1:pos:R:3:forces_component_raw:R:3 ipi_comment="Step:       16300  Bead:       0 forces_component_raw{ase}  cell{ase}" pbc="T T T"
O        0.00000000       0.00000000       0.00000000      -0.34052324      -1.07109308       0.16125372
H        0.00000000       0.00000000       0.00000000       0.01937258       0.56396258      -0.35284504
H        0.00000000       0.00000000       0.00000000       0.11478820      -0.10167772      -0.14263383
O        0.00000000       0.00000000       0.00000000      -0.97555769       0.23548025      -1.63234783
H        0.00000000       0.00000000       0.00000000       0.78240895       0.71177340       0.49678853
H        0.00000000       0.00000000       0.00000000      -1.01463664      -0.58112049       0.76986665
H        0.00000000       0.00000000       0.00000000       1.41414786       0.24267513       0.69991785
7
Lattice="529.1772105638412 0.0 0.0 0.0 529.1772105638412 0.0 0.0 0.0 529.1772105638412" Properties=species:S:1:pos:R:3:forces_component_raw:R:3 ipi_comment="Step:       16320  Bead:       0 forces_component_raw{ase}  cell{ase}" pbc="T T T"
O        0.00000000       0.00000000       0.00000000       0.42538267       0.52441377      -0.11087635
H        0.00000000       0.00000000       0.00000000       0.13443813      -0.44028160       0.58844102
H        0.00000000       0.00000000       0.00000000      -0.13909009      -0.25592399       0.12477502
O        0.00000000       0.00000000       0.00000000       0.39417860       0.80795735      -0.79116821
H        0.00000000       0.00000000       0.00000000      -0.86075235      -0.46908409      -0.44093523
H        0.00000000       0.00000000       0.00000000      -0.66462946       0.00929499       0.30384970
H        0.00000000       0.00000000       0.00000000       0.71047253      -0.17637645       0.32591412
7
Lattice="529.1772105638412 0.0 0.0 0.0 529.1772105638412 0.0 0.0 0.0 529.1772105638412" Properties=species:S:1:pos:R:3:forces_component_raw:R:3 ipi_comment="Step:       16340  Bead:       0 forces_component_raw{ase}  cell{ase}" pbc="T T T"
O        0.00000000       0.00000000       0.00000000      -0.48802939      -0.79822046      -0.69930434
H        0.00000000       0.00000000       0.00000000       0.28072417       0.18491210       0.95937509
H        0.00000000       0.00000000       0.00000000       0.08618558       0.22109687      -0.07723409
O        0.00000000       0.00000000       0.00000000      -1.32978607      -0.05821168      -0.22252193
H        0.00000000       0.00000000       0.00000000       0.81396574       0.40842763      -0.11714507
H        0.00000000       0.00000000       0.00000000       0.50018931      -0.14072564       0.06148274
H        0.00000000       0.00000000       0.00000000       0.13675058       0.18272129       0.09534763
7
Lattice="529.1772105638412 0.0 0.0 0.0 529.1772105638412 0.0 0.0 0.0 529.1772105638412" Properties=species:S:1:pos:R:3:forces_component_raw:R:3 ipi_comment="Step:       16360  Bead:       0 forces_component_raw{ase}  cell{ase}" pbc="T T T"
O        0.00000000       0.00000000       0.00000000      -0.33808914       0.46258301      -1.17797244
H        0.00000000       0.00000000       0.00000000       0.28679973      -0.16452806       1.14982116
H        0.00000000       0.00000000       0.00000000       0.00255408       0.30298641      -0.12805492
O        0.00000000       0.00000000       0.00000000       1.15963733      -1.14437115       1.09798932
H        0.00000000       0.00000000       0.00000000      -0.35556138      -0.24046701       0.09066474
H        0.00000000       0.00000000       0.00000000       0.29600987       0.56616652      -0.48407722
H        0.00000000       0.00000000       0.00000000      -1.05135060       0.21763037      -0.54837072
7
Lattice="529.1772105638412 0.0 0.0 0.0 529.1772105638412 0.0 0.0 0.0 529.1772105638412" Properties=species:S:1:pos:R:3:forces_component_raw:R:3 ipi_comment="Step:       16380  Bead:       0 forces_component_raw{ase}  cell{ase}" pbc="T T T"
O        0.00000000       0.00000000       0.00000000       0.03102866       1.35732675      -0.84921575
H        0.00000000       0.00000000       0.00000000      -0.09469102      -0.59750903       0.76956523
H        0.00000000       0.00000000       0.00000000      -0.17340562      -0.25479552       0.04423612
O        0.00000000       0.00000000       0.00000000       0.49244452      -1.29900015       1.30509877
H        0.00000000       0.00000000       0.00000000       0.26326120       0.13153607      -0.26086158
H        0.00000000       0.00000000       0.00000000       1.47863365       0.55145049      -0.42100343
H        0.00000000       0.00000000       0.00000000      -1.99727130       0.11099137      -0.58781928
7
Lattice="529.1772105638412 0.0 0.0 0.0 529.1772105638412 0.0 0.0 0.0 529.1772105638412" Properties=species:S:1:pos:R:3:forces_component_raw:R:3 ipi_comment="Step:       16400  Bead:       0 forces_component_raw{ase}  cell{ase}" pbc="T T T"
O        0.00000000       0.00000000       0.00000000      -0.17579433      -0.63069964       0.07659987
H        0.00000000       0.00000000       0.00000000      -0.00253108       0.75830198      -0.18254453
H        0.00000000       0.00000000       0.00000000       0.25562427       0.15906024      -0.45715547
O        0.00000000       0.00000000       0.00000000       0.64091343      -0.96010709       2.03105975
H        0.00000000       0.00000000       0.00000000      -0.10122177      -0.25167468       0.69350159
H        0.00000000       0.00000000       0.00000000       0.75395948       0.76020932      -1.00871623
H        0.00000000       0.00000000       0.00000000      -1.37094999       0.16490984      -1.15274477
7
Lattice="529.1772105638412 0.0 0.0 0.0 529.1772105638412 0.0 0.0 0.0 529.1772105638412" Properties=species:S:1:pos:R:3:forces_component_raw:R:3 ipi_comment="Step:       16420  Bead:       0 forces_component_raw{ase}  cell{ase}" pbc="T T T"
O        0.00000000       0.00000000       0.00000000      -0.85247636       0.16052616       1.59656918
H        0.00000000       0.00000000       0.00000000       1.11224115      -0.08767636      -1.15347350
H        0.00000000       0.00000000       0.00000000      -0.35305205      -0.31763592       0.09518749
O        0.00000000       0.00000000       0.00000000      -0.59822643       0.15349010       0.36648119
H        0.00000000       0.00000000       0.00000000       0.48174566      -0.23865117      -0.44705150
H        0.00000000       0.00000000       0.00000000       0.80651367       0.48467797      -0.36156941
H        0.00000000       0.00000000       0.00000000      -0.59674573      -0.15473059      -0.09614348
7
Lattice="529.1772105638412 0.0 0.0 0.0 529.1772105638412 0.0 0.0 0.0 529.1772105638412" Properties=species:S:1:pos:R:3:forces_component_raw:R:3 ipi_comment="Step:       16440  Bead:       0 forces_component_raw{ase}  cell{ase}" pbc="T T T"
O        0.00000000       0.00000000       0.00000000      -0.95293689      -1.36752630       1.22348464
H        0.00000000       0.00000000       0.00000000       1.00448227       1.07831955      -1.22589839
H        0.00000000       0.00000000       0.00000000       0.24340779       0.11997417      -0.11002550
O        0.00000000       0.00000000       0.00000000      -0.73920500      -0.82353181       0.03134122
H        0.00000000       0.00000000       0.00000000      -0.51244807       0.38174504       0.10830867
H        0.00000000       0.00000000       0.00000000       0.19723922       0.47914708      -0.41693634
H        0.00000000       0.00000000       0.00000000       0.75946063       0.13187216       0.38972551
7
Lattice="529.1772105638412 0.0 0.0 0.0 529.1772105638412 0.0 0.0 0.0 529.1772105638412" Properties=species:S:1:pos:R:3:forces_component_raw:R:3 ipi_comment="Step:       16460  Bead:       0 forces_component_raw{ase}  cell{ase}" pbc="T T T"
O        0.00000000       0.00000000       0.00000000      -0.79985011       0.76361942      -0.37232429
H        0.00000000       0.00000000       0.00000000       0.83736253      -0.09588307      -0.40766716
H        0.00000000       0.00000000       0.00000000      -0.45531133      -0.11796477       0.41816491
O        0.00000000       0.00000000       0.00000000      -1.36229432      -0.02180833      -1.12691236
H        0.00000000       0.00000000       0.00000000       0.49446511      -0.34153915       0.15920299
H        0.00000000       0.00000000       0.00000000       0.00949186      -0.25393337       0.32565910
H        0.00000000       0.00000000       0.00000000       1.27613616       0.06750938       1.00387681
7
Lattice="529.1772105638412 0.0 0.0 0.0 529.1772105638412 0.0 0.0 0.0 529.1772105638412" Properties=species:S:1:pos:R:3:forces_component_raw:R:3 ipi_comment="Step:       16480  Bead:       0 forces_component_raw{ase}  cell{ase}" pbc="T T T"
O        0.00000000       0.00000000       0.00000000       0.17326072      -0.06938201       0.17386432
H        0.00000000       0.00000000       0.00000000      -0.47650468       0.08818686       0.01346964
H        0.00000000       0.00000000       0.00000000       0.00297147       0.54146123      -0.44869930
O        0.00000000       0.00000000       0.00000000       1.27519369      -0.21556562      -0.04807004
H        0.00000000       0.00000000       0.00000000      -0.44960117       0.21470371      -0.43254450
H        0.00000000       0.00000000       0.00000000      -1.21962977      -0.64957446       0.48487708
H        0.00000000       0.00000000       0.00000000       0.69430965       0.09017029       0.25710282
7
Lattice="529.1772105638412 0.0 0.0 0.0 529.1772105638412 0.0 0.0 0.0 529.1772105638412" Properties=species:S:1:pos:R:3:forces_component_raw:R:3 ipi_comment="Step:       16500  Bead:       0 forces_component_raw{ase}  cell{ase}" pbc="T T T"
O        0.00000000       0.00000000       0.00000000      -0.95027244       1.12395156      -0.95099586
H        0.00000000       0.00000000       0.00000000       0.37312618      -0.62475699       0.51276922
H        0.00000000       0.00000000       0.00000000       0.38725403      -0.33689272       0.34812254
O        0.00000000       0.00000000       0.00000000       0.87278617       0.65509880      -0.81262785
H        0.00000000       0.00000000       0.00000000       0.27563942      -0.16538963       0.19320396
H        0.00000000       0.00000000       0.00000000      -0.98921603      -0.74311584       0.65728551
H        0.00000000       0.00000000       0.00000000       0.03068268       0.09110484       0.05224240
7
Lattice="529.1772105638412 0.0 0.0 0.0 529.1772105638412 0.0 0.0 0.0 529.1772105638412" Properties=species:S:1:pos:R:3:forces_component_raw:R:3 ipi_comment="Step:       16520  Bead:       0 forces_component_raw{ase}  cell{ase}" pbc="T T T"
O        0.00000000       0.00000000       0.00000000      -0.21810673      -0.69041294       0.42944580
H        0.00000000       0.00000000       0.00000000      -0.45524278      -0.08533537      -0.21377757
H        0.00000000       0.00000000       0.00000000       1.21819139       0.40783939       0.15509756
O        0.00000000       0.00000000       0.00000000       0.67766845       0.57827473      -0.32869151
H        0.00000000       0.00000000       0.00000000      -0.53669644      -0.06524564       0.09671606
H        0.00000000       0.00000000       0.00000000      -0.70592410      -0.40858430       0.15492785
H        0.00000000       0.00000000       0.00000000       0.02011019       0.26346421      -0.29371825
7
Lattice="529.1772105638412 0.0 0.0 0.0 529.1772105638412 0.0 0.0 0.0 529.1772105638412" Properties=species:S:1:pos:R:3:forces_component_raw:R:3 ipi_comment="Step:       16540  Bead:       0 forces_component_raw{ase}  cell{ase}" pbc="T T T"
O        0.00000000       0.00000000       0.00000000      -1.04015959      -0.35297003      -0.93547327
H        0.00000000       0.00000000       0.00000000       0.45525682       0.03958535       0.29355156
H        0.00000000       0.00000000       0.00000000       0.68593109      -0.06303236       1.03816641
O        0.00000000       0.00000000       0.00000000      -0.25137672       0.64814347      -0.32568932
H        0.00000000       0.00000000       0.00000000       0.27798164       0.14211631      -0.28092963
H        0.00000000       0.00000000       0.00000000      -0.20634520      -0.45729947       0.22082304
H        0.00000000       0.00000000       0.00000000       0.07871187       0.04345666      -0.01044878
7
Lattice="529.1772105638412 0.0 0.0 0.0 529.1772105638412 0.0 0.0 0.0 529.1772105638412" Properties=species:S:1:pos:R:3:forces_component_raw:R:3 ipi_comment="Step:       16560  Bead:       0 forces_component_raw{ase}  cell{ase}" pbc="T T T"
O        0.00000000       0.00000000       0.00000000      -1.10426820      -1.78623701       0.67730945
H        0.00000000       0.00000000       0.00000000       0.72842169       0.50922757      -0.64515281
H        0.00000000       0.00000000       0.00000000       0.43985128       0.49118289       0.16864455
O        0.00000000       0.00000000       0.00000000      -0.09648979       0.52077413      -0.96230650
H        0.00000000       0.00000000       0.00000000      -0.05635537       0.15791562       0.16701984
H        0.00000000       0.00000000       0.00000000      -0.04354368       0.21991998      -0.03990415
H        0.00000000       0.00000000       0.00000000       0.13238418      -0.11278349       0.63438964
7
Lattice="529.1772105638412 0.0 0.0 0.0 529.1772105638412 0.0 0.0 0.0 529.1772105638412" Properties=species:S:1:pos:R:3:forces_component_raw:R:3 ipi_comment="Step:       16580  Bead:       0 forces_component_raw{ase}  cell{ase}" pbc="T T T"
O        0.00000000       0.00000000       0.00000000      -0.05593380       0.38861352      -0.56927788
H        0.00000000       0.00000000       0.00000000       0.41129422       0.33008269       0.04942205
H        0.00000000       0.00000000       0.00000000      -0.40104911      -0.20081385       0.00040048
O        0.00000000       0.00000000       0.00000000      -0.17761964      -0.20437139      -0.79678345
H        0.00000000       0.00000000       0.00000000       0.00079133      -0.64267224       0.47492337
H        0.00000000       0.00000000       0.00000000      -0.17123811      -0.08882731      -0.18164855
H        0.00000000       0.00000000       0.00000000       0.39375505       0.41798854       1.02296424
7
Lattice="529.1772105638412 0.0 0.0 0.0 529.1772105638412 0.0 0.0 0.0 529.1772105638412" Properties=species:S:1:pos:R:3:forces_component_raw:R:3 ipi_comment="Step:       16600  Bead:       0 forces_component_raw{ase}  cell{ase}" pbc="T T T"
O        0.00000000       0.00000000       0.00000000       0.36003339      -0.01903033       1.50257898
H        0.00000000       0.00000000       0.00000000      -0.07283932       0.14812180      -0.42255309
H        0.00000000       0.00000000       0.00000000      -0.50574994      -0.07017715      -1.13656056
O        0.00000000       0.00000000       0.00000000      -0.52537841      -1.67055631      -0.69124937
H        0.00000000       0.00000000       0.00000000       0.36887837       0.54121137      -0.22220850
H        0.00000000       0.00000000       0.00000000       0.13880539       0.44539130      -0.10574114
H        0.00000000       0.00000000       0.00000000       0.23625058       0.62503934       1.07573378
7
Lattice="529.1772105638412 0.0 0.0 0.0 529.1772105638412 0.0 0.0 0.0 529.1772105638412" Properties=species:S:1:pos:R:3:forces_component_raw:R:3 ipi_comment="Step:       16620  Bead:       0 forces_component_raw{ase}  cell{ase}" pbc="T T T"
O        0.00000000       0.00000000       0.00000000       2.26575804       1.50332833       0.97501499
H        0.00000000       0.00000000       0.00000000      -0.48188934      -0.33716291       0.39580804
H        0.00000000       0.00000000       0.00000000      -1.64586759      -0.51574886      -1.51039756
O        0.00000000       0.00000000       0.00000000       0.15069145       0.00504857      -0.46501672
H        0.00000000       0.00000000       0.00000000      -0.17411964      -0.43919438      -0.16735460
H        0.00000000       0.00000000       0.00000000      -0.04514278      -0.17615616       0.28189015
H        0.00000000       0.00000000       0.00000000      -0.06943029      -0.04011446       0.49005559
7
Lattice="529.1772105638412 0.0 0.0 0.0 529.1772105638412 0.0 0.0 0.0 529.1772105638412" Properties=species:S:1:pos:R:3:forces_component_raw:R:3 ipi_comment="Step:       16640  Bead:       0 forces_component_raw{ase}  cell{ase}" pbc="T T T"
O        0.00000000       0.00000000       0.00000000       1.13281441      -0.09000765       1.60793090
H        0.00000000       0.00000000       0.00000000      -0.56510151      -0.56077075      -0.01682663
H        0.00000000       0.00000000       0.00000000      -0.86638802       0.13889790      -1.18984759
O        0.00000000       0.00000000       0.00000000      -0.77595210      -0.19666243       0.97863990
H        0.00000000       0.00000000       0.00000000       0.67035169       0.29487473       0.03921172
H        0.00000000       0.00000000       0.00000000       0.24301581       0.19721484      -0.43498823
H        0.00000000       0.00000000       0.00000000       0.16125965       0.21645328      -0.98412013
7
Lattice="529.1772105638412 0.0 0.0 0.0 529.1772105638412 0.0 0.0 0.0 529.1772105638412" Properties=species:S:1:pos:R:3:forces_component_raw:R:3 ipi_comment="Step:       16660  Bead:       0 forces_component_raw{ase}  cell{ase}" pbc="T T T"
O        0.00000000       0.00000000       0.00000000       0.43437788       0.66317129      -0.25524721
H        0.00000000       0.00000000       0.00000000      -0.00756739      -0.89249921       0.64595741
H        0.00000000       0.00000000       0.00000000       0.04166889      -0.28481022       0.21679845
O        0.00000000       0.00000000       0.00000000       0.15245101       1.93042422      -0.20173115
H        0.00000000       0.00000000       0.00000000      -0.63643199      -0.55471003       0.39565846
H        0.00000000       0.00000000       0.00000000      -0.10346729       0.12810373       0.13278681
H        0.00000000       0.00000000       0.00000000       0.11896893      -0.98967982      -0.93422270
7
Lattice="529.1772105638412 0.0 0.0 0.0 529.1772105638412 0.0 0.0 0.0 529.1772105638412" Properties=species:S:1:pos:R:3:forces_component_raw:R:3 ipi_comment="Step:       16680  Bead:       0 forces_component_raw{ase}  cell{ase}" pbc="T T T"
O        0.00000000       0.00000000       0.00000000      -0.57034654       0.00811664      -0.27572244
H        0.00000000       0.00000000       0.00000000      -0.26506335      -0.85960984       0.31496841
H        0.00000000       0.00000000       0.00000000       0.85287786       0.43100911       0.15551576
O        0.00000000       0.00000000       0.00000000      -0.76197070       0.15975660       1.31575752
H        0.00000000       0.00000000       0.00000000      -0.09744287       1.02213109      -0.46492833
H        0.00000000       0.00000000       0.00000000       0.22051394      -0.01008296       0.20967761
H        0.00000000       0.00000000       0.00000000       0.62143183      -0.75132048      -1.25526834
7
Lattice="529.1772105638412 0.0 0.0 0.0 529.1772105638412 0.0 0.0 0.0 529.1772105638412" Properties=species:S:1:pos:R:3:forces_component_raw:R:3 ipi_comment="Step:       16700  Bead:       0 forces_component_raw{ase}  cell{ase}" pbc="T T T"
O        0.00000000       0.00000000       0.00000000      -0.77541757      -0.22480330      -0.03911549
H        0.00000000       0.00000000       0.00000000      -0.35544503      -0.61150241       0.27774274
H        0.00000000       0.00000000       0.00000000       1.26192844       0.38204336       0.57517475
O        0.00000000       0.00000000       0.00000000      -1.01391089       1.76834846       0.42461687
H        0.00000000       0.00000000       0.00000000       0.10991335      -0.56597704      -0.34303349
H        0.00000000       0.00000000       0.00000000       0.19516455       0.42021203      -0.00751883
H        0.00000000       0.00000000       0.00000000       0.57776702      -1.16832102      -0.88786662
7
Lattice="529.1772105638412 0.0 0.0 0.0 529.1772105638412 0.0 0.0 0.0 529.1772105638412" Properties=species:S:1:pos:R:3:forces_component_raw:R:3 ipi_comment="Step:       16720  Bead:       0 forces_component_raw{ase}  cell{ase}" pbc="T T T"
O        0.00000000       0.00000000       0.00000000      -1.11492300      -0.53766316      -0.80534780
H        0.00000000       0.00000000       0.00000000       0.11091369       0.44474724      -0.09047284
H        0.00000000       0.00000000       0.00000000       0.95793992       0.16763097       0.64778769
O        0.00000000       0.00000000       0.00000000      -0.56183767      -0.44732380       1.18792081
H        0.00000000       0.00000000       0.00000000       0.18015885      -0.03042746       0.47683114
H        0.00000000       0.00000000       0.00000000       0.33091605       0.46581566      -0.18093774
H        0.00000000       0.00000000       0.00000000       0.09683232      -0.06277940      -1.23578120
7
Lattice="529.1772105638412 0.0 0.0 0.0 529.1772105638412 0.0 0.0 0.0 529.1772105638412" Properties=species:S:1:pos:R:3:forces_component_raw:R:3 ipi_comment="Step:       16740  Bead:       0 forces_component_raw{ase}  cell{ase}" pbc="T T T"
O        0.00000000       0.00000000       0.00000000      -1.51457453      -0.09657815      -0.71890855
H        0.00000000       0.00000000       0.00000000       0.89958030       0.92470855      -0.10303418
H        0.00000000       0.00000000       0.00000000       0.65239477      -0.59739196       0.68087614
O        0.00000000       0.00000000       0.00000000      -0.27377066      -1.90352309       0.00536752
H        0.00000000       0.00000000       0.00000000      -0.05497780       0.63594806      -0.52537477
H        0.00000000       0.00000000       0.00000000       0.45150280       0.95879948       0.49223542
H        0.00000000       0.00000000       0.00000000      -0.16015485       0.07803708       0.16883850
7
Lattice="529.1772105638412 0.0 0.0 0.0 529.1772105638412 0.0 0.0 0.0 529.1772105638412" Properties=species:S:1:pos:R:3:forces_component_raw:R:3 ipi_comment="Step:       16760  Bead:       0 forces_component_raw{ase}  cell{ase}" pbc="T T T"
O        0.00000000       0.00000000       0.00000000      -0.69191146       0.43828282      -0.63371211
H        0.00000000       0.00000000       0.00000000      -0.08842701       0.15765616      -0.26413846
H        0.00000000       0.00000000       0.00000000       0.52039242       0.04899995      -0.04407257
O        0.00000000       0.00000000       0.00000000      -0.72828674      -1.54466367      -0.36536920
H        0.00000000       0.00000000       0.00000000       0.24026252      -0.60014546       0.31997532
H        0.00000000       0.00000000       0.00000000       0.08089750       0.64229149      -0.39033401
H        0.00000000       0.00000000       0.00000000       0.66707289       0.85757870       1.37765122
7
Lattice="529.1772105638412 0.0 0.0 0.0 529.1772105638412 0.0 0.0 0.0 529.1772105638412" Properties=species:S:1:pos:R:3:forces_component_raw:R:3 ipi_comment="Step:       16780  Bead:       0 forces_component_raw{ase}  cell{ase}" pbc="T T T"
O        0.00000000       0.00000000       0.00000000       1.73371506      -0.09276657      -0.48871485
H        0.00000000       0.00000000       0.00000000      -0.83181149      -0.47478587       0.35528213
H        0.00000000       0.00000000       0.00000000      -0.72541201       0.39987156      -0.15858761
O        0.00000000       0.00000000       0.00000000      -0.53803009      -0.14700019      -1.09164489
H        0.00000000       0.00000000       0.00000000      -0.31356511       0.46381441      -0.00325884
H        0.00000000       0.00000000       0.00000000      -0.05890870      -0.69920451       0.39330688
H        0.00000000       0.00000000       0.00000000       0.73401219       0.55007106       0.99361724
7
Lattice="529.1772105638412 0.0 0.0 0.0 529.1772105638412 0.0 0.0 0.0 529.1772105638412" Properties=species:S:1:pos:R:3:forces_component_raw:R:3 ipi_comment="Step:       16800  Bead:       0 forces_component_raw{ase}  cell{ase}" pbc="T T T"
O        0.00000000       0.00000000       0.00000000       1.11316931      -0.07112874      -0.58145410
H        0.00000000       0.00000000       0.00000000      -0.36980563      -0.56945658       1.01500607
H        0.00000000       0.00000000       0.00000000      -1.12152684       0.50582343      -0.20829237
O        0.00000000       0.00000000       0.00000000       0.68754637       2.52829934      -0.07542509
H        0.00000000       0.00000000       0.00000000       0.41444063       0.07791261      -0.42660987
H        0.00000000       0.00000000       0.00000000      -0.34671277      -2.04904819       0.67341966
H        0.00000000       0.00000000       0.00000000      -0.37711078      -0.42240203      -0.39664453
7
Lattice="529.1772105638412 0.0 0.0 0.0 529.1772105638412 0.0 0.0 0.0 529.1772105638412" Properties=species:S:1:pos:R:3:forces_component_raw:R:3 ipi_comment="Step:       16820  Bead:       0 forces_component_raw{ase}  cell{ase}" pbc="T T T"
O        0.00000000       0.00000000       0.00000000       1.81262613      -0.87554133       0.07470673
H        0.00000000       0.00000000       0.00000000      -0.53030646      -0.03217003       0.85768813
H        0.00000000       0.00000000       0.00000000      -0.84479064       0.53048438      -0.10462908
O        0.00000000       0.00000000       0.00000000       0.49531970       2.64746786      -0.97904271
H        0.00000000       0.00000000       0.00000000      -0.64133901      -0.00374603       0.15867676
H        0.00000000       0.00000000       0.00000000       0.23019300      -1.53780890       0.41873777
H        0.00000000       0.00000000       0.00000000      -0.52170253      -0.72868598      -0.42613775
7
Lattice="529.1772105638412 0.0 0.0 0.0 529.1772105638412 0.0 0.0 0.0 529.1772105638412" Properties=species:S:1:pos:R:3:forces_component_raw:R:3 ipi_comment="Step:       16840  Bead:       0 forces_component_raw{ase}  cell{ase}" pbc="T T T"
O        0.00000000       0.00000000       0.00000000      -1.01913452       0.62702006      -0.13059562
H        0.00000000       0.00000000       0.00000000       0.15422593      -0.03935298       0.26435691
H        0.00000000       0.00000000       0.00000000       0.59999734      -0.47982884      -0.01177351
O        0.00000000       0.00000000       0.00000000       0.61392832       0.13305753      -0.15734530
H        0.00000000       0.00000000       0.00000000       0.30592820      -0.22653431       0.53768301
H        0.00000000       0.00000000       0.00000000      -0.15316324       0.29721499      -0.00401534
H        0.00000000       0.00000000       0.00000000      -0.50178212      -0.31157640      -0.49831012
7
Lattice="529.1772105638412 0.0 0.0 0.0 529.1772105638412 0.0 0.0 0.0 529.1772105638412" Properties=species:S:1:pos:R:3:forces_component_raw:R:3 ipi_comment="Step:       16860  Bead:       0 forces_component_raw{ase}  cell{ase}" pbc="T T T"
O        0.00000000       0.00000000       0.00000000      -1.24074388       1.54463697       0.66295570
H        0.00000000       0.00000000       0.00000000       0.19810823       0.03416452      -0.45593172
H        0.00000000       0.00000000       0.00000000       1.03423763      -1.56710017       0.16049553
O        0.00000000       0.00000000       0.00000000       0.30710331      -1.01342583      -0.18830520
H        0.00000000       0.00000000       0.00000000       0.10252863       0.05081635      -0.09466399
H        0.00000000       0.00000000       0.00000000      -0.31364048       1.01554072       0.11937147
H        0.00000000       0.00000000       0.00000000      -0.08759350      -0.06463254      -0.20392183
7
Lattice="529.1772105638412 0.0 0.0 0.0 529.1772105638412 0.0 0.0 0.0 529.1772105638412" Properties=species:S:1:pos:R:3:forces_component_raw:R:3 ipi_comment="Step:       16880  Bead:       0 forces_component_raw{ase}  cell{ase}" pbc="T T T"
O        0.00000000       0.00000000       0.00000000      -0.13255613       1.18886543      -1.06738508
H        0.00000000       0.00000000       0.00000000       0.10043810      -0.34710327      -0.00083876
H        0.00000000       0.00000000       0.00000000       0.07885338      -0.93380046       0.96163440
O        0.00000000       0.00000000       0.00000000       0.48149040      -1.56850851      -0.31400877
H        0.00000000       0.00000000       0.00000000      -0.33074853      -0.13435817      -0.02737735
H        0.00000000       0.00000000       0.00000000      -0.62128598       1.55522156      -0.12911034
H        0.00000000       0.00000000       0.00000000       0.42380869       0.23968327       0.57708585
7
Lattice="529.1772105638412 0.0 0.0 0.0 529.1772105638412 0.0 0.0 0.0 529.1772105638412" Properties=species:S:1:pos:R:3:forces_component_raw:R:3 ipi_comment="Step:       16900  Bead:       0 forces_component_raw{ase}  cell{ase}" pbc="T T T"
O        0.00000000       0.00000000       0.00000000      -0.54979491       0.33340392      -0.13800216
H        0.00000000       0.00000000       0.00000000       0.03345438       0.64206630      -0.20171942
H        0.00000000       0.00000000       0.00000000       0.12409902      -0.72046161      -0.46994051
O        0.00000000       0.00000000       0.00000000       0.47312564      -2.08247948      -0.09302902
H        0.00000000       0.00000000       0.00000000       0.47522870      -0.21123862       0.64897961
H        0.00000000       0.00000000       0.00000000      -0.93845290       1.39673758      -0.16438308
H        0.00000000       0.00000000       0.00000000       0.38234001       0.64197230       0.41809464
7
Lattice="529.1772105638412 0.0 0.0 0.0 529.1772105638412 0.0 0.0 0.0 529.1772105638412" Properties=species:S:1:pos:R:3:forces_component_raw:R:3 ipi_comment="Step:       16920  Bead:       0 forces_component_raw{ase}  cell{ase}" pbc="T T T"
O        0.00000000       0.00000000       0.00000000       1.20491684      -0.46120489      -0.69677669
H        0.00000000       0.00000000       0.00000000      -0.63850391      -0.05307245       0.87407744
H        0.00000000       0.00000000       0.00000000      -0.32788253       0.60396052       0.17545344
O        0.00000000       0.00000000       0.00000000      -0.05235891      -1.51000846      -0.14171946
H        0.00000000       0.00000000       0.00000000      -0.10797903       0.17601536      -0.16283238
H        0.00000000       0.00000000       0.00000000      -0.23785746       1.22913957      -0.02759375
H        0.00000000       0.00000000       0.00000000       0.15966499       0.01517034      -0.02060857
7
Lattice="529.1772105638412 0.0 0.0 0.0 529.1772105638412 0.0 0.0 0.0 529.1772105638412" Properties=species:S:1:pos:R:3:forces_component_raw:R:3 ipi_comment="Step:       16940  Bead:       0 forces_component_raw{ase}  cell{ase}" pbc="T T T"
O        0.00000000       0.00000000       0.00000000       0.05404316      -1.31469918       1.38417507
H        0.00000000       0.00000000       0.00000000       0.18874474       0.85056627       0.33209440
H        0.00000000       0.00000000       0.00000000       0.25279963       0.71987242      -1.14546240
O        0.00000000       0.00000000       0.00000000       0.39587113       0.43967643      -0.09316415
H        0.00000000       0.00000000       0.00000000      -0.51364446      -0.53085929      -0.06220442
H        0.00000000       0.00000000       0.00000000      -0.00560822       0.47590703      -0.35122043
H        0.00000000       0.00000000       0.00000000      -0.37220609      -0.64046371      -0.06421801
7
Lattice="529.1772105638412 0.0 0.0 0.0 529.1772105638412 0.0 0.0 0.0 529.1772105638412" Properties=species:S:1:pos:R:3:forces_component_raw:R:3 ipi_comment="Step:       16960  Bead:       0 forces_component_raw{ase}  cell{ase}" pbc="T T T"
O        0.00000000       0.00000000       0.00000000      -0.79511821      -1.56497753      -0.94663745
H        0.00000000       0.00000000       0.00000000       0.02066362      -0.22087711       0.75437969
H        0.00000000       0.00000000       0.00000000       0.45527822       1.25684583       0.33831635
O        0.00000000       0.00000000       0.00000000       0.40124387       0.87108433      -0.55600035
H        0.00000000       0.00000000       0.00000000       0.72133875       0.70111823       0.47606981
H        0.00000000       0.00000000       0.00000000      -0.04767782      -0.50354469       0.23851413
H        0.00000000       0.00000000       0.00000000      -0.75572843      -0.53964925      -0.30464202
7
Lattice="529.1772105638412 0.0 0.0 0.0 529.1772105638412 0.0 0.0 0.0 529.1772105638412" Properties=species:S:1:pos:R:3:forces_component_raw:R:3 ipi_comment="Step:       16980  Bead:       0 forces_component_raw{ase}  cell{ase}" pbc="T T T"
O        0.00000000       0.00000000       0.00000000       0.84145332       1.22353411       1.09693575
H        0.00000000       0.00000000       0.00000000      -0.44327089      -0.37623268      -0.72294182
H        0.00000000       0.00000000       0.00000000      -0.29756746      -0.59448922      -0.18912824
O        0.00000000       0.00000000       0.00000000       1.03777969       2.00730992      -0.79687321
H        0.00000000       0.00000000       0.00000000      -0.35154063      -0.82750857      -0.07329808
H        0.00000000       0.00000000       0.00000000      -0.14069644      -1.01397562       0.43476907
H        0.00000000       0.00000000       0.00000000      -0.64615762      -0.41863787       0.25053641
7
Lattice="529.1772105638412 0.0 0.0 0.0 529.1772105638412 0.0 0.0 0.0 529.1772105638412" Properties=species:S:1:pos:R:3:forces_component_raw:R:3 ipi_comment="Step:       17000  Bead:       0 forces_component_raw{ase}  cell{ase}" pbc="T T T"
O        0.00000000       0.00000000       0.00000000       0.13021225       1.92579425      -1.34930885
H        0.00000000       0.00000000       0.00000000      -1.09595430      -1.93303931      -0.32136977
H        0.00000000       0.00000000       0.00000000       0.77877480      -0.33778676       1.11774862
O        0.00000000       0.00000000       0.00000000      -0.30677480       0.13031903      -0.02383614
H        0.00000000       0.00000000       0.00000000       0.04724878       0.79623550      -0.14743046
H        0.00000000       0.00000000       0.00000000       0.03772420      -0.68445373       0.75706917
H        0.00000000       0.00000000       0.00000000       0.40876889       0.10293123      -0.03287278
7
Lattice="529.1772105638412 0.0 0.0 0.0 529.1772105638412 0.0 0.0 0.0 529.1772105638412" Properties=species:S:1:pos:R:3:forces_component_raw:R:3 ipi_comment="Step:       17020  Bead:       0 forces_component_raw{ase}  cell{ase}" pbc="T T T"
O        0.00000000       0.00000000       0.00000000       1.62572241       3.39891434       0.03977531
H        0.00000000       0.00000000       0.00000000      -1.58778000      -1.10602319      -0.33930034
H        0.00000000       0.00000000       0.00000000      -0.05315195      -1.62746406       0.09626415
O        0.00000000       0.00000000       0.00000000      -0.43211317       0.50264537      -0.24509800
H        0.00000000       0.00000000       0.00000000      -0.05794741      -0.88319695       0.06171091
H        0.00000000       0.00000000       0.00000000      -0.25569862      -0.52586603       0.41445965
H        0.00000000       0.00000000       0.00000000       0.76096875       0.24099091      -0.02781171
7
Lattice="529.1772105638412 0.0 0.0 0.0 529.1772105638412 0.0 0.0 0.0 529.1772105638412" Properties=species:S:1:pos:R:3:forces_component_raw:R:3 ipi_comment="Step:       17040  Bead:       0 forces_component_raw{ase}  cell{ase}" pbc="T T T"
O        0.00000000       0.00000000       0.00000000      -1.38559866       0.82553178      -0.42668849
H        0.00000000       0.00000000       0.00000000       0.24436954      -0.55502129       0.00350145
H        0.00000000       0.00000000       0.00000000       1.16499377      -0.52961373       0.50904888
O        0.00000000       0.00000000       0.00000000      -1.25987196      -0.16327009      -0.47299892
H        0.00000000       0.00000000       0.00000000       0.08216458       0.47870973       0.07576147
H        0.00000000       0.00000000       0.00000000       0.18710059       0.02957416       0.24904388
H        0.00000000       0.00000000       0.00000000       0.96684206      -0.08591062       0.06233157
7
Lattice="529.1772105638412 0.0 0.0 0.0 529.1772105638412 0.0 0.0 0.0 529.1772105638412" Properties=species:S:1:pos:R:3:forces_component_raw:R:3 ipi_comment="Step:       17060  Bead:       0 forces_component_raw{ase}  cell{ase}" pbc="T T T"
O        0.00000000       0.00000000       0.00000000      -0.24045210      -0.28305259       1.28304255
H        0.00000000       0.00000000       0.00000000       0.77663744       1.54407764      -0.53273010
H        0.00000000       0.00000000       0.00000000      -0.42447037      -0.93636918      -0.20981957
O        0.00000000       0.00000000       0.00000000      -0.24178970       0.40974936      -0.66563112
H        0.00000000       0.00000000       0.00000000      -0.41138443      -0.46842608      -0.19155711
H        0.00000000       0.00000000       0.00000000      -0.30167043      -0.21244305       0.20340908
H        0.00000000       0.00000000       0.00000000       0.84312958      -0.05353619       0.11328638
7
Lattice="529.1772105638412 0.0 0.0 0.0 529.1772105638412 0.0 0.0 0.0 529.1772105638412" Properties=species:S:1:pos:R:3:forces_component_raw:R:3 ipi_comment="Step:       17080  Bead:       0 forces_component_raw{ase}  cell{ase}" pbc="T T T"
O        0.00000000       0.00000000       0.00000000      -2.81443954      -1.49704302      -0.73318327
H        0.00000000       0.00000000       0.00000000       1.83493638       0.68815911       0.12034628
H        0.00000000       0.00000000       0.00000000       0.53178370       0.48423785       0.09775257
O        0.00000000       0.00000000       0.00000000       0.38607213      -0.08251038      -0.14654970
H        0.00000000       0.00000000       0.00000000       0.54364777       0.39848557       0.54138970
H        0.00000000       0.00000000       0.00000000      -0.11025253      -0.03872636       0.08709836
H        0.00000000       0.00000000       0.00000000      -0.37174797       0.04739723       0.03314622
7
Lattice="529.1772105638412 0.0 0.0 0.0 529.1772105638412 0.0 0.0 0.0 529.1772105638412" Properties=species:S:1:pos:R:3:forces_component_raw:R:3 ipi_comment="Step:       17100  Bead:       0 forces_component_raw{ase}  cell{ase}" pbc="T T T"
O        0.00000000       0.00000000       0.00000000       0.28412759      -2.24415041       1.18641448
H        0.00000000       0.00000000       0.00000000       0.61774445       1.39442933      -0.06448513
H        0.00000000       0.00000000       0.00000000      -0.85591960       0.91100115      -0.88591302
O        0.00000000       0.00000000       0.00000000       0.63252133       0.29338723       1.04611552
H        0.00000000       0.00000000       0.00000000      -0.36359727      -0.18613815      -0.70988560
H        0.00000000       0.00000000       0.00000000       0.09609793      -0.20274219      -0.50253433
H        0.00000000       0.00000000       0.00000000      -0.41097459       0.03421300      -0.06971201
7
Lattice="529.1772105638412 0.0 0.0 0.0 529.1772105638412 0.0 0.0 0.0 529.1772105638412" Properties=species:S:1:pos:R:3:forces_component_raw:R:3 ipi_comment="Step:       17120  Bead:       0 forces_component_raw{ase}  cell{ase}" pbc="T T T"
O        0.00000000       0.00000000       0.00000000      -0.55932856      -0.64157915      -0.65709043
H        0.00000000       0.00000000       0.00000000       0.18630010      -0.51429165       0.53659243
H        0.00000000       0.00000000       0.00000000       0.27452669       0.98387909      -0.03103000
O        0.00000000       0.00000000       0.00000000       0.12270841      -0.12458444       0.36389512
H        0.00000000       0.00000000       0.00000000       0.29379368       0.33612925       0.43327403
H        0.00000000       0.00000000       0.00000000       0.68486720      -0.49830628      -0.70230019
H        0.00000000       0.00000000       0.00000000      -1.00286746       0.45875311       0.05665920
7
Lattice="529.1772105638412 0.0 0.0 0.0 529.1772105638412 0.0 0.0 0.0 529.1772105638412" Properties=species:S:1:pos:R:3:forces_component_raw:R:3 ipi_comment="Step:       17140  Bead:       0 forces_component_raw{ase}  cell{ase}" pbc="T T T"
O        0.00000000       0.00000000       0.00000000       0.59535217       1.29446054       1.18806863
H        0.00000000       0.00000000       0.00000000      -0.19204402      -0.56906229      -0.82345581
H        0.00000000       0.00000000       0.00000000      -0.10616724      -0.65916896      -0.21696553
O        0.00000000       0.00000000       0.00000000       0.30604571       0.33693141       1.50574208
H        0.00000000       0.00000000       0.00000000      -0.52606267      -0.22779568      -0.17868182
H        0.00000000       0.00000000       0.00000000       0.29829338      -0.36021635      -0.98694587
H        0.00000000       0.00000000       0.00000000      -0.37541741       0.18485150      -0.48776162
7
Lattice="529.1772105638412 0.0 0.0 0.0 529.1772105638412 0.0 0.0 0.0 529.1772105638412" Properties=species:S:1:pos:R:3:forces_component_raw:R:3 ipi_comment="Step:       17160  Bead:       0 forces_component_raw{ase}  cell{ase}" pbc="T T T"
O        0.00000000       0.00000000       0.00000000       0.58320439       1.32316470      -1.20689762
H        0.00000000       0.00000000       0.00000000      -0.09971574      -1.67925978       0.02821088
H        0.00000000       0.00000000       0.00000000      -0.30497548       0.23590742       1.05412102
O        0.00000000       0.00000000       0.00000000      -0.17030570      -0.39061594      -0.39522028
H        0.00000000       0.00000000       0.00000000       0.02005091       0.17496108       0.36224598
H        0.00000000       0.00000000       0.00000000       0.23910889      -0.08627021       0.20842654
H        0.00000000       0.00000000       0.00000000      -0.26736736       0.42211270      -0.05088640
7
Lattice="529.1772105638412 0.0 0.0 0.0 529.1772105638412 0.0 0.0 0.0 529.1772105638412" Properties=species:S:1:pos:R:3:forces_component_raw:R:3 ipi_comment="Step:       17180  Bead:       0 forces_component_raw{ase}  cell{ase}" pbc="T T T"
O        0.00000000       0.00000000       0.00000000       0.25008896       2.85406495       0.45047483
H        0.00000000       0.00000000       0.00000000       0.20602985      -1.39458132      -1.17098284
H        0.00000000       0.00000000       0.00000000      -0.31507316      -1.42310381       0.33945134
O        0.00000000       0.00000000       0.00000000      -0.29328096      -0.42993611      -0.12704700
H        0.00000000       0.00000000       0.00000000       0.05113653      -0.23780605       0.22238421
H        0.00000000       0.00000000       0.00000000       0.01948079       0.40649492       0.46388984
H        0.00000000       0.00000000       0.00000000       0.08161789       0.22486731      -0.17817044
7
Lattice="529.1772105638412 0.0 0.0 0.0 529.1772105638412 0.0 0.0 0.0 529.1772105638412" Properties=species:S:1:pos:R:3:forces_component_raw:R:3 ipi_comment="Step:       17200  Bead:       0 forces_component_raw{ase}  cell{ase}" pbc="T T T"
O        0.00000000       0.00000000       0.00000000      -0.36050984       0.77417267      -1.31890619
H        0.00000000       0.00000000       0.00000000      -0.01186717      -1.27059615       0.22605571
H        0.00000000       0.00000000       0.00000000       0.01892085       0.30095631       0.95460308
O        0.00000000       0.00000000       0.00000000       0.38309562      -0.27273747      -0.24255973
H        0.00000000       0.00000000       0.00000000      -0.01646374       0.25624135      -0.40284282
H        0.00000000       0.00000000       0.00000000      -0.41454500       0.74419439       0.43037587
H        0.00000000       0.00000000       0.00000000       0.40136933      -0.53223121       0.35327396
7
Lattice="529.1772105638412 0.0 0.0 0.0 529.1772105638412 0.0 0.0 0.0 529.1772105638412" Properties=species:S:1:pos:R:3:forces_component_raw:R:3 ipi_comment="Step:       17220  Bead:       0 forces_component_raw{ase}  cell{ase}" pbc="T T T"
O        0.00000000       0.00000000       0.00000000      -0.23650807       0.89841569      -0.06547293
H        0.00000000       0.00000000       0.00000000       0.18499160       0.03343683      -0.06725700
H        0.00000000       0.00000000       0.00000000      -0.19456948      -0.35962474      -0.34400550
O        0.00000000       0.00000000       0.00000000      -0.35771433       0.64822948      -0.93416465
H        0.00000000       0.00000000       0.00000000       0.10208504      -0.66806770       0.51416266
H        0.00000000       0.00000000       0.00000000      -0.08338736       0.27976495       0.19462068
H        0.00000000       0.00000000       0.00000000       0.58510262      -0.83215440       0.70211661
7
Lattice="529.1772105638412 0.0 0.0 0.0 529.1772105638412 0.0 0.0 0.0 529.1772105638412" Properties=species:S:1:pos:R:3:forces_component_raw:R:3 ipi_comment="Step:       17240  Bead:       0 forces_component_raw{ase}  cell{ase}" pbc="T T T"
O        0.00000000       0.00000000       0.00000000       0.22873536      -1.71316123       1.56658376
H        0.00000000       0.00000000       0.00000000       0.02109636       0.66651273      -0.03912570
H        0.00000000       0.00000000       0.00000000      -0.12104158       0.75578290      -0.82016254
O        0.00000000       0.00000000       0.00000000       0.04284298       0.50842941       0.24698064
H        0.00000000       0.00000000       0.00000000       0.15918395       0.80649889      -0.58997524
H        0.00000000       0.00000000       0.00000000      -0.52826089      -0.52750826      -0.56223762
H        0.00000000       0.00000000       0.00000000       0.19744384      -0.49655426       0.19793677
7
Lattice="529.1772105638412 0.0 0.0 0.0 529.1772105638412 0.0 0.0 0.0 529.1772105638412" Properties=species:S:1:pos:R:3:forces_component_raw:R:3 ipi_comment="Step:       17260  Bead:       0 forces_component_raw{ase}  cell{ase}" pbc="T T T"
O        0.00000000       0.00000000       0.00000000       0.32166672      -0.38981164       0.65467000
H        0.00000000       0.00000000       0.00000000       0.39794183       0.67985809       0.28795987
H        0.00000000       0.00000000       0.00000000      -0.16283499       0.33072025      -0.55194289
O        0.00000000       0.00000000       0.00000000      -0.84204835       1.52603197      -1.26444578
H        0.00000000       0.00000000       0.00000000      -0.02145743      -1.04334259       0.54077733
H        0.00000000       0.00000000       0.00000000       0.37094188      -1.38620520       0.62645507
H        0.00000000       0.00000000       0.00000000      -0.06420958       0.28274930      -0.29347351
7
Lattice="529.1772105638412 0.0 0.0 0.0 529.1772105638412 0.0 0.0 0.0 529.1772105638412" Properties=species:S:1:pos:R:3:forces_component_raw:R:3 ipi_comment="Step:       17280  Bead:       0 forces_component_raw{ase}  cell{ase}" pbc="T T T"
O        0.00000000       0.00000000       0.00000000       0.57694459      -1.72373200       1.54269576
H        0.00000000       0.00000000       0.00000000      -0.05348311       0.62467003      -0.29439479
H        0.00000000       0.00000000       0.00000000      -0.20388459       0.51103854      -0.91726715
O        0.00000000       0.00000000       0.00000000       1.33374942       0.46650457       1.18817663
H        0.00000000       0.00000000       0.00000000      -0.33816582       1.05723620      -0.39477626
H        0.00000000       0.00000000       0.00000000      -0.48894918      -0.88644052      -0.27099305
H        0.00000000       0.00000000       0.00000000      -0.82621128      -0.04927686      -0.85344124
7
Lattice="529.1772105638412 0.0 0.0 0.0 529.1772105638412 0.0 0.0 0.0 529.1772105638412" Properties=species:S:1:pos:R:3:forces_component_raw:R:3 ipi_comment="Step:       17300  Bead:       0 forces_component_raw{ase}  cell{ase}" pbc="T T T"
O        0.00000000       0.00000000       0.00000000      -0.83054865      -0.44232357      -1.12715531
H        0.00000000       0.00000000       0.00000000       0.28666398       0.08440048       0.48949882
H        0.00000000       0.00000000       0.00000000      -0.01209573       0.24288824      -0.03338766
O        0.00000000       0.00000000       0.00000000       1.13791514       0.81098753       0.16780534
H        0.00000000       0.00000000       0.00000000      -0.02802634      -0.60539699       0.19371282
H        0.00000000       0.00000000       0.00000000       0.19145808      -0.94013924       1.00655103
H        0.00000000       0.00000000       0.00000000      -0.74536640       0.84958357      -0.69702494
7
Lattice="529.1772105638412 0.0 0.0 0.0 529.1772105638412 0.0 0.0 0.0 529.1772105638412" Properties=species:S:1:pos:R:3:forces_component_raw:R:3 ipi_comment="Step:       17320  Bead:       0 forces_component_raw{ase}  cell{ase}" pbc="T T T"
O        0.00000000       0.00000000       0.00000000      -0.34329152       1.08557654      -0.55205065
H        0.00000000       0.00000000       0.00000000      -0.11952336      -0.35899252      -0.24353486
H        0.00000000       0.00000000       0.00000000      -0.02827294      -0.91992361       0.52347249
O        0.00000000       0.00000000       0.00000000       2.21205092      -0.63715315      -0.21439803
H        0.00000000       0.00000000       0.00000000       0.22201340       0.62975931      -0.23940685
H        0.00000000       0.00000000       0.00000000      -1.08937240      -0.57916647       0.28873617
H        0.00000000       0.00000000       0.00000000      -0.85360408       0.77989960       0.43718180
7
Lattice="529.1772105638412 0.0 0.0 0.0 529.1772105638412 0.0 0.0 0.0 529.1772105638412" Properties=species:S:1:pos:R:3:forces_component_raw:R:3 ipi_comment="Step:       17340  Bead:       0 forces_component_raw{ase}  cell{ase}" pbc="T T T"
O        0.00000000       0.00000000       0.00000000       0.06231701       2.97052718      -1.08307231
H        0.00000000       0.00000000       0.00000000      -0.15313613      -1.34429050      -0.10507191
H        0.00000000       0.00000000       0.00000000       0.04648409      -1.02853906       1.28272558
O        0.00000000       0.00000000       0.00000000      -0.47772384      -0.46325502      -0.39330661
H        0.00000000       0.00000000       0.00000000       0.54029060      -0.47085387       0.24040482
H        0.00000000       0.00000000       0.00000000       0.01131192      -0.37215233       0.05308623
H        0.00000000       0.00000000       0.00000000      -0.02954371       0.70856363       0.00523429
7
Lattice="529.1772105638412 0.0 0.0 0.0 529.1772105638412 0.0 0.0 0.0 529.1772105638412" Properties=species:S:1:pos:R:3:forces_component_raw:R:3 ipi_comment="Step:       17360  Bead:       0 forces_component_raw{ase}  cell{ase}" pbc="T T T"
O        0.00000000       0.00000000       0.00000000       0.60848057       1.11361861      -1.13251329
H        0.00000000       0.00000000       0.00000000      -0.21956050      -0.76041126      -0.05823475
H        0.00000000       0.00000000       0.00000000       0.15908131      -0.27119172       1.55738211
O        0.00000000       0.00000000       0.00000000       0.55852175      -0.40247071       0.58628792
H        0.00000000       0.00000000       0.00000000      -0.51261997       0.25277358      -0.24093503
H        0.00000000       0.00000000       0.00000000      -0.31290054       0.25461787      -0.56233102
H        0.00000000       0.00000000       0.00000000      -0.28100258      -0.18693644      -0.14965588
7
Lattice="529.1772105638412 0.0 0.0 0.0 529.1772105638412 0.0 0.0 0.0 529.1772105638412" Properties=species:S:1:pos:R:3:forces_component_raw:R:3 ipi_comment="Step:       17380  Bead:       0 forces_component_raw{ase}  cell{ase}" pbc="T T T"
O        0.00000000       0.00000000       0.00000000       0.52942902       0.39508203      -0.29938540
H        0.00000000       0.00000000       0.00000000      -0.31097740      -0.49369681       0.11253417
H        0.00000000       0.00000000       0.00000000       0.20007819       0.27838349       0.66480208
O        0.00000000       0.00000000       0.00000000      -1.12676168       0.13750103      -1.48561621
H        0.00000000       0.00000000       0.00000000      -0.24533933      -0.47129098       0.24453875
H        0.00000000       0.00000000       0.00000000       0.46419963       0.37133247       0.42654541
H        0.00000000       0.00000000       0.00000000       0.48937175      -0.21731132       0.33658096
7
Lattice="529.1772105638412 0.0 0.0 0.0 529.1772105638412 0.0 0.0 0.0 529.1772105638412" Properties=species:S:1:pos:R:3:forces_component_raw:R:3 ipi_comment="Step:       17400  Bead:       0 forces_component_raw{ase}  cell{ase}" pbc="T T T"
O        0.00000000       0.00000000       0.00000000      -0.33758986       0.65467984       0.77197415
H        0.00000000       0.00000000       0.00000000      -0.25467527      -0.50543988      -0.37364671
H        0.00000000       0.00000000       0.00000000       0.18447436      -0.41741189      -0.48764312
O        0.00000000       0.00000000       0.00000000      -0.22718436      -0.27060270      -0.21341848
H        0.00000000       0.00000000       0.00000000       0.21999526       0.02969190      -0.17427731
H        0.00000000       0.00000000       0.00000000       0.22849974       1.73754049      -0.55986744
H        0.00000000       0.00000000       0.00000000       0.18648019      -1.22845793       1.03687906
7
Lattice="529.1772105638412 0.0 0.0 0.0 529.1772105638412 0.0 0.0 0.0 529.1772105638412" Properties=species:S:1:pos:R:3:forces_component_raw:R:3 ipi_comment="Step:       17420  Bead:       0 forces_component_raw{ase}  cell{ase}" pbc="T T T"
O        0.00000000       0.00000000       0.00000000      -1.07636559      -0.24509497       0.35574347
H        0.00000000       0.00000000       0.00000000       0.27835438       0.56094754       0.46805954
H        0.00000000       0.00000000       0.00000000       0.94705802      -0.39951030      -0.98523581
O        0.00000000       0.00000000       0.00000000      -0.85462904      -1.81972623      -1.85344029
H        0.00000000       0.00000000       0.00000000      -0.36927784       0.16073725      -0.35338843
H        0.00000000       0.00000000       0.00000000       0.54533351       2.25788570       0.21137086
H        0.00000000       0.00000000       0.00000000       0.52952635      -0.51523900       2.15689064
7
Lattice="529.1772105638412 0.0 0.0 0.0 529.1772105638412 0.0 0.0 0.0 529.1772105638412" Properties=species:S:1:pos:R:3:forces_component_raw:R:3 ipi_comment="Step:       17440  Bead:       0 forces_component_raw{ase}  cell{ase}" pbc="T T T"
O        0.00000000       0.00000000       0.00000000      -1.31459594       0.78133977       0.58998519
H        0.00000000       0.00000000       0.00000000       1.14623940      -0.00257306       0.04626910
H        0.00000000       0.00000000       0.00000000       0.07296371      -0.59810704      -0.42919868
O        0.00000000       0.00000000       0.00000000      -0.09667015       0.16837952      -1.37959409
H        0.00000000       0.00000000       0.00000000       0.24053121      -0.43098909      -0.35889638
H        0.00000000       0.00000000       0.00000000       0.08460391       1.36406875      -0.45854089
H        0.00000000       0.00000000       0.00000000      -0.13307235      -1.28211904       1.98997570
7
Lattice="529.1772105638412 0.0 0.0 0.0 529.1772105638412 0.0 0.0 0.0 529.1772105638412" Properties=species:S:1:pos:R:3:forces_component_raw:R:3 ipi_comment="Step:       17460  Bead:       0 forces_component_raw{ase}  cell{ase}" pbc="T T T"
O        0.00000000       0.00000000       0.00000000      -1.03477502      -0.56775808      -1.09636116
H        0.00000000       0.00000000       0.00000000       1.22758484      -0.24144577       0.23862964
H        0.00000000       0.00000000       0.00000000      -0.36594030       0.40480799       0.15993039
O        0.00000000       0.00000000       0.00000000       0.12602162       0.30822364      -0.39234877
H        0.00000000       0.00000000       0.00000000      -0.03631872       0.26879916       0.50094664
H        0.00000000       0.00000000       0.00000000       0.08482700      -0.32374483       0.25364938
H        0.00000000       0.00000000       0.00000000      -0.00139934       0.15111780       0.33555386
7
Lattice="529.1772105638412 0.0 0.0 0.0 529.1772105638412 0.0 0.0 0.0 529.1772105638412" Properties=species:S:1:pos:R:3:forces_component_raw:R:3 ipi_comment="Step:       17480  Bead:       0 forces_component_raw{ase}  cell{ase}" pbc="T T T"
O        0.00000000       0.00000000       0.00000000      -1.68010116      -0.77546585      -1.39807535
H        0.00000000       0.00000000       0.00000000       1.32957173      -0.41429991       0.22697978
H        0.00000000       0.00000000       0.00000000       0.33060587       1.28868759       1.16399539
O        0.00000000       0.00000000       0.00000000      -0.97265876       1.46935964       1.41410899
H        0.00000000       0.00000000       0.00000000      -0.26884234      -0.29173181      -0.35159478
H        0.00000000       0.00000000       0.00000000       0.64088065      -1.38214016      -0.20283079
H        0.00000000       0.00000000       0.00000000       0.62054402       0.10559052      -0.85258353
7
Lattice="529.1772105638412 0.0 0.0 0.0 529.1772105638412 0.0 0.0 0.0 529.1772105638412" Properties=species:S:1:pos:R:3:forces_component_raw:R:3 ipi_comment="Step:       17500  Bead:       0 forces_component_raw{ase}  cell{ase}" pbc="T T T"
O        0.00000000       0.00000000       0.00000000       0.55761892      -0.89096391      -0.13288148
H        0.00000000       0.00000000       0.00000000       0.13235274      -0.70500755      -0.41935930
H        0.00000000       0.00000000       0.00000000      -0.33345485       1.98697734       1.05103100
O        0.00000000       0.00000000       0.00000000      -1.63688147       0.50587189      -0.23935163
H        0.00000000       0.00000000       0.00000000      -0.03087400       0.00105948       0.36481330
H        0.00000000       0.00000000       0.00000000       0.51562244      -1.78617502       0.73739225
H        0.00000000       0.00000000       0.00000000       0.79561633       0.88823742      -1.36164403
7
Lattice="529.1772105638412 0.0 0.0 0.0 529.1772105638412 0.0 0.0 0.0 529.1772105638412" Properties=species:S:1:pos:R:3:forces_component_raw:R:3 ipi_comment="Step:       17520  Bead:       0 forces_component_raw{ase}  cell{ase}" pbc="T T T"
O        0.00000000       0.00000000       0.00000000      -0.40987310      -1.76542330      -0.91347766
H        0.00000000       0.00000000       0.00000000       0.32352838      -0.00511536       0.15828267
H        0.00000000       0.00000000       0.00000000       0.18585429       1.91243649       0.91887033
O        0.00000000       0.00000000       0.00000000      -0.72694206       1.83479178       2.31348634
H        0.00000000       0.00000000       0.00000000      -0.32501394      -0.17572340      -0.25271040
H        0.00000000       0.00000000       0.00000000       0.24751538      -2.14873171      -0.11172912
H        0.00000000       0.00000000       0.00000000       0.70493102       0.34776536      -2.11272192
7
Lattice="529.1772105638412 0.0 0.0 0.0 529.1772105638412 0.0 0.0 0.0 529.1772105638412" Properties=species:S:1:pos:R:3:forces_component_raw:R:3 ipi_comment="Step:       17540  Bead:       0 forces_component_raw{ase}  cell{ase}" pbc="T T T"
O        0.00000000       0.00000000       0.00000000       0.45947024      -1.22106004      -0.04087228
H        0.00000000       0.00000000       0.00000000      -0.26519334       0.03840250      -0.00328141
H        0.00000000       0.00000000       0.00000000      -0.26921910       1.26478875       0.20171756
O        0.00000000       0.00000000       0.00000000      -0.27859289       0.50653648       1.62634158
H        0.00000000       0.00000000       0.00000000       0.39589965       0.09029113      -0.02253008
H        0.00000000       0.00000000       0.00000000      -0.41645870      -1.63265610       0.23898107
H        0.00000000       0.00000000       0.00000000       0.37409407       0.95369727      -2.00035668
7
Lattice="529.1772105638412 0.0 0.0 0.0 529.1772105638412 0.0 0.0 0.0 529.1772105638412" Properties=species:S:1:pos:R:3:forces_component_raw:R:3 ipi_comment="Step:       17560  Bead:       0 forces_component_raw{ase}  cell{ase}" pbc="T T T"
O        0.00000000       0.00000000       0.00000000       0.17834175      -0.22244585      -0.11339319
H        0.00000000       0.00000000       0.00000000       0.03391027      -0.03311226       0.12972400
H        0.00000000       0.00000000       0.00000000      -0.25333425       0.05613750      -0.31200621
O        0.00000000       0.00000000       0.00000000       0.23964980       0.24924825       1.11620236
H        0.00000000       0.00000000       0.00000000      -0.01930368      -0.09413528       0.26536211
H        0.00000000       0.00000000       0.00000000      -0.15590301      -0.25489315       0.00941321
H        0.00000000       0.00000000       0.00000000      -0.02336086       0.29920054      -1.09530235
7
Lattice="529.1772105638412 0.0 0.0 0.0 529.1772105638412 0.0 0.0 0.0 529.1772105638412" Properties=species:S:1:pos:R:3:forces_component_raw:R:3 ipi_comment="Step:       17580  Bead:       0 forces_component_raw{ase}  cell{ase}" pbc="T T T"
O        0.00000000       0.00000000       0.00000000      -0.93970162       0.85042578       0.46078077
H        0.00000000       0.00000000       0.00000000       0.24335039       0.27733189      -0.14559361
H        0.00000000       0.00000000       0.00000000       0.53546286      -1.35224128      -0.17880115
O        0.00000000       0.00000000       0.00000000      -1.28147388      -1.00079978      -0.44450936
H        0.00000000       0.00000000       0.00000000       0.32152608       0.15258084      -0.49185157
H        0.00000000       0.00000000       0.00000000       1.08526242       1.01918197      -0.00935870
H        0.00000000       0.00000000       0.00000000       0.03557384       0.05352062       0.80933368
7
Lattice="529.1772105638412 0.0 0.0 0.0 529.1772105638412 0.0 0.0 0.0 529.1772105638412" Properties=species:S:1:pos:R:3:forces_component_raw:R:3 ipi_comment="Step:       17600  Bead:       0 forces_component_raw{ase}  cell{ase}" pbc="T T T"
O        0.00000000       0.00000000       0.00000000      -0.70745331       2.80286050       0.06923443
H        0.00000000       0.00000000       0.00000000       0.02536237      -0.08462173      -0.05621910
H        0.00000000       0.00000000       0.00000000       0.80264789      -2.82743455      -0.27081123
O        0.00000000       0.00000000       0.00000000      -0.32219511       0.07945928      -1.55516291
H        0.00000000       0.00000000       0.00000000      -0.47631350      -0.25657862       0.23686747
H        0.00000000       0.00000000       0.00000000       1.56527055       0.86986566      -0.34206668
H        0.00000000       0.00000000       0.00000000      -0.88731897      -0.58355045       1.91815806
7
Lattice="529.1772105638412 0.0 0.0 0.0 529.1772105638412 0.0 0.0 0.0 529.1772105638412" Properties=species:S:1:pos:R:3:forces_component_raw:R:3 ipi_comment="Step:       17620  Bead:       0 forces_component_raw{ase}  cell{ase}" pbc="T T T"
O        0.00000000       0.00000000       0.00000000      -1.36802244       2.11223174       0.53064031
H        0.00000000       0.00000000       0.00000000       0.35934573      -0.08724085      -0.22136134
H        0.00000000       0.00000000       0.00000000       0.68665946      -1.94900120      -0.39595112
O        0.00000000       0.00000000       0.00000000      -0.90568990      -0.40158543      -2.79354883
H        0.00000000       0.00000000       0.00000000       0.40232387      -0.00899801       0.23352462
H        0.00000000       0.00000000       0.00000000       1.44082332       0.44945973       0.12053981
H        0.00000000       0.00000000       0.00000000      -0.61543989      -0.11486602       2.52615643
7
Lattice="529.1772105638412 0.0 0.0 0.0 529.1772105638412 0.0 0.0 0.0 529.1772105638412" Properties=species:S:1:pos:R:3:forces_component_raw:R:3 ipi_comment="Step:       17640  Bead:       0 forces_component_raw{ase}  cell{ase}" pbc="T T T"
O        0.00000000       0.00000000       0.00000000      -0.17508131       0.04956433       0.48463237
H        0.00000000       0.00000000       0.00000000       0.21784723       0.24238423       0.14665723
H        0.00000000       0.00000000       0.00000000       0.29816133      -0.24746329      -0.03206733
O        0.00000000       0.00000000       0.00000000       0.93094379      -0.06936818      -1.13813365
H        0.00000000       0.00000000       0.00000000      -0.24251941       0.32641769      -0.29660088
H        0.00000000       0.00000000       0.00000000      -0.22496325      -0.08314234      -0.38156304
H        0.00000000       0.00000000       0.00000000      -0.80438852      -0.21839249       1.21707523
7
Lattice="529.1772105638412 0.0 0.0 0.0 529.1772105638412 0.0 0.0 0.0 529.1772105638412" Properties=species:S:1:pos:R:3:forces_component_raw:R:3 ipi_comment="Step:       17660  Bead:       0 forces_component_raw{ase}  cell{ase}" pbc="T T T"
O        0.00000000       0.00000000       0.00000000       0.34322053      -0.37828469       0.07179296
H        0.00000000       0.00000000       0.00000000       0.02236384      -0.05904654      -0.04938616
H        0.00000000       0.00000000       0.00000000      -0.20269151       0.74736917       0.30830306
O        0.00000000       0.00000000       0.00000000       0.37300223      -0.37463006      -1.56308771
H        0.00000000       0.00000000       0.00000000      -0.00837241       0.07287228       0.13547331
H        0.00000000       0.00000000       0.00000000      -0.98797357       0.05440027       0.65841979
H        0.00000000       0.00000000       0.00000000       0.46045089      -0.06268036       0.43848476
7
Lattice="529.1772105638412 0.0 0.0 0.0 529.1772105638412 0.0 0.0 0.0 529.1772105638412" Properties=species:S:1:pos:R:3:forces_component_raw:R:3 ipi_comment="Step:       17680  Bead:       0 forces_component_raw{ase}  cell{ase}" pbc="T T T"
O        0.00000000       0.00000000       0.00000000       0.00107038      -0.57162804      -0.35361302
H        0.00000000       0.00000000       0.00000000       0.40162104      -0.16639628       0.14731386
H        0.00000000       0.00000000       0.00000000      -0.34663546       1.03748453       0.15936819
O        0.00000000       0.00000000       0.00000000       1.00568557      -0.96697974       1.55247927
H        0.00000000       0.00000000       0.00000000       0.01721954      -0.39370564       0.37528864
H        0.00000000       0.00000000       0.00000000      -1.19676757       0.41324225      -0.60179258
H        0.00000000       0.00000000       0.00000000       0.11780661       0.64798272      -1.27904415
7
Lattice="529.1772105638412 0.0 0.0 0.0 529.1772105638412 0.0 0.0 0.0 529.1772105638412" Properties=species:S:1:pos:R:3:forces_component_raw:R:3 ipi_comment="Step:       17700  Bead:       0 forces_component_raw{ase}  cell{ase}" pbc="T T T"
O        0.00000000       0.00000000       0.00000000       0.25749633      -1.30399633      -0.22447246
H        0.00000000       0.00000000       0.00000000       0.30575949       0.06909616       0.32999098
H        0.00000000       0.00000000       0.00000000      -0.43593049       0.76504368      -0.25533119
O        0.00000000       0.00000000       0.00000000       0.33568740      -0.96113038       2.22784591
H        0.00000000       0.00000000       0.00000000      -0.21957406       0.39139882      -0.35862711
H        0.00000000       0.00000000       0.00000000      -1.51741195       0.10469793       0.00167295
H        0.00000000       0.00000000       0.00000000       1.27397335       0.93488991      -1.72107911
7
Lattice="529.1772105638412 0.0 0.0 0.0 529.1772105638412 0.0 0.0 0.0 529.1772105638412" Properties=species:S:1:pos:R:3:forces_component_raw:R:3 ipi_comment="Step:       17720  Bead:       0 forces_component_raw{ase}  cell{ase}" pbc="T T T"
O        0.00000000       0.00000000       0.00000000       0.36844540      -0.05199453       0.07175797
H        0.00000000       0.00000000       0.00000000      -0.34533444       0.01783577      -0.25070256
H        0.00000000       0.00000000       0.00000000      -0.09745374       0.48870283       0.04994058
O        0.00000000       0.00000000       0.00000000      -0.24302471       0.13115677       2.76401520
H        0.00000000       0.00000000       0.00000000       0.21017371      -0.66434372       0.54298437
H        0.00000000       0.00000000       0.00000000      -0.91586524      -0.03637979      -0.09254310
H        0.00000000       0.00000000       0.00000000       1.02305901       0.11502267      -3.08545232
7
Lattice="529.1772105638412 0.0 0.0 0.0 529.1772105638412 0.0 0.0 0.0 529.1772105638412" Properties=species:S:1:pos:R:3:forces_component_raw:R:3 ipi_comment="Step:       17740  Bead:       0 forces_component_raw{ase}  cell{ase}" pbc="T T T"
O        0.00000000       0.00000000       0.00000000       0.21095459       0.16752222       0.30700693
H        0.00000000       0.00000000       0.00000000       0.14728515      -0.22804570       0.25971907
H        0.00000000       0.00000000       0.00000000      -0.28828961      -0.21862525      -0.24482547
O        0.00000000       0.00000000       0.00000000      -0.67536348      -0.12169123       2.02021504
H        0.00000000       0.00000000       0.00000000       0.09173800       0.63255370      -0.18538427
H        0.00000000       0.00000000       0.00000000      -0.66304863       0.05706312       0.32553989
H        0.00000000       0.00000000       0.00000000       1.17672408      -0.28877696      -2.48227120
7
Lattice="529.1772105638412 0.0 0.0 0.0 529.1772105638412 0.0 0.0 0.0 529.1772105638412" Properties=species:S:1:pos:R:3:forces_component_raw:R:3 ipi_comment="Step:       17760  Bead:       0 forces_component_raw{ase}  cell{ase}" pbc="T T T"
O        0.00000000       0.00000000       0.00000000      -0.54356760       0.76293981       0.08280146
H        0.00000000       0.00000000       0.00000000       0.27305737      -0.24658167      -0.13896495
H        0.00000000       0.00000000       0.00000000       0.10393656      -0.13398981       0.22021934
O        0.00000000       0.00000000       0.00000000      -0.43067312       0.80701465       1.39554966
H        0.00000000       0.00000000       0.00000000       0.01968941      -0.53399819      -0.16276675
H        0.00000000       0.00000000       0.00000000       0.32483852      -0.02762300      -0.02765474
H        0.00000000       0.00000000       0.00000000       0.25271884      -0.62776178      -1.36918390
7
Lattice="529.1772105638412 0.0 0.0 0.0 529.1772105638412 0.0 0.0 0.0 529.1772105638412" Properties=species:S:1:pos:R:3:forces_component_raw:R:3 ipi_comment="Step:       17780  Bead:       0 forces_component_raw{ase}  cell{ase}" pbc="T T T"
O        0.00000000       0.00000000       0.00000000      -0.64231396       0.42172158      -1.00841367
H        0.00000000       0.00000000       0.00000000       0.32374933      -0.62996924       0.09359464
H        0.00000000       0.00000000       0.00000000      -0.05638679      -0.05089468       0.14322424
O        0.00000000       0.00000000       0.00000000      -0.78787929      -0.39800677      -0.95962441
H        0.00000000       0.00000000       0.00000000       0.24111381       0.18931291       0.54249519
H        0.00000000       0.00000000       0.00000000       0.89093304       0.22144628       0.48180372
H        0.00000000       0.00000000       0.00000000       0.03078377       0.24639002       0.70692039
7
Lattice="529.1772105638412 0.0 0.0 0.0 529.1772105638412 0.0 0.0 0.0 529.1772105638412" Properties=species:S:1:pos:R:3:forces_component_raw:R:3 ipi_comment="Step:       17800  Bead:       0 forces_component_raw{ase}  cell{ase}" pbc="T T T"
O        0.00000000       0.00000000       0.00000000      -0.03912526       0.63603574      -0.40696645
H        0.00000000       0.00000000       0.00000000       0.35523668      -0.73940909       0.72951132
H        0.00000000       0.00000000       0.00000000      -0.28851965      -0.15161347      -0.17330679
O        0.00000000       0.00000000       0.00000000       0.94388652      -0.69926465      -1.82204795
H        0.00000000       0.00000000       0.00000000       0.04126108       0.08813155      -0.52746713
H        0.00000000       0.00000000       0.00000000       1.40345717      -0.18769148      -0.15546225
H        0.00000000       0.00000000       0.00000000      -2.41619659       1.05381131       2.35573912
7
Lattice="529.1772105638412 0.0 0.0 0.0 529.1772105638412 0.0 0.0 0.0 529.1772105638412" Properties=species:S:1:pos:R:3:forces_component_raw:R:3 ipi_comment="Step:       17820  Bead:       0 forces_component_raw{ase}  cell{ase}" pbc="T T T"
O        0.00000000       0.00000000       0.00000000       0.29159531       0.66218746      -0.21583420
H        0.00000000       0.00000000       0.00000000       0.16164662       0.19875117      -0.00292194
H        0.00000000       0.00000000       0.00000000      -0.15047208      -0.59453023       0.37833151
O        0.00000000       0.00000000       0.00000000       1.50545526      -1.45072246      -3.47585607
H        0.00000000       0.00000000       0.00000000      -0.24698037      -0.29964012      -0.02394825
H        0.00000000       0.00000000       0.00000000       1.08128536       0.13241228       0.43014634
H        0.00000000       0.00000000       0.00000000      -2.64252997       1.35154188       2.91008282
7
Lattice="529.1772105638412 0.0 0.0 0.0 529.1772105638412 0.0 0.0 0.0 529.1772105638412" Properties=species:S:1:pos:R:3:forces_component_raw:R:3 ipi_comment="Step:       17840  Bead:       0 forces_component_raw{ase}  cell{ase}" pbc="T T T"
O        0.00000000       0.00000000       0.00000000       1.67083466       0.82328284       1.56765664
H        0.00000000       0.00000000       0.00000000      -0.73711664       0.28515995      -0.72647584
H        0.00000000       0.00000000       0.00000000      -0.47870749      -0.66851777      -0.05180067
O        0.00000000       0.00000000       0.00000000      -1.02772546      -0.37298572      -1.36918211
H        0.00000000       0.00000000       0.00000000      -0.13994652      -0.12957791      -0.14629330
H        0.00000000       0.00000000       0.00000000       1.45350612      -0.21033356       0.16012424
H        0.00000000       0.00000000       0.00000000      -0.74084455       0.27297211       0.56597120
7
Lattice="529.1772105638412 0.0 0.0 0.0 529.1772105638412 0.0 0.0 0.0 529.1772105638412" Properties=species:S:1:pos:R:3:forces_component_raw:R:3 ipi_comment="Step:       17860  Bead:       0 forces_component_raw{ase}  cell{ase}" pbc="T T T"
O        0.00000000       0.00000000       0.00000000       0.87525583      -0.11384225       0.44972810
H        0.00000000       0.00000000       0.00000000      -0.66745639       0.73992706      -0.93980408
H        0.00000000       0.00000000       0.00000000      -0.20384705      -0.71267754       0.42804098
O        0.00000000       0.00000000       0.00000000      -1.73398972       0.27595910       0.48311609
H        0.00000000       0.00000000       0.00000000       0.31822479       0.29843456       0.46682763
H        0.00000000       0.00000000       0.00000000       0.48943120      -0.04666813       0.23544283
H        0.00000000       0.00000000       0.00000000       0.92238152      -0.44113255      -1.12335181
7
Lattice="529.1772105638412 0.0 0.0 0.0 529.1772105638412 0.0 0.0 0.0 529.1772105638412" Properties=species:S:1:pos:R:3:forces_component_raw:R:3 ipi_comment="Step:       17880  Bead:       0 forces_component_raw{ase}  cell{ase}" pbc="T T T"
O        0.00000000       0.00000000       0.00000000       1.20404029       0.76081062       0.65607214
H        0.00000000       0.00000000       0.00000000      -0.64523286      -0.00888366      -0.53551835
H        0.00000000       0.00000000       0.00000000      -0.72102678      -0.84893739      -0.10916051
O        0.00000000       0.00000000       0.00000000      -0.68643177       0.25958079       1.96953297
H        0.00000000       0.00000000       0.00000000       0.17132762       0.15993291       0.00138775
H        0.00000000       0.00000000       0.00000000      -0.12781441       0.13601477      -0.05931796
H        0.00000000       0.00000000       0.00000000       0.80513799      -0.45851809      -1.92299605
7
Lattice="529.1772105638412 0.0 0.0 0.0 529.1772105638412 0.0 0.0 0.0 529.1772105638412" Properties=species:S:1:pos:R:3:forces_component_raw:R:3 ipi_comment="Step:       17900  Bead:       0 forces_component_raw{ase}  cell{ase}" pbc="T T T"
O        0.00000000       0.00000000       0.00000000      -0.92874259       0.07473320      -0.80459976
H        0.00000000       0.00000000       0.00000000       0.40308356      -0.24305531       0.09134853
H        0.00000000       0.00000000       0.00000000       0.21540237      -0.06637317       0.23309586
O        0.00000000       0.00000000       0.00000000      -0.40173507       0.20509982       2.54372502
H        0.00000000       0.00000000       0.00000000      -0.21389914      -0.13158704      -0.22903764
H        0.00000000       0.00000000       0.00000000      -0.22652721       0.36176285       0.21084838
H        0.00000000       0.00000000       0.00000000       1.15241802      -0.20058027      -2.04538036
7
Lattice="529.1772105638412 0.0 0.0 0.0 529.1772105638412 0.0 0.0 0.0 529.1772105638412" Properties=species:S:1:pos:R:3:forces_component_raw:R:3 ipi_comment="Step:       17920  Bead:       0 forces_component_raw{ase}  cell{ase}" pbc="T T T"
O        0.00000000       0.00000000       0.00000000      -0.71702087       0.86321354      -0.98143149
H        0.00000000       0.00000000       0.00000000       0.46365231      -1.23406446       0.56739766
H        0.00000000       0.00000000       0.00000000      -0.02382023       0.29048741      -0.02784510
O        0.00000000       0.00000000       0.00000000       0.15185052      -0.15905908       2.11756421
H        0.00000000       0.00000000       0.00000000       0.17269677       0.05621910       0.15436533
H        0.00000000       0.00000000       0.00000000      -0.81943757       0.28578097      -0.06648912
H        0.00000000       0.00000000       0.00000000       0.77207899      -0.10257736      -1.76356125
7
Lattice="529.1772105638412 0.0 0.0 0.0 529.1772105638412 0.0 0.0 0.0 529.1772105638412" Properties=species:S:1:pos:R:3:forces_component_raw:R:3 ipi_comment="Step:       17940  Bead:       0 forces_component_raw{ase}  cell{ase}" pbc="T T T"
O        0.00000000       0.00000000       0.00000000      -1.51891196      -0.29819930      -1.11701787
H        0.00000000       0.00000000       0.00000000       0.98266340      -1.07434690       1.45696616
H        0.00000000       0.00000000       0.00000000       0.62498129       1.38186348      -0.30244517
O        0.00000000       0.00000000       0.00000000       1.36220777       0.40019775       0.62110955
H        0.00000000       0.00000000       0.00000000      -0.20965117      -0.13093707      -0.08946410
H        0.00000000       0.00000000       0.00000000      -1.13650596      -0.11604691      -0.22824337
H        0.00000000       0.00000000       0.00000000      -0.10478357      -0.16253121      -0.34090507
7
Lattice="529.1772105638412 0.0 0.0 0.0 529.1772105638412 0.0 0.0 0.0 529.1772105638412" Properties=species:S:1:pos:R:3:forces_component_raw:R:3 ipi_comment="Step:       17960  Bead:       0 forces_component_raw{ase}  cell{ase}" pbc="T T T"
O        0.00000000       0.00000000       0.00000000      -2.14079571      -1.35762036      -0.93207181
H        0.00000000       0.00000000       0.00000000       1.21061564      -0.54611957       1.50482309
H        0.00000000       0.00000000       0.00000000       0.90116126       1.87956715      -0.72937697
O        0.00000000       0.00000000       0.00000000       1.30970145       0.08135436      -2.00787116
H        0.00000000       0.00000000       0.00000000       0.12738794      -0.08465514       0.19910288
H        0.00000000       0.00000000       0.00000000      -1.09367919      -0.30610558       0.40287471
H        0.00000000       0.00000000       0.00000000      -0.31439138       0.33357909       1.56251955
7
Lattice="529.1772105638412 0.0 0.0 0.0 529.1772105638412 0.0 0.0 0.0 529.1772105638412" Properties=species:S:1:pos:R:3:forces_component_raw:R:3 ipi_comment="Step:       17980  Bead:       0 forces_component_raw{ase}  cell{ase}" pbc="T T T"
O        0.00000000       0.00000000       0.00000000      -0.44624722      -1.16197002       0.93666077
H        0.00000000       0.00000000       0.00000000       0.43002814      -0.18949315       0.76345027
H        0.00000000       0.00000000       0.00000000       0.35802031       1.33429349      -1.31807113
O        0.00000000       0.00000000       0.00000000       2.23114443       0.70284581      -1.73249424
H        0.00000000       0.00000000       0.00000000      -0.65116185      -0.09974276      -0.28787816
H        0.00000000       0.00000000       0.00000000      -0.44636101      -0.59312731      -0.45489329
H        0.00000000       0.00000000       0.00000000      -1.47542274       0.00719385       2.09322596
7
Lattice="529.1772105638412 0.0 0.0 0.0 529.1772105638412 0.0 0.0 0.0 529.1772105638412" Properties=species:S:1:pos:R:3:forces_component_raw:R:3 ipi_comment="Step:       18000  Bead:       0 forces_component_raw{ase}  cell{ase}" pbc="T T T"
O        0.00000000       0.00000000       0.00000000      -1.45240355      -0.71914208      -0.09246060
H        0.00000000       0.00000000       0.00000000       0.45641163      -0.25198171       0.24489611
H        0.00000000       0.00000000       0.00000000       0.70196724       1.04234207      -0.57509411
O        0.00000000       0.00000000       0.00000000       0.52658367      -0.43007165      -1.80270124
H        0.00000000       0.00000000       0.00000000       0.55462444      -0.24103618       0.51550710
H        0.00000000       0.00000000       0.00000000      -0.48649699      -0.14500910       0.54511994
H        0.00000000       0.00000000       0.00000000      -0.30068618       0.74489862       1.16473258
7
Lattice="529.1772105638412 0.0 0.0 0.0 529.1772105638412 0.0 0.0 0.0 529.1772105638412" Properties=species:S:1:pos:R:3:forces_component_raw:R:3 ipi_comment="Step:       18020  Bead:       0 forces_component_raw{ase}  cell{ase}" pbc="T T T"
O        0.00000000       0.00000000       0.00000000       0.09700337      -0.95524943       0.69392610
H        0.00000000       0.00000000       0.00000000      -0.27687794       0.07229608      -0.20213616
H        0.00000000       0.00000000       0.00000000       0.22994027       0.67180383      -0.44974732
O        0.00000000       0.00000000       0.00000000       0.02571172       1.00015223       1.45926309
H        0.00000000       0.00000000       0.00000000      -0.44972718       0.05491954      -0.68185961
H        0.00000000       0.00000000       0.00000000       0.41720784      -0.15289569      -0.71567226
H        0.00000000       0.00000000       0.00000000      -0.04325813      -0.69102675      -0.10377389
7
Lattice="529.1772105638412 0.0 0.0 0.0 529.1772105638412 0.0 0.0 0.0 529.1772105638412" Properties=species:S:1:pos:R:3:forces_component_raw:R:3 ipi_comment="Step:       18040  Bead:       0 forces_component_raw{ase}  cell{ase}" pbc="T T T"
O        0.00000000       0.00000000       0.00000000       0.30557460      -0.64838410       0.00289017
H        0.00000000       0.00000000       0.00000000      -0.56756336       0.33503175      -0.46966136
H        0.00000000       0.00000000       0.00000000       0.16350365       0.26211256       0.13824226
O        0.00000000       0.00000000       0.00000000      -0.75230438      -1.52992261      -0.24869408
H        0.00000000       0.00000000       0.00000000       0.21755417      -0.09593827       0.43975782
H        0.00000000       0.00000000       0.00000000      -0.03606382       0.87834501       0.58167744
H        0.00000000       0.00000000       0.00000000       0.66929919       0.79875577      -0.44421229
7
Lattice="529.1772105638412 0.0 0.0 0.0 529.1772105638412 0.0 0.0 0.0 529.1772105638412" Properties=species:S:1:pos:R:3:forces_component_raw:R:3 ipi_comment="Step:       18060  Bead:       0 forces_component_raw{ase}  cell{ase}" pbc="T T T"
O        0.00000000       0.00000000       0.00000000       0.70798320       0.21924979       0.71232152
H        0.00000000       0.00000000       0.00000000      -0.80884242       0.56157285      -0.56304640
H        0.00000000       0.00000000       0.00000000       0.13284944      -0.85916597      -0.03960896
O        0.00000000       0.00000000       0.00000000      -0.99254221       0.54765475       2.44080639
H        0.00000000       0.00000000       0.00000000      -0.17118117       0.22190419      -0.29946271
H        0.00000000       0.00000000       0.00000000       0.55915594       0.49011326      -1.04418922
H        0.00000000       0.00000000       0.00000000       0.57257730      -1.18132866      -1.20682085
7
Lattice="529.1772105638412 0.0 0.0 0.0 529.1772105638412 0.0 0.0 0.0 529.1772105638412" Properties=species:S:1:pos:R:3:forces_component_raw:R:3 ipi_comment="Step:       18080  Bead:       0 forces_component_raw{ase}  cell{ase}" pbc="T T T"
O        0.00000000       0.00000000       0.00000000       0.77795148       1.45691049       1.67193628
H        0.00000000       0.00000000       0.00000000      -1.34060109       0.69660282      -1.02809572
H        0.00000000       0.00000000       0.00000000       0.56177980      -2.09940768      -0.53932589
O        0.00000000       0.00000000       0.00000000      -0.61030668      -1.31034231       0.01030964
H        0.00000000       0.00000000       0.00000000       0.09956035      -0.11032486       0.17856421
H        0.00000000       0.00000000       0.00000000      -0.03446695       0.36258411       0.88717467
H        0.00000000       0.00000000       0.00000000       0.54608309       1.00397730      -1.18056321
7
Lattice="529.1772105638412 0.0 0.0 0.0 529.1772105638412 0.0 0.0 0.0 529.1772105638412" Properties=species:S:1:pos:R:3:forces_component_raw:R:3 ipi_comment="Step:       18100  Bead:       0 forces_component_raw{ase}  cell{ase}" pbc="T T T"
O        0.00000000       0.00000000       0.00000000      -0.56131166       2.35815383       1.64011002
H        0.00000000       0.00000000       0.00000000      -0.67148876       0.26742786      -0.36727819
H        0.00000000       0.00000000       0.00000000       1.30010939      -2.58537007      -0.93650544
O        0.00000000       0.00000000       0.00000000       0.17441785       0.05332619       1.91277194
H        0.00000000       0.00000000       0.00000000       0.03652129       0.10453109      -0.35641468
H        0.00000000       0.00000000       0.00000000       0.06440100       0.32358062      -0.88983536
H        0.00000000       0.00000000       0.00000000      -0.34264886      -0.52164936      -1.00284815
7
Lattice="529.1772105638412 0.0 0.0 0.0 529.1772105638412 0.0 0.0 0.0 529.1772105638412" Properties=species:S:1:pos:R:3:forces_component_raw:R:3 ipi_comment="Step:       18120  Bead:       0 forces_component_raw{ase}  cell{ase}" pbc="T T T"
O        0.00000000       0.00000000       0.00000000      -2.00369502       1.02627397      -0.08522627
H        0.00000000       0.00000000       0.00000000       0.71209294      -0.06702648       0.39706138
H        0.00000000       0.00000000       0.00000000       1.01877070      -1.14684987      -0.80882764
O        0.00000000       0.00000000       0.00000000      -0.79293877      -0.60303092      -1.37983489
H        0.00000000       0.00000000       0.00000000       0.49230626       0.01088288       0.80051863
H        0.00000000       0.00000000       0.00000000       0.28076494       0.32114035       0.73725599
H        0.00000000       0.00000000       0.00000000       0.29269922       0.45861009       0.33905274
7
Lattice="529.1772105638412 0.0 0.0 0.0 529.1772105638412 0.0 0.0 0.0 529.1772105638412" Properties=species:S:1:pos:R:3:forces_component_raw:R:3 ipi_comment="Step:       18140  Bead:       0 forces_component_raw{ase}  cell{ase}" pbc="T T T"
O        0.00000000       0.00000000       0.00000000      -0.09900507      -0.25333422      -0.75199020
H        0.00000000       0.00000000       0.00000000       0.80500114       0.06053524       0.71406484
H        0.00000000       0.00000000       0.00000000      -0.33434811       0.21784763       0.40309191
O        0.00000000       0.00000000       0.00000000       0.93822158       1.28266585      -0.31577909
H        0.00000000       0.00000000       0.00000000      -0.39604515       0.10253581      -0.87164498
H        0.00000000       0.00000000       0.00000000      -0.29975271      -0.07726160      -0.90796590
H        0.00000000       0.00000000       0.00000000      -0.61407173      -1.33298862       1.73022342
7
Lattice="529.1772105638412 0.0 0.0 0.0 529.1772105638412 0.0 0.0 0.0 529.1772105638412" Properties=species:S:1:pos:R:3:forces_component_raw:R:3 ipi_comment="Step:       18160  Bead:       0 forces_component_raw{ase}  cell{ase}" pbc="T T T"
O        0.00000000       0.00000000       0.00000000       0.43939892      -0.00918519      -1.59647155
H        0.00000000       0.00000000       0.00000000       0.89371407      -0.26418793       0.23411205
H        0.00000000       0.00000000       0.00000000      -0.94479174       0.46215138       1.85728097
O        0.00000000       0.00000000       0.00000000      -0.06883298       1.65392518      -3.98303700
H        0.00000000       0.00000000       0.00000000      -0.15350720      -0.00333571       0.18030092
H        0.00000000       0.00000000       0.00000000      -0.20066033      -0.52198637       0.55748963
H        0.00000000       0.00000000       0.00000000       0.03467926      -1.31738127       2.75032497
7
Lattice="529.1772105638412 0.0 0.0 0.0 529.1772105638412 0.0 0.0 0.0 529.1772105638412" Properties=species:S:1:pos:R:3:forces_component_raw:R:3 ipi_comment="Step:       18180  Bead:       0 forces_component_raw{ase}  cell{ase}" pbc="T T T"
O        0.00000000       0.00000000       0.00000000       1.22193516       0.64052051      -2.50307942
H        0.00000000       0.00000000       0.00000000      -0.08923197      -0.10777177       0.01560833
H        0.00000000       0.00000000       0.00000000      -0.80751646      -0.30463463       2.52629567
O        0.00000000       0.00000000       0.00000000       0.38769645       1.58575201      -1.70489264
H        0.00000000       0.00000000       0.00000000      -0.47294727      -0.38459215       0.33352381
H        0.00000000       0.00000000       0.00000000       0.11386338       0.55874443      -0.69711143
H        0.00000000       0.00000000       0.00000000      -0.35379934      -1.98801864       2.02965594
7
Lattice="529.1772105638412 0.0 0.0 0.0 529.1772105638412 0.0 0.0 0.0 529.1772105638412" Properties=species:S:1:pos:R:3:forces_component_raw:R:3 ipi_comment="Step:       18200  Bead:       0 forces_component_raw{ase}  cell{ase}" pbc="T T T"
O        0.00000000       0.00000000       0.00000000       0.91463822       0.10883901      -1.53903008
H        0.00000000       0.00000000       0.00000000      -0.33417487       0.08283757      -0.50238723
H        0.00000000       0.00000000       0.00000000      -0.58049154      -0.31811002       2.66601134
O        0.00000000       0.00000000       0.00000000      -1.86325503      -1.15964711      -1.75973213
H        0.00000000       0.00000000       0.00000000       0.07004234       0.75755942      -0.40511578
H        0.00000000       0.00000000       0.00000000       1.25364054       0.77460027       0.43724442
H        0.00000000       0.00000000       0.00000000       0.53960055      -0.24607909       1.10300946
7
Lattice="529.1772105638412 0.0 0.0 0.0 529.1772105638412 0.0 0.0 0.0 529.1772105638412" Properties=species:S:1:pos:R:3:forces_component_raw:R:3 ipi_comment="Step:       18220  Bead:       0 forces_component_raw{ase}  cell{ase}" pbc="T T T"
O        0.00000000       0.00000000       0.00000000       1.50171614       0.25210738      -2.12544322
H        0.00000000       0.00000000       0.00000000      -0.78668463       0.27795312      -0.01457860
H        0.00000000       0.00000000       0.00000000      -0.68752700      -0.39871165       1.98188663
O        0.00000000       0.00000000       0.00000000      -0.57427788      -1.37861228       1.25743664
H        0.00000000       0.00000000       0.00000000      -0.23564500      -0.42574018       0.01650828
H        0.00000000       0.00000000       0.00000000       1.37689770       1.41146720      -0.22577927
H        0.00000000       0.00000000       0.00000000      -0.59447968       0.26153627      -0.89003056
7
Lattice="529.1772105638412 0.0 0.0 0.0 529.1772105638412 0.0 0.0 0.0 529.1772105638412" Properties=species:S:1:pos:R:3:forces_component_raw:R:3 ipi_comment="Step:       18240  Bead:       0 forces_component_raw{ase}  cell{ase}" pbc="T T T"
O        0.00000000       0.00000000       0.00000000       1.44742942      -0.31030291      -1.36845506
H        0.00000000       0.00000000       0.00000000      -1.17880988       0.33684921      -0.08012386
H        0.00000000       0.00000000       0.00000000      -0.54744053      -0.12385902       0.94872564
O        0.00000000       0.00000000       0.00000000      -1.04393137      -1.86731029       0.95681668
H        0.00000000       0.00000000       0.00000000       0.19439158       0.05767992       0.07807005
H        0.00000000       0.00000000       0.00000000       0.73162031       0.04428065       0.22505482
H        0.00000000       0.00000000       0.00000000       0.39674059       1.86266232      -0.76008839
7
Lattice="529.1772105638412 0.0 0.0 0.0 529.1772105638412 0.0 0.0 0.0 529.1772105638412" Properties=species:S:1:pos:R:3:forces_component_raw:R:3 ipi_comment="Step:       18260  Bead:       0 forces_component_raw{ase}  cell{ase}" pbc="T T T"
O        0.00000000       0.00000000       0.00000000      -0.21724792      -0.04067785       1.22368610
H        0.00000000       0.00000000       0.00000000      -0.56127787       0.14457306      -0.19200632
H        0.00000000       0.00000000       0.00000000       0.53566814      -0.02988569      -1.10865474
O        0.00000000       0.00000000       0.00000000       1.44624424      -1.45668698       0.70122999
H        0.00000000       0.00000000       0.00000000       0.37819380      -0.16786432      -0.20927097
H        0.00000000       0.00000000       0.00000000      -0.95858145      -0.12205982       0.12488584
H        0.00000000       0.00000000       0.00000000      -0.62299931       1.67260170      -0.53986991
7
Lattice="529.1772105638412 0.0 0.0 0.0 529.1772105638412 0.0 0.0 0.0 529.1772105638412" Properties=species:S:1:pos:R:3:forces_component_raw:R:3 ipi_comment="Step:       18280  Bead:       0 forces_component_raw{ase}  cell{ase}" pbc="T T T"
O        0.00000000       0.00000000       0.00000000      -1.54734278       0.30909777       2.51910997
H        0.00000000       0.00000000       0.00000000       0.10907251       0.08892301       0.30784381
H        0.00000000       0.00000000       0.00000000       1.58325923      -0.39100739      -2.70640135
O        0.00000000       0.00000000       0.00000000       0.82128990       0.22627777      -1.23318839
H        0.00000000       0.00000000       0.00000000       0.03490323       0.18358089       0.35536343
H        0.00000000       0.00000000       0.00000000      -1.21137977      -1.09905195       0.74782479
H        0.00000000       0.00000000       0.00000000       0.21019775       0.68217993       0.00944766
7
Lattice="529.1772105638412 0.0 0.0 0.0 529.1772105638412 0.0 0.0 0.0 529.1772105638412" Properties=species:S:1:pos:R:3:forces_component_raw:R:3 ipi_comment="Step:       18300  Bead:       0 forces_component_raw{ase}  cell{ase}" pbc="T T T"
O        0.00000000       0.00000000       0.00000000      -1.88555682       1.07137859       3.48382188
H        0.00000000       0.00000000       0.00000000       1.19190467      -0.35008258      -0.16298382
H        0.00000000       0.00000000       0.00000000       0.90103477      -0.53977072      -2.92852975
O        0.00000000       0.00000000       0.00000000       2.05710912       1.63751150       0.53294206
H        0.00000000       0.00000000       0.00000000      -0.24751693      -0.37683272      -0.72132003
H        0.00000000       0.00000000       0.00000000      -1.75372863      -0.87869990      -0.22082475
H        0.00000000       0.00000000       0.00000000      -0.26324621      -0.56350416       0.01689392
7
Lattice="529.1772105638412 0.0 0.0 0.0 529.1772105638412 0.0 0.0 0.0 529.1772105638412" Properties=species:S:1:pos:R:3:forces_component_raw:R:3 ipi_comment="Step:       18320  Bead:       0 forces_component_raw{ase}  cell{ase}" pbc="T T T"
O        0.00000000       0.00000000       0.00000000      -1.45685780       0.83186537       1.67214370
H        0.00000000       0.00000000       0.00000000       1.68511939      -0.64089233       0.02794863
H        0.00000000       0.00000000       0.00000000       0.44670275      -0.15680681      -1.17680514
O        0.00000000       0.00000000       0.00000000      -0.55402345       1.20245445      -1.58774996
H        0.00000000       0.00000000       0.00000000      -0.34080848       0.42638779       0.38310576
H        0.00000000       0.00000000       0.00000000      -0.47542983      -0.98755193      -0.02595814
H        0.00000000       0.00000000       0.00000000       0.69529742      -0.67545658       0.70731515
7
Lattice="529.1772105638412 0.0 0.0 0.0 529.1772105638412 0.0 0.0 0.0 529.1772105638412" Properties=species:S:1:pos:R:3:forces_component_raw:R:3 ipi_comment="Step:       18340  Bead:       0 forces_component_raw{ase}  cell{ase}" pbc="T T T"
O        0.00000000       0.00000000       0.00000000      -0.70071697       0.33256164       0.36142811
H        0.00000000       0.00000000       0.00000000       0.69762880      -0.49193061      -0.81587839
H        0.00000000       0.00000000       0.00000000      -0.31262082       0.34424558       0.81389743
O        0.00000000       0.00000000       0.00000000      -0.12498856      -0.34844625       0.55896181
H        0.00000000       0.00000000       0.00000000       0.34728816      -0.28023604      -0.60432583
H        0.00000000       0.00000000       0.00000000       0.34381089       1.03805137      -0.25425804
H        0.00000000       0.00000000       0.00000000      -0.25040144      -0.59424561      -0.05982506
7
Lattice="529.1772105638412 0.0 0.0 0.0 529.1772105638412 0.0 0.0 0.0 529.1772105638412" Properties=species:S:1:pos:R:3:forces_component_raw:R:3 ipi_comment="Step:       18360  Bead:       0 forces_component_raw{ase}  cell{ase}" pbc="T T T"
O        0.00000000       0.00000000       0.00000000      -0.28331751      -0.36665326      -3.03270007
H        0.00000000       0.00000000       0.00000000       0.56831968      -0.06690481       0.13884430
H        0.00000000       0.00000000       0.00000000      -0.60374898       0.11804375       1.79976392
O        0.00000000       0.00000000       0.00000000      -0.49621993      -2.16033555       0.65273124
H        0.00000000       0.00000000       0.00000000      -0.45884863      -0.01139133       0.60895133
H        0.00000000       0.00000000       0.00000000       1.49943352       1.79530716       0.24164572
H        0.00000000       0.00000000       0.00000000      -0.22561827       0.69193435      -0.40923625
7
Lattice="529.1772105638412 0.0 0.0 0.0 529.1772105638412 0.0 0.0 0.0 529.1772105638412" Properties=species:S:1:pos:R:3:forces_component_raw:R:3 ipi_comment="Step:       18380  Bead:       0 forces_component_raw{ase}  cell{ase}" pbc="T T T"
O        0.00000000       0.00000000       0.00000000       0.26861101      -0.42173022      -2.38894105
H        0.00000000       0.00000000       0.00000000      -0.97486282       0.16457628       0.03403530
H        0.00000000       0.00000000       0.00000000      -0.24726212       0.02617525       1.94094730
O        0.00000000       0.00000000       0.00000000      -0.23198354      -2.61569834       1.46266997
H        0.00000000       0.00000000       0.00000000       0.57501817       0.19347706      -0.32135844
H        0.00000000       0.00000000       0.00000000       1.28835643       2.17080141      -0.32928962
H        0.00000000       0.00000000       0.00000000      -0.67787719       0.48239872      -0.39806342
7
Lattice="529.1772105638412 0.0 0.0 0.0 529.1772105638412 0.0 0.0 0.0 529.1772105638412" Properties=species:S:1:pos:R:3:forces_component_raw:R:3 ipi_comment="Step:       18400  Bead:       0 forces_component_raw{ase}  cell{ase}" pbc="T T T"
O        0.00000000       0.00000000       0.00000000       3.73066402      -0.33290297      -0.81826526
H        0.00000000       0.00000000       0.00000000      -2.51706410       0.45406330       0.24922481
H        0.00000000       0.00000000       0.00000000      -0.76488447      -0.07694473       0.58807612
O        0.00000000       0.00000000       0.00000000      -0.89656562      -1.00759220      -0.32513902
H        0.00000000       0.00000000       0.00000000      -0.24568999      -0.10410538       0.37690422
H        0.00000000       0.00000000       0.00000000       0.78076220       0.67734528       0.05222365
H        0.00000000       0.00000000       0.00000000      -0.08722192       0.39013642      -0.12302426
7
Lattice="529.1772105638412 0.0 0.0 0.0 529.1772105638412 0.0 0.0 0.0 529.1772105638412" Properties=species:S:1:pos:R:3:forces_component_raw:R:3 ipi_comment="Step:       18420  Bead:       0 forces_component_raw{ase}  cell{ase}" pbc="T T T"
O        0.00000000       0.00000000       0.00000000       1.72966361      -0.21283482       0.10380846
H        0.00000000       0.00000000       0.00000000      -2.16924334       0.13722034       1.08568812
H        0.00000000       0.00000000       0.00000000       0.75388587       0.15946981      -0.78720766
O        0.00000000       0.00000000       0.00000000       0.30273533      -0.69583810       0.34102565
H        0.00000000       0.00000000       0.00000000      -0.01024938       0.13999428      -0.45508173
H        0.00000000       0.00000000       0.00000000      -0.25293189       0.26900780      -0.26500350
H        0.00000000       0.00000000       0.00000000      -0.35386008       0.20298070      -0.02322933
7
Lattice="529.1772105638412 0.0 0.0 0.0 529.1772105638412 0.0 0.0 0.0 529.1772105638412" Properties=species:S:1:pos:R:3:forces_component_raw:R:3 ipi_comment="Step:       18440  Bead:       0 forces_component_raw{ase}  cell{ase}" pbc="T T T"
O        0.00000000       0.00000000       0.00000000       1.45204068      -0.86865032       2.43842722
H        0.00000000       0.00000000       0.00000000      -0.69565714       0.32072002      -0.35622218
H        0.00000000       0.00000000       0.00000000      -0.41756597       0.94690466      -1.76023066
O        0.00000000       0.00000000       0.00000000      -0.55051112       0.85436899      -0.66213560
H        0.00000000       0.00000000       0.00000000      -0.00590467      -0.43195599       0.01125252
H        0.00000000       0.00000000       0.00000000      -0.31219232      -0.87684709       0.27434701
H        0.00000000       0.00000000       0.00000000       0.52979046       0.05545974       0.05456176
7
Lattice="529.1772105638412 0.0 0.0 0.0 529.1772105638412 0.0 0.0 0.0 529.1772105638412" Properties=species:S:1:pos:R:3:forces_component_raw:R:3 ipi_comment="Step:       18460  Bead:       0 forces_component_raw{ase}  cell{ase}" pbc="T T T"
O        0.00000000       0.00000000       0.00000000      -2.02408934      -1.01367665       0.88882411
H        0.00000000       0.00000000       0.00000000       0.52399552      -0.30877891       0.41764361
H        0.00000000       0.00000000       0.00000000       0.64273179       0.84443259      -1.87476981
O        0.00000000       0.00000000       0.00000000       1.86922527       1.07936967      -0.43430823
H        0.00000000       0.00000000       0.00000000       0.68707270       0.63584662       0.47577757
H        0.00000000       0.00000000       0.00000000      -1.54468286      -0.41243407       0.11319062
H        0.00000000       0.00000000       0.00000000      -0.15425296      -0.82475937       0.41364226
7
Lattice="529.1772105638412 0.0 0.0 0.0 529.1772105638412 0.0 0.0 0.0 529.1772105638412" Properties=species:S:1:pos:R:3:forces_component_raw:R:3 ipi_comment="Step:       18480  Bead:       0 forces_component_raw{ase}  cell{ase}" pbc="T T T"
O        0.00000000       0.00000000       0.00000000       0.24555495      -0.34500551       1.11947704
H        0.00000000       0.00000000       0.00000000       0.18860294       0.19108705      -1.15357280
H        0.00000000       0.00000000       0.00000000      -0.70362550       0.25275165      -0.24299783
O        0.00000000       0.00000000       0.00000000       1.63694513       2.59377289       0.00725895
H        0.00000000       0.00000000       0.00000000      -0.96892524      -0.76383782      -0.57507587
H        0.00000000       0.00000000       0.00000000      -0.85660947      -1.58861900       0.82139480
H        0.00000000       0.00000000       0.00000000       0.45805740      -0.34014922       0.02351594
7
Lattice="529.1772105638412 0.0 0.0 0.0 529.1772105638412 0.0 0.0 0.0 529.1772105638412" Properties=species:S:1:pos:R:3:forces_component_raw:R:3 ipi_comment="Step:       18500  Bead:       0 forces_component_raw{ase}  cell{ase}" pbc="T T T"
O        0.00000000       0.00000000       0.00000000      -2.79614282       0.35238487      -1.09097791
H        0.00000000       0.00000000       0.00000000       0.84149999      -0.46486408       0.30381927
H        0.00000000       0.00000000       0.00000000       1.07861078      -0.26052204       0.40989187
O        0.00000000       0.00000000       0.00000000       1.44564557       0.51412594       0.65646833
H        0.00000000       0.00000000       0.00000000       0.89094830       0.37515652       0.24191655
H        0.00000000       0.00000000       0.00000000      -1.22963906      -0.96977937      -0.21214619
H        0.00000000       0.00000000       0.00000000      -0.23092294       0.45349810      -0.30897209
7
Lattice="529.1772105638412 0.0 0.0 0.0 529.1772105638412 0.0 0.0 0.0 529.1772105638412" Properties=species:S:1:pos:R:3:forces_component_raw:R:3 ipi_comment="Step:       18520  Bead:       0 forces_component_raw{ase}  cell{ase}" pbc="T T T"
O        0.00000000       0.00000000       0.00000000       1.06375265       0.50932872       0.35507613
H        0.00000000       0.00000000       0.00000000       0.54241383       0.36748219      -0.78661931
H        0.00000000       0.00000000       0.00000000      -0.95402420      -0.35245720       0.58217311
O        0.00000000       0.00000000       0.00000000       0.28788969      -1.03279925       0.38300389
H        0.00000000       0.00000000       0.00000000      -0.27121782      -0.48317003       0.17283054
H        0.00000000       0.00000000       0.00000000      -0.35124654      -0.18928158      -0.22984205
H        0.00000000       0.00000000       0.00000000      -0.31756747       1.18089748      -0.47662246
7
Lattice="529.1772105638412 0.0 0.0 0.0 529.1772105638412 0.0 0.0 0.0 529.1772105638412" Properties=species:S:1:pos:R:3:forces_component_raw:R:3 ipi_comment="Step:       18540  Bead:       0 forces_component_raw{ase}  cell{ase}" pbc="T T T"
O        0.00000000       0.00000000       0.00000000      -0.84572566       0.70237744      -0.98050642
H        0.00000000       0.00000000       0.00000000       0.20523024      -0.24875321       0.36609352
H        0.00000000       0.00000000       0.00000000       0.55735910      -0.47663975       1.03653491
O        0.00000000       0.00000000       0.00000000      -0.84791982      -2.31500817      -0.02935785
H        0.00000000       0.00000000       0.00000000       0.55570650       0.21048951      -0.27117980
H        0.00000000       0.00000000       0.00000000       0.75556362       1.06108046       0.15633042
H        0.00000000       0.00000000       0.00000000      -0.38021404       1.06645346      -0.27791494
7
Lattice="529.1772105638412 0.0 0.0 0.0 529.1772105638412 0.0 0.0 0.0 529.1772105638412" Properties=species:S:1:pos:R:3:forces_component_raw:R:3 ipi_comment="Step:       18560  Bead:       0 forces_component_raw{ase}  cell{ase}" pbc="T T T"
O        0.00000000       0.00000000       0.00000000       1.37053466       0.23521948      -0.62551004
H        0.00000000       0.00000000       0.00000000      -0.36751318       0.25199074      -0.04148820
H        0.00000000       0.00000000       0.00000000      -0.66718757      -0.26898837       0.39383510
O        0.00000000       0.00000000       0.00000000      -0.89238841      -1.85123551      -0.28921086
H        0.00000000       0.00000000       0.00000000      -0.37702188      -0.29005668       0.36917466
H        0.00000000       0.00000000       0.00000000       1.09105778       1.67203403       0.24848424
H        0.00000000       0.00000000       0.00000000      -0.15748160       0.25103629      -0.05528486
7
Lattice="529.1772105638412 0.0 0.0 0.0 529.1772105638412 0.0 0.0 0.0 529.1772105638412" Properties=species:S:1:pos:R:3:forces_component_raw:R:3 ipi_comment="Step:       18580  Bead:       0 forces_component_raw{ase}  cell{ase}" pbc="T T T"
O        0.00000000       0.00000000       0.00000000      -0.03462011      -0.35863653      -0.10773492
H        0.00000000       0.00000000       0.00000000      -0.72784794       0.04328392       0.14090291
H        0.00000000       0.00000000       0.00000000       0.22644579       0.10608775      -0.22797382
O        0.00000000       0.00000000       0.00000000      -0.62754715      -0.93741113       0.13215715
H        0.00000000       0.00000000       0.00000000       0.13707541       0.37691033      -0.20639400
H        0.00000000       0.00000000       0.00000000       0.55513048       1.13977051       0.04062946
H        0.00000000       0.00000000       0.00000000       0.47136340      -0.37000489       0.22841311
7
Lattice="529.1772105638412 0.0 0.0 0.0 529.1772105638412 0.0 0.0 0.0 529.1772105638412" Properties=species:S:1:pos:R:3:forces_component_raw:R:3 ipi_comment="Step:       18600  Bead:       0 forces_component_raw{ase}  cell{ase}" pbc="T T T"
O        0.00000000       0.00000000       0.00000000       0.29905537      -0.21319047       1.37496519
H        0.00000000       0.00000000       0.00000000      -0.73311520       0.01065974      -0.03748363
H        0.00000000       0.00000000       0.00000000       0.18353768       0.20896085      -1.41775751
O        0.00000000       0.00000000       0.00000000      -0.59328169      -0.11449143      -0.00947767
H        0.00000000       0.00000000       0.00000000      -0.24513260      -0.34457082      -0.29893467
H        0.00000000       0.00000000       0.00000000       0.18951328       1.49717033       0.33712331
H        0.00000000       0.00000000       0.00000000       0.89942312      -1.04453814       0.05156486
7
Lattice="529.1772105638412 0.0 0.0 0.0 529.1772105638412 0.0 0.0 0.0 529.1772105638412" Properties=species:S:1:pos:R:3:forces_component_raw:R:3 ipi_comment="Step:       18620  Bead:       0 forces_component_raw{ase}  cell{ase}" pbc="T T T"
O        0.00000000       0.00000000       0.00000000      -1.15400911       0.17259803       1.42354393
H        0.00000000       0.00000000       0.00000000       0.46663630       0.06825051       0.24885114
H        0.00000000       0.00000000       0.00000000       0.75742674      -0.29404146      -1.70917273
O        0.00000000       0.00000000       0.00000000      -0.73989916      -1.29617143      -0.67735541
H        0.00000000       0.00000000       0.00000000      -0.01053828       0.28398585       0.33872065
H        0.00000000       0.00000000       0.00000000       0.17895669       1.17620099       0.21952519
H        0.00000000       0.00000000       0.00000000       0.50142670      -0.11082238       0.15588708
7
Lattice="529.1772105638412 0.0 0.0 0.0 529.1772105638412 0.0 0.0 0.0 529.1772105638412" Properties=species:S:1:pos:R:3:forces_component_raw:R:3 ipi_comment="Step:       18640  Bead:       0 forces_component_raw{ase}  cell{ase}" pbc="T T T"
O        0.00000000       0.00000000       0.00000000      -1.61085058       0.43142015       1.64027882
H        0.00000000       0.00000000       0.00000000       1.48220444       0.47246218      -0.11073411
H        0.00000000       0.00000000       0.00000000       0.54546929      -0.71419323      -1.18728566
O        0.00000000       0.00000000       0.00000000      -0.09950456      -0.19954470      -0.03213036
H        0.00000000       0.00000000       0.00000000      -0.04863045      -0.25117531      -0.10796811
H        0.00000000       0.00000000       0.00000000      -0.17249709       0.49925622       0.10605738
H        0.00000000       0.00000000       0.00000000      -0.09619108      -0.23822528      -0.30821794
7
Lattice="529.1772105638412 0.0 0.0 0.0 529.1772105638412 0.0 0.0 0.0 529.1772105638412" Properties=species:S:1:pos:R:3:forces_component_raw:R:3 ipi_comment="Step:       18660  Bead:       0 forces_component_raw{ase}  cell{ase}" pbc="T T T"
O        0.00000000       0.00000000       0.00000000      -0.93739784      -2.26251603       0.39304563
H        0.00000000       0.00000000       0.00000000       1.24263835       1.48892403      -0.15688571
H        0.00000000       0.00000000       0.00000000      -0.09087884       0.62412828      -0.02581117
O        0.00000000       0.00000000       0.00000000       0.00344667       0.12757537       0.29593250
H        0.00000000       0.00000000       0.00000000       0.02285724       0.14431700      -0.17082365
H        0.00000000       0.00000000       0.00000000       0.52352178      -0.54976809      -0.15775485
H        0.00000000       0.00000000       0.00000000      -0.76418740       0.42733944      -0.17770289
7
Lattice="529.1772105638412 0.0 0.0 0.0 529.1772105638412 0.0 0.0 0.0 529.1772105638412" Properties=species:S:1:pos:R:3:forces_component_raw:R:3 ipi_comment="Step:       18680  Bead:       0 forces_component_raw{ase}  cell{ase}" pbc="T T T"
O        0.00000000       0.00000000       0.00000000      -1.06638003      -1.05709040      -0.10661989
H        0.00000000       0.00000000       0.00000000       1.56742847       0.70314181      -0.80694097
H        0.00000000       0.00000000       0.00000000      -0.83022553       0.20389906       0.36581186
O        0.00000000       0.00000000       0.00000000       0.71781910       1.07001281       1.60350788
H        0.00000000       0.00000000       0.00000000       0.12045162      -0.03441809       0.11632353
H        0.00000000       0.00000000       0.00000000       0.02004363      -0.92246080      -0.91591495
H        0.00000000       0.00000000       0.00000000      -0.52913725       0.03691578      -0.25616738
7
Lattice="529.1772105638412 0.0 0.0 0.0 529.1772105638412 0.0 0.0 0.0 529.1772105638412" Properties=species:S:1:pos:R:3:forces_component_raw:R:3 ipi_comment="Step:       18700  Bead:       0 forces_component_raw{ase}  cell{ase}" pbc="T T T"
O        0.00000000       0.00000000       0.00000000      -0.56642807      -1.33608055      -1.27149415
H        0.00000000       0.00000000       0.00000000       1.05036700       0.62298620      -0.14278480
H        0.00000000       0.00000000       0.00000000      -0.70095867       1.03361869       1.17673147
O        0.00000000       0.00000000       0.00000000      -0.04557365       1.26621771       0.94120532
H        0.00000000       0.00000000       0.00000000      -0.00043912      -0.44379628       0.19593595
H        0.00000000       0.00000000       0.00000000       0.16201785      -1.28918958      -1.13902796
H        0.00000000       0.00000000       0.00000000       0.10101479       0.14624375       0.23943430
7
Lattice="529.1772105638412 0.0 0.0 0.0 529.1772105638412 0.0 0.0 0.0 529.1772105638412" Properties=species:S:1:pos:R:3:forces_component_raw:R:3 ipi_comment="Step:       18720  Bead:       0 forces_component_raw{ase}  cell{ase}" pbc="T T T"
O        0.00000000       0.00000000       0.00000000      -0.30720741      -0.65507817      -0.05566216
H        0.00000000       0.00000000       0.00000000       0.31133664       0.07286311      -0.43239352
H        0.00000000       0.00000000       0.00000000      -0.43775982       0.53174949       0.86019850
O        0.00000000       0.00000000       0.00000000      -0.12953234       0.74985337       0.55726886
H        0.00000000       0.00000000       0.00000000       0.26366529       0.53960979      -0.42855120
H        0.00000000       0.00000000       0.00000000      -0.03970291      -1.41542518      -0.86243499
H        0.00000000       0.00000000       0.00000000       0.33920047       0.17642772       0.36157459
7
Lattice="529.1772105638412 0.0 0.0 0.0 529.1772105638412 0.0 0.0 0.0 529.1772105638412" Properties=species:S:1:pos:R:3:forces_component_raw:R:3 ipi_comment="Step:       18740  Bead:       0 forces_component_raw{ase}  cell{ase}" pbc="T T T"
O        0.00000000       0.00000000       0.00000000       0.92985672       0.59360230       0.23117650
H        0.00000000       0.00000000       0.00000000      -0.33393341      -0.23444010       0.00197378
H        0.00000000       0.00000000       0.00000000      -0.27373430      -0.04658947       0.01312307
O        0.00000000       0.00000000       0.00000000       0.02585058       1.01467753      -0.97310776
H        0.00000000       0.00000000       0.00000000      -0.14500523      -0.67797172       0.34740806
H        0.00000000       0.00000000       0.00000000      -0.08609128      -0.45409882       0.37948936
H        0.00000000       0.00000000       0.00000000      -0.11694306      -0.19517976      -0.00006300
7
Lattice="529.1772105638412 0.0 0.0 0.0 529.1772105638412 0.0 0.0 0.0 529.1772105638412" Properties=species:S:1:pos:R:3:forces_component_raw:R:3 ipi_comment="Step:       18760  Bead:       0 forces_component_raw{ase}  cell{ase}" pbc="T T T"
O        0.00000000       0.00000000       0.00000000       1.00042212       0.67343336       1.24691057
H        0.00000000       0.00000000       0.00000000      -1.10492444      -0.40079802      -0.01556443
H        0.00000000       0.00000000       0.00000000       0.53733570      -0.43079192      -0.78638911
O        0.00000000       0.00000000       0.00000000      -0.19072273      -0.86606372      -0.38543707
H        0.00000000       0.00000000       0.00000000      -0.11098567       0.64829701       0.05183794
H        0.00000000       0.00000000       0.00000000      -0.03474090       0.51646984      -0.03106192
H        0.00000000       0.00000000       0.00000000      -0.09638402      -0.14054665      -0.08029592
7
Lattice="529.1772105638412 0.0 0.0 0.0 529.1772105638412 0.0 0.0 0.0 529.1772105638412" Properties=species:S:1:pos:R:3:forces_component_raw:R:3 ipi_comment="Step:       18780  Bead:       0 forces_component_raw{ase}  cell{ase}" pbc="T T T"
O        0.00000000       0.00000000       0.00000000       0.55081141       0.78796923       0.85148889
H        0.00000000       0.00000000       0.00000000      -1.74405051      -0.56309641      -0.14141533
H        0.00000000       0.00000000       0.00000000       0.94600415      -0.34173986      -0.84302432
O        0.00000000       0.00000000       0.00000000      -0.30701017      -0.14759761       0.51694197
H        0.00000000       0.00000000       0.00000000       0.37024123      -0.34938282      -0.41738296
H        0.00000000       0.00000000       0.00000000       0.18751559       0.72262335       0.20386367
H        0.00000000       0.00000000       0.00000000      -0.00351161      -0.10877585      -0.17047197
7
Lattice="529.1772105638412 0.0 0.0 0.0 529.1772105638412 0.0 0.0 0.0 529.1772105638412" Properties=species:S:1:pos:R:3:forces_component_raw:R:3 ipi_comment="Step:       18800  Bead:       0 forces_component_raw{ase}  cell{ase}" pbc="T T T"
O        0.00000000       0.00000000       0.00000000      -0.12480482       0.69867200       0.39599252
H        0.00000000       0.00000000       0.00000000      -0.60561621      -0.47573310      -0.11468889
H        0.00000000       0.00000000       0.00000000       0.60043925      -0.56788808      -1.22047091
O        0.00000000       0.00000000       0.00000000       0.93299973      -0.91413707       0.33003986
H        0.00000000       0.00000000       0.00000000      -0.27947205       0.45688403       0.52263647
H        0.00000000       0.00000000       0.00000000       0.08637787       0.31511998       0.05632949
H        0.00000000       0.00000000       0.00000000      -0.60992372       0.48708224       0.03016150
7
Lattice="529.1772105638412 0.0 0.0 0.0 529.1772105638412 0.0 0.0 0.0 529.1772105638412" Properties=species:S:1:pos:R:3:forces_component_raw:R:3 ipi_comment="Step:       18820  Bead:       0 forces_component_raw{ase}  cell{ase}" pbc="T T T"
O        0.00000000       0.00000000       0.00000000      -1.21493626       0.14874464       0.33284569
H        0.00000000       0.00000000       0.00000000      -0.23955715       0.07938001       0.05923810
H        0.00000000       0.00000000       0.00000000       0.93369055      -0.25896740      -0.67368043
O        0.00000000       0.00000000       0.00000000       0.78462708       0.14991333       0.71396923
H        0.00000000       0.00000000       0.00000000       0.50528777      -0.19461228      -0.11060851
H        0.00000000       0.00000000       0.00000000      -0.17049792      -0.37830162      -0.05130005
H        0.00000000       0.00000000       0.00000000      -0.59861410       0.45384324      -0.27046427
7
Lattice="529.1772105638412 0.0 0.0 0.0 529.1772105638412 0.0 0.0 0.0 529.1772105638412" Properties=species:S:1:pos:R:3:forces_component_raw:R:3 ipi_comment="Step:       18840  Bead:       0 forces_component_raw{ase}  cell{ase}" pbc="T T T"
O        0.00000000       0.00000000       0.00000000       1.33769954       0.49064559       0.02877200
H        0.00000000       0.00000000       0.00000000      -0.57921022      -0.47155547      -0.02981178
H        0.00000000       0.00000000       0.00000000      -0.40449366       0.09094861       0.18528470
O        0.00000000       0.00000000       0.00000000       0.58303666      -0.51841515       0.12063170
H        0.00000000       0.00000000       0.00000000      -0.56038517       0.02992591      -0.02488668
H        0.00000000       0.00000000       0.00000000      -0.04643964      -0.50673354      -0.00872239
H        0.00000000       0.00000000       0.00000000      -0.33020726       0.88518417      -0.27126762
7
Lattice="529.1772105638412 0.0 0.0 0.0 529.1772105638412 0.0 0.0 0.0 529.1772105638412" Properties=species:S:1:pos:R:3:forces_component_raw:R:3 ipi_comment="Step:       18860  Bead:       0 forces_component_raw{ase}  cell{ase}" pbc="T T T"
O        0.00000000       0.00000000       0.00000000       1.29704786      -0.00437726      -0.35197222
H        0.00000000       0.00000000       0.00000000      -0.96378887      -0.43208879       0.18044242
H        0.00000000       0.00000000       0.00000000      -0.30525887       0.71151912       0.83506251
O        0.00000000       0.00000000       0.00000000       0.36557669      -0.47705805       0.19888955
H        0.00000000       0.00000000       0.00000000       0.21331568      -0.05697376      -0.01152470
H        0.00000000       0.00000000       0.00000000      -0.22925346      -0.04093784      -0.24701238
H        0.00000000       0.00000000       0.00000000      -0.37763897       0.29991636      -0.60388529
7
Lattice="529.1772105638412 0.0 0.0 0.0 529.1772105638412 0.0 0.0 0.0 529.1772105638412" Properties=species:S:1:pos:R:3:forces_component_raw:R:3 ipi_comment="Step:       18880  Bead:       0 forces_component_raw{ase}  cell{ase}" pbc="T T T"
O        0.00000000       0.00000000       0.00000000       1.16845274      -0.06675693       0.26775745
H        0.00000000       0.00000000       0.00000000       0.30507928      -0.05672239      -0.17231099
H        0.00000000       0.00000000       0.00000000      -1.12348747       0.29432529       0.55076200
O        0.00000000       0.00000000       0.00000000      -0.83195985      -0.89057458      -0.98229486
H        0.00000000       0.00000000       0.00000000      -0.21248642       0.20688173       0.02736469
H        0.00000000       0.00000000       0.00000000       0.50120747       0.34101093       0.19940960
H        0.00000000       0.00000000       0.00000000       0.19319439       0.17183602       0.10931206
7
Lattice="529.1772105638412 0.0 0.0 0.0 529.1772105638412 0.0 0.0 0.0 529.1772105638412" Properties=species:S:1:pos:R:3:forces_component_raw:R:3 ipi_comment="Step:       18900  Bead:       0 forces_component_raw{ase}  cell{ase}" pbc="T T T"
O        0.00000000       0.00000000       0.00000000      -1.26872373      -1.45798958      -0.20000523
H        0.00000000       0.00000000       0.00000000       1.38881302       1.30279446       0.38367045
H        0.00000000       0.00000000       0.00000000       0.00155208       0.46828315       0.40851441
O        0.00000000       0.00000000       0.00000000      -0.15339819       0.32575226      -1.16177893
H        0.00000000       0.00000000       0.00000000       0.10050434      -0.07501432      -0.01535040
H        0.00000000       0.00000000       0.00000000       0.09606421       0.28242317      -0.27575779
H        0.00000000       0.00000000       0.00000000      -0.16481166      -0.84624911       0.86070764
7
Lattice="529.1772105638412 0.0 0.0 0.0 529.1772105638412 0.0 0.0 0.0 529.1772105638412" Properties=species:S:1:pos:R:3:forces_component_raw:R:3 ipi_comment="Step:       18920  Bead:       0 forces_component_raw{ase}  cell{ase}" pbc="T T T"
O        0.00000000       0.00000000       0.00000000      -1.66711843      -0.35196409       0.23998812
H        0.00000000       0.00000000       0.00000000       1.40961457       0.60133696      -0.04863442
H        0.00000000       0.00000000       0.00000000       0.18796033      -0.43487787      -0.39340043
O        0.00000000       0.00000000       0.00000000      -0.25016743       0.72851837      -1.07470274
H        0.00000000       0.00000000       0.00000000      -0.02318415       0.07637826      -0.36920250
H        0.00000000       0.00000000       0.00000000       0.00990540      -0.15750361       0.34850979
H        0.00000000       0.00000000       0.00000000       0.33298981      -0.46188799       1.29744208
7
Lattice="529.1772105638412 0.0 0.0 0.0 529.1772105638412 0.0 0.0 0.0 529.1772105638412" Properties=species:S:1:pos:R:3:forces_component_raw:R:3 ipi_comment="Step:       18940  Bead:       0 forces_component_raw{ase}  cell{ase}" pbc="T T T"
O        0.00000000       0.00000000       0.00000000      -1.84662283      -0.79352975      -1.01568842
H        0.00000000       0.00000000       0.00000000       1.05380941       0.69742060       0.43177474
H        0.00000000       0.00000000       0.00000000       0.72614879      -0.40655363      -0.49987424
O        0.00000000       0.00000000       0.00000000       0.62417257       1.33221090       0.43110120
H        0.00000000       0.00000000       0.00000000      -0.12149575       0.07434738       0.20939125
H        0.00000000       0.00000000       0.00000000      -0.38567609      -0.40118593      -0.23749141
H        0.00000000       0.00000000       0.00000000      -0.05033590      -0.50270939       0.68078673
7
Lattice="529.1772105638412 0.0 0.0 0.0 529.1772105638412 0.0 0.0 0.0 529.1772105638412" Properties=species:S:1:pos:R:3:forces_component_raw:R:3 ipi_comment="Step:       18960  Bead:       0 forces_component_raw{ase}  cell{ase}" pbc="T T T"
O        0.00000000       0.00000000       0.00000000      -0.09075801       0.70406222       0.40417403
H        0.00000000       0.00000000       0.00000000      -0.57925260      -0.36187124      -0.21757485
H        0.00000000       0.00000000       0.00000000       0.52067840      -0.43976146      -0.36898518
O        0.00000000       0.00000000       0.00000000       0.01595309       0.07689518       0.98551709
H        0.00000000       0.00000000       0.00000000       0.19580764      -0.01412253      -0.24687277
H        0.00000000       0.00000000       0.00000000      -0.26440996      -0.75312972       0.18430007
H        0.00000000       0.00000000       0.00000000       0.20198159       0.78792757      -0.74055851
7
Lattice="529.1772105638412 0.0 0.0 0.0 529.1772105638412 0.0 0.0 0.0 529.1772105638412" Properties=species:S:1:pos:R:3:forces_component_raw:R:3 ipi_comment="Step:       18980  Bead:       0 forces_component_raw{ase}  cell{ase}" pbc="T T T"
O        0.00000000       0.00000000       0.00000000       2.49486065       1.66560007       0.85736013
H        0.00000000       0.00000000       0.00000000      -2.19429994      -1.10144449      -0.24251677
H        0.00000000       0.00000000       0.00000000      -0.01024884       0.04704618       0.03383887
O        0.00000000       0.00000000       0.00000000       0.22040062      -1.53102696       1.39645505
H        0.00000000       0.00000000       0.00000000      -0.19383940      -0.16508648       0.11906484
H        0.00000000       0.00000000       0.00000000       0.05543344      -0.04931682      -0.12029158
H        0.00000000       0.00000000       0.00000000      -0.37230647       1.13422847      -2.04391075
7
Lattice="529.1772105638412 0.0 0.0 0.0 529.1772105638412 0.0 0.0 0.0 529.1772105638412" Properties=species:S:1:pos:R:3:forces_component_raw:R:3 ipi_comment="Step:       19000  Bead:       0 forces_component_raw{ase}  cell{ase}" pbc="T T T"
O        0.00000000       0.00000000       0.00000000       2.72996474       1.98366929       1.14908922
H        0.00000000       0.00000000       0.00000000      -2.49112225      -1.66376186      -0.36028200
H        0.00000000       0.00000000       0.00000000      -0.23712927       0.15722227       0.12513959
O        0.00000000       0.00000000       0.00000000       0.79517573      -2.83184457       1.52487803
H        0.00000000       0.00000000       0.00000000       0.12551580       0.31992307      -0.34162414
H        0.00000000       0.00000000       0.00000000       0.11674505       0.90797299      -0.13424003
H        0.00000000       0.00000000       0.00000000      -1.03914976       1.12681866      -1.96296049
7
Lattice="529.1772105638412 0.0 0.0 0.0 529.1772105638412 0.0 0.0 0.0 529.1772105638412" Properties=species:S:1:pos:R:3:forces_component_raw:R:3 ipi_comment="Step:       19020  Bead:       0 forces_component_raw{ase}  cell{ase}" pbc="T T T"
O        0.00000000       0.00000000       0.00000000       1.79309702       1.15363741      -0.21906370
H        0.00000000       0.00000000       0.00000000      -1.33125842      -1.16197300      -0.11721122
H        0.00000000       0.00000000       0.00000000      -0.31782150      -0.10247664      -0.09006163
O        0.00000000       0.00000000       0.00000000       0.93397373      -0.70111633       1.04943586
H        0.00000000       0.00000000       0.00000000      -0.01177209       0.08699006       0.75264931
H        0.00000000       0.00000000       0.00000000      -0.02770391       0.50919491       0.05570614
H        0.00000000       0.00000000       0.00000000      -1.03851509       0.21574368      -1.43145454
7
Lattice="529.1772105638412 0.0 0.0 0.0 529.1772105638412 0.0 0.0 0.0 529.1772105638412" Properties=species:S:1:pos:R:3:forces_component_raw:R:3 ipi_comment="Step:       19040  Bead:       0 forces_component_raw{ase}  cell{ase}" pbc="T T T"
O        0.00000000       0.00000000       0.00000000      -0.35872465      -0.29377192       0.24969345
H        0.00000000       0.00000000       0.00000000      -0.14675593       0.22716846       0.02378018
H        0.00000000       0.00000000       0.00000000       0.56575745      -0.05836290      -0.21838966
O        0.00000000       0.00000000       0.00000000       0.34510306       0.43080092       0.74522096
H        0.00000000       0.00000000       0.00000000      -0.00536707      -0.06427984      -0.43232188
H        0.00000000       0.00000000       0.00000000       0.01157653      -0.13803196      -0.01331690
H        0.00000000       0.00000000       0.00000000      -0.41158944      -0.10352272      -0.35466635
7
Lattice="529.1772105638412 0.0 0.0 0.0 529.1772105638412 0.0 0.0 0.0 529.1772105638412" Properties=species:S:1:pos:R:3:forces_component_raw:R:3 ipi_comment="Step:       19060  Bead:       0 forces_component_raw{ase}  cell{ase}" pbc="T T T"
O        0.00000000       0.00000000       0.00000000      -1.95371294       0.22076170       1.14658809
H        0.00000000       0.00000000       0.00000000       0.77826601       0.36856240      -0.43018636
H        0.00000000       0.00000000       0.00000000       1.07889450      -0.78801811      -0.45476771
O        0.00000000       0.00000000       0.00000000      -0.96038133      -0.45246428      -1.08377052
H        0.00000000       0.00000000       0.00000000      -0.01847029       0.14429429      -0.17865856
H        0.00000000       0.00000000       0.00000000       0.19734651       0.02654347       0.43435687
H        0.00000000       0.00000000       0.00000000       0.87805772       0.48032054       0.56643832
7
Lattice="529.1772105638412 0.0 0.0 0.0 529.1772105638412 0.0 0.0 0.0 529.1772105638412" Properties=species:S:1:pos:R:3:forces_component_raw:R:3 ipi_comment="Step:       19080  Bead:       0 forces_component_raw{ase}  cell{ase}" pbc="T T T"
O        0.00000000       0.00000000       0.00000000      -2.01955176      -1.04336286       0.13584709
H        0.00000000       0.00000000       0.00000000       1.04395139       1.37272716       0.07668872
H        0.00000000       0.00000000       0.00000000       1.13897419      -0.39252961      -0.42954022
O        0.00000000       0.00000000       0.00000000      -1.36947489       0.29131085      -1.19480157
H        0.00000000       0.00000000       0.00000000      -0.20483020      -0.07544258       0.33518672
H        0.00000000       0.00000000       0.00000000      -0.13267761      -0.46429890       0.20906511
H        0.00000000       0.00000000       0.00000000       1.54360867       0.31159589       0.86755407
7
Lattice="529.1772105638412 0.0 0.0 0.0 529.1772105638412 0.0 0.0 0.0 529.1772105638412" Properties=species:S:1:pos:R:3:forces_component_raw:R:3 ipi_comment="Step:       19100  Bead:       0 forces_component_raw{ase}  cell{ase}" pbc="T T T"
O        0.00000000       0.00000000       0.00000000      -1.87610007      -1.04494024       0.31795883
H        0.00000000       0.00000000       0.00000000       1.17116213       1.10909057      -0.10816139
H        0.00000000       0.00000000       0.00000000       0.52547854      -0.25008926      -0.13827720
O        0.00000000       0.00000000       0.00000000      -1.38548971      -1.13079119      -0.85718638
H        0.00000000       0.00000000       0.00000000       0.26519042       0.25914389      -0.23340552
H        0.00000000       0.00000000       0.00000000       0.38466621       0.23583305       0.23819706
H        0.00000000       0.00000000       0.00000000       0.91509241       0.82175344       0.78087461
7
Lattice="529.1772105638412 0.0 0.0 0.0 529.1772105638412 0.0 0.0 0.0 529.1772105638412" Properties=species:S:1:pos:R:3:forces_component_raw:R:3 ipi_comment="Step:       19120  Bead:       0 forces_component_raw{ase}  cell{ase}" pbc="T T T"
O        0.00000000       0.00000000       0.00000000       0.31249002      -0.47852606      -0.36801231
H        0.00000000       0.00000000       0.00000000       0.03894377       0.63436806       0.34454960
H        0.00000000       0.00000000       0.00000000      -0.11457163       0.21232320       0.04399252
O        0.00000000       0.00000000       0.00000000       0.33808664       0.63723040       0.66154897
H        0.00000000       0.00000000       0.00000000      -0.39565811      -0.52738810      -0.06461103
H        0.00000000       0.00000000       0.00000000      -0.80539572      -0.13358012      -0.45829183
H        0.00000000       0.00000000       0.00000000       0.62610507      -0.34442741      -0.15917599
7
Lattice="529.1772105638412 0.0 0.0 0.0 529.1772105638412 0.0 0.0 0.0 529.1772105638412" Properties=species:S:1:pos:R:3:forces_component_raw:R:3 ipi_comment="Step:       19140  Bead:       0 forces_component_raw{ase}  cell{ase}" pbc="T T T"
O        0.00000000       0.00000000       0.00000000       1.51809335       0.58338511      -0.84133601
H        0.00000000       0.00000000       0.00000000      -0.16595995      -0.83523250      -0.02904620
H        0.00000000       0.00000000       0.00000000      -1.51043964      -0.06565087       0.55150014
O        0.00000000       0.00000000       0.00000000       1.66121996      -0.90210605      -1.07876981
H        0.00000000       0.00000000       0.00000000       0.29852420       0.61769158       0.41832873
H        0.00000000       0.00000000       0.00000000      -0.82090938       0.42484874       1.03221739
H        0.00000000       0.00000000       0.00000000      -0.98052871       0.17706403      -0.05289426
7
Lattice="529.1772105638412 0.0 0.0 0.0 529.1772105638412 0.0 0.0 0.0 529.1772105638412" Properties=species:S:1:pos:R:3:forces_component_raw:R:3 ipi_comment="Step:       19160  Bead:       0 forces_component_raw{ase}  cell{ase}" pbc="T T T"
O        0.00000000       0.00000000       0.00000000       2.88567639       1.70079422      -0.76602829
H        0.00000000       0.00000000       0.00000000      -0.62624532      -1.49965000       0.37478247
H        0.00000000       0.00000000       0.00000000      -2.09804559       0.20727110       0.69720292
O        0.00000000       0.00000000       0.00000000       1.94247389      -0.52141535       0.78632218
H        0.00000000       0.00000000       0.00000000      -0.42275828      -0.13894501      -0.26981437
H        0.00000000       0.00000000       0.00000000      -1.61139298      -0.04319833       0.17661244
H        0.00000000       0.00000000       0.00000000      -0.06970799       0.29514360      -0.99907738
7
Lattice="529.1772105638412 0.0 0.0 0.0 529.1772105638412 0.0 0.0 0.0 529.1772105638412" Properties=species:S:1:pos:R:3:forces_component_raw:R:3 ipi_comment="Step:       19180  Bead:       0 forces_component_raw{ase}  cell{ase}" pbc="T T T"
O        0.00000000       0.00000000       0.00000000       1.92328072       1.44121218      -1.14852345
H        0.00000000       0.00000000       0.00000000      -0.36223531      -1.14536619       0.37556255
H        0.00000000       0.00000000       0.00000000      -1.65769351       0.14060542       0.85166854
O        0.00000000       0.00000000       0.00000000       0.51628858      -0.39328358      -1.28021074
H        0.00000000       0.00000000       0.00000000       0.38022274      -0.23661764       0.28252107
H        0.00000000       0.00000000       0.00000000       0.13812983       0.25558960       0.73223567
H        0.00000000       0.00000000       0.00000000      -0.93799293      -0.06213968       0.18674627
7
Lattice="529.1772105638412 0.0 0.0 0.0 529.1772105638412 0.0 0.0 0.0 529.1772105638412" Properties=species:S:1:pos:R:3:forces_component_raw:R:3 ipi_comment="Step:       19200  Bead:       0 forces_component_raw{ase}  cell{ase}" pbc="T T T"
O        0.00000000       0.00000000       0.00000000       0.10799617       0.08744961      -0.26491770
H        0.00000000       0.00000000       0.00000000       0.00261763      -0.45428553      -0.07246077
H        0.00000000       0.00000000       0.00000000      -0.33556548       0.13852108       0.49477184
O        0.00000000       0.00000000       0.00000000      -0.06151703       0.54750681       1.57618833
H        0.00000000       0.00000000       0.00000000       0.07152885       0.26959568      -0.05600977
H        0.00000000       0.00000000       0.00000000      -0.14588925      -0.49745882      -1.08815229
H        0.00000000       0.00000000       0.00000000       0.36082912      -0.09132874      -0.58941966
7
Lattice="529.1772105638412 0.0 0.0 0.0 529.1772105638412 0.0 0.0 0.0 529.1772105638412" Properties=species:S:1:pos:R:3:forces_component_raw:R:3 ipi_comment="Step:       19220  Bead:       0 forces_component_raw{ase}  cell{ase}" pbc="T T T"
O        0.00000000       0.00000000       0.00000000      -0.46711937      -0.71337116       0.02752119
H        0.00000000       0.00000000       0.00000000       0.16595823       0.46610373      -0.10985488
H        0.00000000       0.00000000       0.00000000       0.36719614      -0.12801632      -0.43810597
O        0.00000000       0.00000000       0.00000000      -1.47189570      -0.22062892       0.38539732
H        0.00000000       0.00000000       0.00000000      -0.39798802       0.03898251       0.41629574
H        0.00000000       0.00000000       0.00000000       1.44413674      -0.06567149      -1.06345213
H        0.00000000       0.00000000       0.00000000       0.35971183       0.62260175       0.78219879
7
Lattice="529.1772105638412 0.0 0.0 0.0 529.1772105638412 0.0 0.0 0.0 529.1772105638412" Properties=species:S:1:pos:R:3:forces_component_raw:R:3 ipi_comment="Step:       19240  Bead:       0 forces_component_raw{ase}  cell{ase}" pbc="T T T"
O        0.00000000       0.00000000       0.00000000      -1.40319491      -1.27015901       1.04155839
H        0.00000000       0.00000000       0.00000000       0.16776995       0.98493147      -0.11783520
H        0.00000000       0.00000000       0.00000000       1.03335071       0.06381768      -1.09384060
O        0.00000000       0.00000000       0.00000000      -1.74237550       0.67424798       1.55914879
H        0.00000000       0.00000000       0.00000000       0.60970730      -0.25318351      -0.31044173
H        0.00000000       0.00000000       0.00000000       0.48761997      -0.28378013      -0.96198583
H        0.00000000       0.00000000       0.00000000       0.84712249       0.08412567      -0.11660406
7
Lattice="529.1772105638412 0.0 0.0 0.0 529.1772105638412 0.0 0.0 0.0 529.1772105638412" Properties=species:S:1:pos:R:3:forces_component_raw:R:3 ipi_comment="Step:       19260  Bead:       0 forces_component_raw{ase}  cell{ase}" pbc="T T T"
O        0.00000000       0.00000000       0.00000000      -0.95516539      -0.72472119       1.45363772
H        0.00000000       0.00000000       0.00000000       0.13707000       0.46246618      -0.07212798
H        0.00000000       0.00000000       0.00000000       1.01343739       0.09227318      -1.40440405
O        0.00000000       0.00000000       0.00000000      -0.16519681      -0.47315788      -0.06450608
H        0.00000000       0.00000000       0.00000000      -0.51730669       0.39038122      -0.03960022
H        0.00000000       0.00000000       0.00000000       0.03856683      -0.08330084      -0.10691744
H        0.00000000       0.00000000       0.00000000       0.44859493       0.33605930       0.23391795
7
Lattice="529.1772105638412 0.0 0.0 0.0 529.1772105638412 0.0 0.0 0.0 529.1772105638412" Properties=species:S:1:pos:R:3:forces_component_raw:R:3 ipi_comment="Step:       19280  Bead:       0 forces_component_raw{ase}  cell{ase}" pbc="T T T"
O        0.00000000       0.00000000       0.00000000      -0.58117652      -0.03316355       1.35172880
H        0.00000000       0.00000000       0.00000000       0.00458084       0.32557654       0.03998584
H        0.00000000       0.00000000       0.00000000       0.56596881       0.12102589      -1.24622202
O        0.00000000       0.00000000       0.00000000      -0.62665713      -0.46710080      -0.78981590
H        0.00000000       0.00000000       0.00000000       0.20380391      -0.17494439       0.04274413
H        0.00000000       0.00000000       0.00000000      -0.26686460       0.06757400       0.37095389
H        0.00000000       0.00000000       0.00000000       0.70034462       0.16103238       0.23062512
7
Lattice="529.1772105638412 0.0 0.0 0.0 529.1772105638412 0.0 0.0 0.0 529.1772105638412" Properties=species:S:1:pos:R:3:forces_component_raw:R:3 ipi_comment="Step:       19300  Bead:       0 forces_component_raw{ase}  cell{ase}" pbc="T T T"
O        0.00000000       0.00000000       0.00000000      -0.11836092       0.69321138       0.56387490
H        0.00000000       0.00000000       0.00000000       0.12608108      -0.46590173       0.14475060
H        0.00000000       0.00000000       0.00000000       0.10538879       0.02969497      -0.67216337
O        0.00000000       0.00000000       0.00000000       1.47532690       0.53609741      -0.27780831
H        0.00000000       0.00000000       0.00000000      -0.22702551      -0.56257951      -0.11134017
H        0.00000000       0.00000000       0.00000000      -0.72072667      -0.12944099       0.68692756
H        0.00000000       0.00000000       0.00000000      -0.64068353      -0.10108131      -0.33424121
7
Lattice="529.1772105638412 0.0 0.0 0.0 529.1772105638412 0.0 0.0 0.0 529.1772105638412" Properties=species:S:1:pos:R:3:forces_component_raw:R:3 ipi_comment="Step:       19320  Bead:       0 forces_component_raw{ase}  cell{ase}" pbc="T T T"
O        0.00000000       0.00000000       0.00000000      -0.36089128       0.51842618      -0.96564305
H        0.00000000       0.00000000       0.00000000       0.24972136      -0.87220359       0.22969449
H        0.00000000       0.00000000       0.00000000       0.13219872       0.25081885       0.95635265
O        0.00000000       0.00000000       0.00000000       1.47263253      -0.60682672      -0.42175764
H        0.00000000       0.00000000       0.00000000       0.13091612       0.55775780      -0.14177683
H        0.00000000       0.00000000       0.00000000      -0.94336438       0.11979743       0.90709865
H        0.00000000       0.00000000       0.00000000      -0.68121314       0.03223015      -0.56396830
7
Lattice="529.1772105638412 0.0 0.0 0.0 529.1772105638412 0.0 0.0 0.0 529.1772105638412" Properties=species:S:1:pos:R:3:forces_component_raw:R:3 ipi_comment="Step:       19340  Bead:       0 forces_component_raw{ase}  cell{ase}" pbc="T T T"
O        0.00000000       0.00000000       0.00000000      -0.60569155       1.28524518      -1.73224819
H        0.00000000       0.00000000       0.00000000       0.11875078      -0.46014232      -0.24160174
H        0.00000000       0.00000000       0.00000000       0.52987677      -0.58736301       1.63765455
O        0.00000000       0.00000000       0.00000000       1.72263909       0.63892925       0.17926717
H        0.00000000       0.00000000       0.00000000      -0.15866777      -0.63488734       0.48909301
H        0.00000000       0.00000000       0.00000000      -0.85856754      -0.07601208       0.44178718
H        0.00000000       0.00000000       0.00000000      -0.74833977      -0.16576970      -0.77395201
7
Lattice="529.1772105638412 0.0 0.0 0.0 529.1772105638412 0.0 0.0 0.0 529.1772105638412" Properties=species:S:1:pos:R:3:forces_component_raw:R:3 ipi_comment="Step:       19360  Bead:       0 forces_component_raw{ase}  cell{ase}" pbc="T T T"
O        0.00000000       0.00000000       0.00000000      -0.34460631      -2.20222974      -1.81537915
H        0.00000000       0.00000000       0.00000000      -0.09547842       0.73697490       0.12637579
H        0.00000000       0.00000000       0.00000000       0.55398578       0.80103445       1.82254363
O        0.00000000       0.00000000       0.00000000       1.12529886      -0.48621374       0.00398123
H        0.00000000       0.00000000       0.00000000       0.05341865       0.94868654      -0.32307738
H        0.00000000       0.00000000       0.00000000      -0.27990669       0.32688251       0.58995342
H        0.00000000       0.00000000       0.00000000      -1.01271188      -0.12513484      -0.40439734
7
Lattice="529.1772105638412 0.0 0.0 0.0 529.1772105638412 0.0 0.0 0.0 529.1772105638412" Properties=species:S:1:pos:R:3:forces_component_raw:R:3 ipi_comment="Step:       19380  Bead:       0 forces_component_raw{ase}  cell{ase}" pbc="T T T"
O        0.00000000       0.00000000       0.00000000      -0.35617325       0.30183375      -0.33967131
H        0.00000000       0.00000000       0.00000000      -0.73260486       1.22876537      -0.86763591
H        0.00000000       0.00000000       0.00000000       0.85204423      -1.02807272       1.13033331
O        0.00000000       0.00000000       0.00000000       0.21631375       0.67847252       0.70741326
H        0.00000000       0.00000000       0.00000000       0.44160554      -0.66951496       0.25376466
H        0.00000000       0.00000000       0.00000000      -0.24848050      -0.14434528      -0.25999376
H        0.00000000       0.00000000       0.00000000      -0.17270479      -0.36713883      -0.62421030
7
Lattice="529.1772105638412 0.0 0.0 0.0 529.1772105638412 0.0 0.0 0.0 529.1772105638412" Properties=species:S:1:pos:R:3:forces_component_raw:R:3 ipi_comment="Step:       19400  Bead:       0 forces_component_raw{ase}  cell{ase}" pbc="T T T"
O        0.00000000       0.00000000       0.00000000       0.07152407      -2.05900288      -0.27536517
H        0.00000000       0.00000000       0.00000000       0.00124666       1.68363119       0.08251724
H        0.00000000       0.00000000       0.00000000       0.15309216       0.57435554       0.26814610
O        0.00000000       0.00000000       0.00000000      -0.48977178      -0.64848960      -0.96346599
H        0.00000000       0.00000000       0.00000000      -0.73255158       0.29032558       0.15198326
H        0.00000000       0.00000000       0.00000000       0.77616286      -0.42289028       0.01467599
H        0.00000000       0.00000000       0.00000000       0.22029758       0.58207023       0.72150862
7
Lattice="529.1772105638412 0.0 0.0 0.0 529.1772105638412 0.0 0.0 0.0 529.1772105638412" Properties=species:S:1:pos:R:3:forces_component_raw:R:3 ipi_comment="Step:       19420  Bead:       0 forces_component_raw{ase}  cell{ase}" pbc="T T T"
O        0.00000000       0.00000000       0.00000000       0.81597030       0.70825178       1.75448776
H        0.00000000       0.00000000       0.00000000      -0.20995992      -0.19809938      -0.24252304
H        0.00000000       0.00000000       0.00000000      -1.03280652      -0.39882976      -1.12373388
O        0.00000000       0.00000000       0.00000000      -1.97660959       0.49187082      -0.21118021
H        0.00000000       0.00000000       0.00000000       1.17908800      -0.26282856      -0.47906852
H        0.00000000       0.00000000       0.00000000       0.03109825      -0.07320997      -0.18160041
H        0.00000000       0.00000000       0.00000000       1.19321943      -0.26715511       0.48361844
7
Lattice="529.1772105638412 0.0 0.0 0.0 529.1772105638412 0.0 0.0 0.0 529.1772105638412" Properties=species:S:1:pos:R:3:forces_component_raw:R:3 ipi_comment="Step:       19440  Bead:       0 forces_component_raw{ase}  cell{ase}" pbc="T T T"
O        0.00000000       0.00000000       0.00000000       1.07423878       0.57863504      -0.18441522
H        0.00000000       0.00000000       0.00000000       0.27774990      -1.43235469       0.82734955
H        0.00000000       0.00000000       0.00000000      -1.13676656       0.09925728      -1.15168369
O        0.00000000       0.00000000       0.00000000       0.99317408      -0.51255059      -0.85195136
H        0.00000000       0.00000000       0.00000000      -0.76996613       0.38675690       0.28224066
H        0.00000000       0.00000000       0.00000000      -1.01767540       0.50003147       0.52255029
H        0.00000000       0.00000000       0.00000000       0.57924521       0.38022459       0.55590981
7
Lattice="529.1772105638412 0.0 0.0 0.0 529.1772105638412 0.0 0.0 0.0 529.1772105638412" Properties=species:S:1:pos:R:3:forces_component_raw:R:3 ipi_comment="Step:       19460  Bead:       0 forces_component_raw{ase}  cell{ase}" pbc="T T T"
O        0.00000000       0.00000000       0.00000000      -0.25836676       3.33802176      -1.99564672
H        0.00000000       0.00000000       0.00000000       0.29230225      -3.28247905       1.98210335
H        0.00000000       0.00000000       0.00000000      -0.25051415      -0.10429335      -0.45975313
O        0.00000000       0.00000000       0.00000000       1.23034156      -0.23214597      -0.56226307
H        0.00000000       0.00000000       0.00000000       0.39504135      -0.41099775       0.48758641
H        0.00000000       0.00000000       0.00000000      -1.09782505       0.73613191       0.73721534
H        0.00000000       0.00000000       0.00000000      -0.31097922      -0.04423754      -0.18924187
7
Lattice="529.1772105638412 0.0 0.0 0.0 529.1772105638412 0.0 0.0 0.0 529.1772105638412" Properties=species:S:1:pos:R:3:forces_component_raw:R:3 ipi_comment="Step:       19480  Bead:       0 forces_component_raw{ase}  cell{ase}" pbc="T T T"
O        0.00000000       0.00000000       0.00000000      -0.04030451       1.93306053      -1.25614357
H        0.00000000       0.00000000       0.00000000      -0.17064774      -2.80196739       1.43465829
H        0.00000000       0.00000000       0.00000000       0.31972942       0.45391432       0.55069947
O        0.00000000       0.00000000       0.00000000       0.73038954      -0.99959320       0.89486402
H        0.00000000       0.00000000       0.00000000       0.08294779       0.86976016      -1.09165740
H        0.00000000       0.00000000       0.00000000      -0.86405510       0.51404476       0.11113288
H        0.00000000       0.00000000       0.00000000      -0.05805945       0.03078128      -0.64355397
7
Lattice="529.1772105638412 0.0 0.0 0.0 529.1772105638412 0.0 0.0 0.0 529.1772105638412" Properties=species:S:1:pos:R:3:forces_component_raw:R:3 ipi_comment="Step:       19500  Bead:       0 forces_component_raw{ase}  cell{ase}" pbc="T T T"
O        0.00000000       0.00000000       0.00000000       0.10947424       1.56242621      -1.40018630
H        0.00000000       0.00000000       0.00000000      -0.23250705      -0.60889310       0.57344282
H        0.00000000       0.00000000       0.00000000       0.11253059      -0.53973514       0.02171481
O        0.00000000       0.00000000       0.00000000       0.83788884      -0.17494723      -0.39639294
H        0.00000000       0.00000000       0.00000000      -0.31553468      -0.42636448       1.29382396
H        0.00000000       0.00000000       0.00000000       0.26135954      -0.12688196       0.19461869
H        0.00000000       0.00000000       0.00000000      -0.77321160       0.31439579      -0.28702110
7
Lattice="529.1772105638412 0.0 0.0 0.0 529.1772105638412 0.0 0.0 0.0 529.1772105638412" Properties=species:S:1:pos:R:3:forces_component_raw:R:3 ipi_comment="Step:       19520  Bead:       0 forces_component_raw{ase}  cell{ase}" pbc="T T T"
O        0.00000000       0.00000000       0.00000000      -0.48354107      -1.04898715       1.47200907
H        0.00000000       0.00000000       0.00000000       0.45152086       0.89812243      -0.79838503
H        0.00000000       0.00000000       0.00000000      -0.05662102       0.18423548      -0.15966225
O        0.00000000       0.00000000       0.00000000      -0.52443147       0.63356948       1.09491325
H        0.00000000       0.00000000       0.00000000       0.11637819       0.12394258      -0.72187853
H        0.00000000       0.00000000       0.00000000       0.79187298      -0.77549851      -0.39262533
H        0.00000000       0.00000000       0.00000000      -0.29517841      -0.01538418      -0.49437112
7
Lattice="529.1772105638412 0.0 0.0 0.0 529.1772105638412 0.0 0.0 0.0 529.1772105638412" Properties=species:S:1:pos:R:3:forces_component_raw:R:3 ipi_comment="Step:       19540  Bead:       0 forces_component_raw{ase}  cell{ase}" pbc="T T T"
O        0.00000000       0.00000000       0.00000000      -0.32430577      -1.49852836       0.68421787
H        0.00000000       0.00000000       0.00000000       0.11220917       1.48563910      -1.14913905
H        0.00000000       0.00000000       0.00000000       0.13537942       0.08520713       0.45295966
O        0.00000000       0.00000000       0.00000000      -1.04315973       0.82129514       0.21664189
H        0.00000000       0.00000000       0.00000000       0.48825827      -0.06496313       0.27377701
H        0.00000000       0.00000000       0.00000000       1.02361107      -0.59217376       0.04455820
H        0.00000000       0.00000000       0.00000000      -0.39199251      -0.23647600      -0.52301568
7
Lattice="529.1772105638412 0.0 0.0 0.0 529.1772105638412 0.0 0.0 0.0 529.1772105638412" Properties=species:S:1:pos:R:3:forces_component_raw:R:3 ipi_comment="Step:       19560  Bead:       0 forces_component_raw{ase}  cell{ase}" pbc="T T T"
O        0.00000000       0.00000000       0.00000000      -0.04707330      -1.18972063      -0.35389471
H        0.00000000       0.00000000       0.00000000      -0.13602893       1.38254142      -1.28745508
H        0.00000000       0.00000000       0.00000000       0.66440141       0.07345606       1.59974146
O        0.00000000       0.00000000       0.00000000      -0.32429734       0.66643173      -0.11514461
H        0.00000000       0.00000000       0.00000000      -1.11649215       0.09997651       0.19874407
H        0.00000000       0.00000000       0.00000000       1.12649870      -1.27104986       0.09521756
H        0.00000000       0.00000000       0.00000000      -0.16700858       0.23836483      -0.13720855
7
Lattice="529.1772105638412 0.0 0.0 0.0 529.1772105638412 0.0 0.0 0.0 529.1772105638412" Properties=species:S:1:pos:R:3:forces_component_raw:R:3 ipi_comment="Step:       19580  Bead:       0 forces_component_raw{ase}  cell{ase}" pbc="T T T"
O        0.00000000       0.00000000       0.00000000      -0.50570476      -1.83093083      -1.51651633
H        0.00000000       0.00000000       0.00000000      -0.13711453       0.95450020      -0.08668160
H        0.00000000       0.00000000       0.00000000       0.40274066       0.77351999       1.49373865
O        0.00000000       0.00000000       0.00000000      -1.51454926       1.14278102      -0.59967566
H        0.00000000       0.00000000       0.00000000       0.66551590      -0.07262835       0.29416075
H        0.00000000       0.00000000       0.00000000       1.15306449      -0.83850384       0.42887405
H        0.00000000       0.00000000       0.00000000      -0.06395251      -0.12873811      -0.01389986
7
Lattice="529.1772105638412 0.0 0.0 0.0 529.1772105638412 0.0 0.0 0.0 529.1772105638412" Properties=species:S:1:pos:R:3:forces_component_raw:R:3 ipi_comment="Step:       19600  Bead:       0 forces_component_raw{ase}  cell{ase}" pbc="T T T"
O        0.00000000       0.00000000       0.00000000      -0.37983573       0.02178147      -0.27328152
H        0.00000000       0.00000000       0.00000000      -0.00066495      -0.28146350      -0.18341571
H        0.00000000       0.00000000       0.00000000       0.25697023      -0.09173605       0.58257514
O        0.00000000       0.00000000       0.00000000      -0.26730451       1.11967874      -0.04132810
H        0.00000000       0.00000000       0.00000000      -0.02351978      -0.36883754      -0.79415435
H        0.00000000       0.00000000       0.00000000       0.36975169      -0.67934013       0.29354414
H        0.00000000       0.00000000       0.00000000       0.04460305       0.27991694       0.41606045
7
Lattice="529.1772105638412 0.0 0.0 0.0 529.1772105638412 0.0 0.0 0.0 529.1772105638412" Properties=species:S:1:pos:R:3:forces_component_raw:R:3 ipi_comment="Step:       19620  Bead:       0 forces_component_raw{ase}  cell{ase}" pbc="T T T"
O        0.00000000       0.00000000       0.00000000      -0.65287197       0.01844209      -0.77948594
H        0.00000000       0.00000000       0.00000000       0.63151080      -0.36807865       0.33999091
H        0.00000000       0.00000000       0.00000000       0.01971954       0.07242876       0.01040602
O        0.00000000       0.00000000       0.00000000       0.00683910       0.21750900      -0.89783025
H        0.00000000       0.00000000       0.00000000      -0.17255202       0.26710108       0.92984808
H        0.00000000       0.00000000       0.00000000       0.24238719      -0.15188649       0.39316389
H        0.00000000       0.00000000       0.00000000      -0.07503268      -0.05551574       0.00390732
7
Lattice="529.1772105638412 0.0 0.0 0.0 529.1772105638412 0.0 0.0 0.0 529.1772105638412" Properties=species:S:1:pos:R:3:forces_component_raw:R:3 ipi_comment="Step:       19640  Bead:       0 forces_component_raw{ase}  cell{ase}" pbc="T T T"
O        0.00000000       0.00000000       0.00000000       0.15699525       1.47677231       1.59464598
H        0.00000000       0.00000000       0.00000000       0.51775992      -0.58914799       0.10291570
H        0.00000000       0.00000000       0.00000000      -0.44375402      -0.37039244      -1.32513881
O        0.00000000       0.00000000       0.00000000       0.17848395      -1.30544162       1.23864389
H        0.00000000       0.00000000       0.00000000      -0.13027523       0.19477640      -0.37304545
H        0.00000000       0.00000000       0.00000000      -0.40970165       0.63920361      -0.61049587
H        0.00000000       0.00000000       0.00000000       0.13049182      -0.04577027      -0.62752533
7
Lattice="529.1772105638412 0.0 0.0 0.0 529.1772105638412 0.0 0.0 0.0 529.1772105638412" Properties=species:S:1:pos:R:3:forces_component_raw:R:3 ipi_comment="Step:       19660  Bead:       0 forces_component_raw{ase}  cell{ase}" pbc="T T T"
O        0.00000000       0.00000000       0.00000000       0.68574464       2.04531002       2.96053649
H        0.00000000       0.00000000       0.00000000       0.21963930      -0.08046600       0.16623598
H        0.00000000       0.00000000       0.00000000      -1.09395886      -1.17026615      -3.15210462
O        0.00000000       0.00000000       0.00000000      -0.42902377      -1.39480162       1.16064143
H        0.00000000       0.00000000       0.00000000       0.74098945      -0.23561505       0.14952785
H        0.00000000       0.00000000       0.00000000      -0.33653033       0.93374908      -0.93555343
H        0.00000000       0.00000000       0.00000000       0.21313950      -0.09791005      -0.34928334
7
Lattice="529.1772105638412 0.0 0.0 0.0 529.1772105638412 0.0 0.0 0.0 529.1772105638412" Properties=species:S:1:pos:R:3:forces_component_raw:R:3 ipi_comment="Step:       19680  Bead:       0 forces_component_raw{ase}  cell{ase}" pbc="T T T"
O        0.00000000       0.00000000       0.00000000       1.41834951       2.10194779       2.72441078
H        0.00000000       0.00000000       0.00000000       0.22259361      -0.52841503       0.34723881
H        0.00000000       0.00000000       0.00000000      -0.99138278      -1.04319895      -2.92996050
O        0.00000000       0.00000000       0.00000000       0.83211625      -1.95594335       0.89611435
H        0.00000000       0.00000000       0.00000000      -0.80279470       0.11464085      -0.10456929
H        0.00000000       0.00000000       0.00000000      -0.47361010       1.05762255      -1.02171791
H        0.00000000       0.00000000       0.00000000      -0.20527175       0.25334638       0.08848381
7
Lattice="529.1772105638412 0.0 0.0 0.0 529.1772105638412 0.0 0.0 0.0 529.1772105638412" Properties=species:S:1:pos:R:3:forces_component_raw:R:3 ipi_comment="Step:       19700  Bead:       0 forces_component_raw{ase}  cell{ase}" pbc="T T T"
O        0.00000000       0.00000000       0.00000000      -0.30828235       0.99937570       0.67478782
H        0.00000000       0.00000000       0.00000000       0.25601494       0.34328741       0.12392795
H        0.00000000       0.00000000       0.00000000      -0.54836112      -0.68936765      -1.20250511
O        0.00000000       0.00000000       0.00000000      -0.79450292      -0.64172113       0.13613516
H        0.00000000       0.00000000       0.00000000       1.15648377      -0.03149840       0.51349259
H        0.00000000       0.00000000       0.00000000       0.08289152       0.07653281      -0.39090914
H        0.00000000       0.00000000       0.00000000       0.15575616      -0.05660892       0.14507085
7
Lattice="529.1772105638412 0.0 0.0 0.0 529.1772105638412 0.0 0.0 0.0 529.1772105638412" Properties=species:S:1:pos:R:3:forces_component_raw:R:3 ipi_comment="Step:       19720  Bead:       0 forces_component_raw{ase}  cell{ase}" pbc="T T T"
O        0.00000000       0.00000000       0.00000000      -0.09075037      -0.52838349      -0.08915859
H        0.00000000       0.00000000       0.00000000      -0.12432763      -0.37310115      -0.24560049
H        0.00000000       0.00000000       0.00000000       0.65122283       0.42349464       0.79901231
O        0.00000000       0.00000000       0.00000000       0.05467299       0.55948842       0.02115732
H        0.00000000       0.00000000       0.00000000      -0.78387773       0.48885819      -0.71048433
H        0.00000000       0.00000000       0.00000000       0.08407003      -0.44790521       0.66607529
H        0.00000000       0.00000000       0.00000000       0.20898983      -0.12245144      -0.44100145
7
Lattice="529.1772105638412 0.0 0.0 0.0 529.1772105638412 0.0 0.0 0.0 529.1772105638412" Properties=species:S:1:pos:R:3:forces_component_raw:R:3 ipi_comment="Step:       19740  Bead:       0 forces_component_raw{ase}  cell{ase}" pbc="T T T"
O        0.00000000       0.00000000       0.00000000      -1.33301926      -1.92883802      -2.20895768
H        0.00000000       0.00000000       0.00000000       0.39205453      -0.01859576       0.41883808
H        0.00000000       0.00000000       0.00000000       0.68908924       1.05305624       1.68970085
O        0.00000000       0.00000000       0.00000000       0.90739322       2.03047634      -1.52950061
H        0.00000000       0.00000000       0.00000000      -0.32181054      -0.97861731       0.32105264
H        0.00000000       0.00000000       0.00000000      -0.14651278      -0.23567507       1.34432626
H        0.00000000       0.00000000       0.00000000      -0.18719442       0.07819355      -0.03545970
7
Lattice="529.1772105638412 0.0 0.0 0.0 529.1772105638412 0.0 0.0 0.0 529.1772105638412" Properties=species:S:1:pos:R:3:forces_component_raw:R:3 ipi_comment="Step:       19760  Bead:       0 forces_component_raw{ase}  cell{ase}" pbc="T T T"
O        0.00000000       0.00000000       0.00000000      -1.22661782      -0.73637211      -1.21655417
H        0.00000000       0.00000000       0.00000000      -0.30980066       0.18948767      -0.68119842
H        0.00000000       0.00000000       0.00000000       1.04190505      -0.17949653       1.85831547
O        0.00000000       0.00000000       0.00000000      -0.42371544       0.85367757      -0.30798519
H        0.00000000       0.00000000       0.00000000       0.68583524       0.40865129      -0.29838920
H        0.00000000       0.00000000       0.00000000       0.02611154      -0.55026579       0.53190768
H        0.00000000       0.00000000       0.00000000       0.20628205       0.01431808       0.11390370
7
Lattice="529.1772105638412 0.0 0.0 0.0 529.1772105638412 0.0 0.0 0.0 529.1772105638412" Properties=species:S:1:pos:R:3:forces_component_raw:R:3 ipi_comment="Step:       19780  Bead:       0 forces_component_raw{ase}  cell{ase}" pbc="T T T"
O        0.00000000       0.00000000       0.00000000       0.44142133      -0.79401845      -1.15590322
H        0.00000000       0.00000000       0.00000000      -0.32307938       0.68196231      -0.09121206
H        0.00000000       0.00000000       0.00000000       0.31261396       0.86258990       1.13420594
O        0.00000000       0.00000000       0.00000000       0.31000170      -0.75623578      -0.57527286
H        0.00000000       0.00000000       0.00000000      -0.66536492       0.19746363       0.34831131
H        0.00000000       0.00000000       0.00000000      -0.13517374       0.18554188       0.43666351
H        0.00000000       0.00000000       0.00000000       0.05958116      -0.37730348      -0.09679255
7
Lattice="529.1772105638412 0.0 0.0 0.0 529.1772105638412 0.0 0.0 0.0 529.1772105638412" Properties=species:S:1:pos:R:3:forces_component_raw:R:3 ipi_comment="Step:       19800  Bead:       0 forces_component_raw{ase}  cell{ase}" pbc="T T T"
O        0.00000000       0.00000000       0.00000000       0.34691274       0.74377275      -0.09354294
H        0.00000000       0.00000000       0.00000000      -0.50245220       0.19302222      -0.41364914
H        0.00000000       0.00000000       0.00000000       0.15321004      -0.14360124       0.29939491
O        0.00000000       0.00000000       0.00000000      -1.04468441       0.62091947       0.24479175
H        0.00000000       0.00000000       0.00000000       0.66967642      -0.76527572      -0.13213515
H        0.00000000       0.00000000       0.00000000      -0.10324579      -0.45720559       0.05606964
H        0.00000000       0.00000000       0.00000000       0.48058301      -0.19163200       0.03907102
7
Lattice="529.1772105638412 0.0 0.0 0.0 529.1772105638412 0.0 0.0 0.0 529.1772105638412" Properties=species:S:1:pos:R:3:forces_component_raw:R:3 ipi_comment="Step:       19820  Bead:       0 forces_component_raw{ase}  cell{ase}" pbc="T T T"
O        0.00000000       0.00000000       0.00000000       1.68006921       1.36897564       1.21467054
H        0.00000000       0.00000000       0.00000000      -0.52714133       0.14194103      -0.06099790
H        0.00000000       0.00000000       0.00000000      -0.41122237      -0.61547589      -1.17243803
O        0.00000000       0.00000000       0.00000000      -0.30526793      -1.46107722       0.73471630
H        0.00000000       0.00000000       0.00000000      -0.74763704       0.25629798       0.00711071
H        0.00000000       0.00000000       0.00000000       0.58194327       0.31248075      -0.73417044
H        0.00000000       0.00000000       0.00000000      -0.27074373      -0.00314212       0.01110891
7
Lattice="529.1772105638412 0.0 0.0 0.0 529.1772105638412 0.0 0.0 0.0 529.1772105638412" Properties=species:S:1:pos:R:3:forces_component_raw:R:3 ipi_comment="Step:       19840  Bead:       0 forces_component_raw{ase}  cell{ase}" pbc="T T T"
O        0.00000000       0.00000000       0.00000000       0.02242249       0.54934341       1.54767871
H        0.00000000       0.00000000       0.00000000       0.00053059       0.19559874      -0.11316454
H        0.00000000       0.00000000       0.00000000      -0.44935724      -1.36967564      -1.52395475
O        0.00000000       0.00000000       0.00000000      -1.35551882      -0.76491505       1.12702632
H        0.00000000       0.00000000       0.00000000       0.53071702       0.78860170       0.15293399
H        0.00000000       0.00000000       0.00000000       1.86211944       0.17908055      -1.34166169
H        0.00000000       0.00000000       0.00000000      -0.61091340       0.42196632       0.15114205
7
Lattice="529.1772105638412 0.0 0.0 0.0 529.1772105638412 0.0 0.0 0.0 529.1772105638412" Properties=species:S:1:pos:R:3:forces_component_raw:R:3 ipi_comment="Step:       19860  Bead:       0 forces_component_raw{ase}  cell{ase}" pbc="T T T"
O        0.00000000       0.00000000       0.00000000       0.04192212       1.37889040       1.18358541
H        0.00000000       0.00000000       0.00000000       0.07779218      -0.06862338       0.27961761
H        0.00000000       0.00000000       0.00000000      -0.24641182      -1.21964538      -1.44543422
O        0.00000000       0.00000000       0.00000000      -0.64068657      -0.30221629       1.00165940
H        0.00000000       0.00000000       0.00000000       0.07134723      -0.83379781      -0.02050117
H        0.00000000       0.00000000       0.00000000       1.37916398       0.04181716      -0.71192348
H        0.00000000       0.00000000       0.00000000      -0.68312723       1.00357557      -0.28700352
7
Lattice="529.1772105638412 0.0 0.0 0.0 529.1772105638412 0.0 0.0 0.0 529.1772105638412" Properties=species:S:1:pos:R:3:forces_component_raw:R:3 ipi_comment="Step:       19880  Bead:       0 forces_component_raw{ase}  cell{ase}" pbc="T T T"
O        0.00000000       0.00000000       0.00000000       0.00600356       0.03574240       0.14995562
H        0.00000000       0.00000000       0.00000000       0.06735535       0.03166997       0.19003093
H        0.00000000       0.00000000       0.00000000      -0.04085555      -0.45912522      -0.31979823
O        0.00000000       0.00000000       0.00000000       0.31791672      -0.93079561       0.75611597
H        0.00000000       0.00000000       0.00000000      -0.58955562       0.36558250      -0.07686290
H        0.00000000       0.00000000       0.00000000       0.79065931       0.36577523      -0.38105917
H        0.00000000       0.00000000       0.00000000      -0.55152393       0.59115076      -0.31838223
7
Lattice="529.1772105638412 0.0 0.0 0.0 529.1772105638412 0.0 0.0 0.0 529.1772105638412" Properties=species:S:1:pos:R:3:forces_component_raw:R:3 ipi_comment="Step:       19900  Bead:       0 forces_component_raw{ase}  cell{ase}" pbc="T T T"
O        0.00000000       0.00000000       0.00000000      -0.29801509      -0.07746512      -0.64345026
H        0.00000000       0.00000000       0.00000000       0.11959001      -0.33534533       0.15556645
H        0.00000000       0.00000000       0.00000000      -0.18825173       0.23203337       0.64464009
O        0.00000000       0.00000000       0.00000000      -0.70193404      -0.40344244       0.65517861
H        0.00000000       0.00000000       0.00000000       0.75842977      -0.16988207      -0.13507915
H        0.00000000       0.00000000       0.00000000       0.77010620      -0.07789004      -0.19896212
H        0.00000000       0.00000000       0.00000000      -0.45992512       0.83199156      -0.47789374
7
Lattice="529.1772105638412 0.0 0.0 0.0 529.1772105638412 0.0 0.0 0.0 529.1772105638412" Properties=species:S:1:pos:R:3:forces_component_raw:R:3 ipi_comment="Step:       19920  Bead:       0 forces_component_raw{ase}  cell{ase}" pbc="T T T"
O        0.00000000       0.00000000       0.00000000       1.37716544      -0.78880620      -0.19400275
H        0.00000000       0.00000000       0.00000000      -0.26254001       0.43851265      -0.06198353
H        0.00000000       0.00000000       0.00000000      -0.68354708       0.59830642      -0.04701182
O        0.00000000       0.00000000       0.00000000       0.14160991      -0.71044946       0.52292645
H        0.00000000       0.00000000       0.00000000      -0.32258022       0.22350904       0.09057197
H        0.00000000       0.00000000       0.00000000       0.09851259       0.01022799      -0.03842980
H        0.00000000       0.00000000       0.00000000      -0.34862048       0.22869945      -0.27207050
7
Lattice="529.1772105638412 0.0 0.0 0.0 529.1772105638412 0.0 0.0 0.0 529.1772105638412" Properties=species:S:1:pos:R:3:forces_component_raw:R:3 ipi_comment="Step:       19940  Bead:       0 forces_component_raw{ase}  cell{ase}" pbc="T T T"
O        0.00000000       0.00000000       0.00000000      -0.13928759       0.62003988       0.64482665
H        0.00000000       0.00000000       0.00000000       0.11134130      -0.51063341      -0.78597021
H        0.00000000       0.00000000       0.00000000      -0.02257760       0.37948167       0.25123870
O        0.00000000       0.00000000       0.00000000      -0.31111163       0.12766054      -0.42211971
H        0.00000000       0.00000000       0.00000000       0.45808607      -0.12422633      -0.30142024
H        0.00000000       0.00000000       0.00000000      -0.34678066      -0.13120723       0.18836620
H        0.00000000       0.00000000       0.00000000       0.25032985      -0.36111522       0.42507848
7
Lattice="529.1772105638412 0.0 0.0 0.0 529.1772105638412 0.0 0.0 0.0 529.1772105638412" Properties=species:S:1:pos:R:3:forces_component_raw:R:3 ipi_comment="Step:       19960  Bead:       0 forces_component_raw{ase}  cell{ase}" pbc="T T T"
O        0.00000000       0.00000000       0.00000000      -0.25528091       1.03756488       0.32659611
H        0.00000000       0.00000000       0.00000000       0.29396007      -0.16276735      -0.60279966
H        0.00000000       0.00000000       0.00000000       0.26513726      -0.62637246      -0.00592780
O        0.00000000       0.00000000       0.00000000       0.12509738      -0.32116211      -0.31283975
H        0.00000000       0.00000000       0.00000000      -0.19300167       0.37932760       0.11825654
H        0.00000000       0.00000000       0.00000000      -0.77881390       0.14639986       0.09957159
H        0.00000000       0.00000000       0.00000000       0.54290164      -0.45299053       0.37714303
7
Lattice="529.1772105638412 0.0 0.0 0.0 529.1772105638412 0.0 0.0 0.0 529.1772105638412" Properties=species:S:1:pos:R:3:forces_component_raw:R:3 ipi_comment="Step:       19980  Bead:       0 forces_component_raw{ase}  cell{ase}" pbc="T T T"
O        0.00000000       0.00000000       0.00000000      -0.66214359       0.71283668       0.53632844
H        0.00000000       0.00000000       0.00000000       0.20592874      -0.29688633      -0.44484678
H        0.00000000       0.00000000       0.00000000       0.22357391      -0.41433770      -0.00389249
O        0.00000000       0.00000000       0.00000000       0.59163386       1.46014083      -1.12533522
H        0.00000000       0.00000000       0.00000000       0.01361570      -1.06909096       0.41007814
H        0.00000000       0.00000000       0.00000000      -0.85091818      -0.11747822       0.27432960
H        0.00000000       0.00000000       0.00000000       0.47830963      -0.27518445       0.35333818
7
Lattice="529.1772105638412 0.0 0.0 0.0 529.1772105638412 0.0 0.0 0.0 529.1772105638412" Properties=species:S:1:pos:R:3:forces_component_raw:R:3 ipi_comment="Step:       20000  Bead:       0 forces_component_raw{ase}  cell{ase}" pbc="T T T"
O        0.00000000       0.00000000       0.00000000      -0.92318154      -0.31985858       0.08858051
H        0.00000000       0.00000000       0.00000000       0.10848451       0.02044432       0.03157410
H        0.00000000       0.00000000       0.00000000       0.29957980      -0.61729419       0.21333033
O        0.00000000       0.00000000       0.00000000       0.21521142       0.29477981      -0.88019741
H        0.00000000       0.00000000       0.00000000       0.10021079       0.79604465      -0.10671040
H        0.00000000       0.00000000       0.00000000       0.10236990       0.19821529       0.06744692
H        0.00000000       0.00000000       0.00000000       0.09732509      -0.37233129       0.58597595
