7
Lattice="529.1772105638412 0.0 0.0 0.0 529.1772105638412 0.0 0.0 0.0 529.1772105638412" Properties=species:S:1:pos:R:3:forces_component_raw:R:3 ipi_comment="Step:           0  Bead:       0 forces_component_raw{ase}  cell{ase}" pbc="T T T"
O        0.00000000       0.00000000       0.00000000      -1.22729492      -1.34530831      -1.10740805
H        0.00000000       0.00000000       0.00000000       1.99052906       1.67197061       1.48262000
H        0.00000000       0.00000000       0.00000000      -0.70057899       0.55161369       0.35894579
O        0.00000000       0.00000000       0.00000000      -0.00225659      -0.23330036       0.11285973
H        0.00000000       0.00000000       0.00000000      -0.12360922      -0.50221950      -0.53449488
H        0.00000000       0.00000000       0.00000000       0.44737798       0.06923753      -0.18614107
H        0.00000000       0.00000000       0.00000000      -0.38416725      -0.21199369      -0.12638167
7
Lattice="529.1772105638412 0.0 0.0 0.0 529.1772105638412 0.0 0.0 0.0 529.1772105638412" Properties=species:S:1:pos:R:3:forces_component_raw:R:3 ipi_comment="Step:          20  Bead:       0 forces_component_raw{ase}  cell{ase}" pbc="T T T"
O        0.00000000       0.00000000       0.00000000       0.65505535      -1.04789984      -1.73456097
H        0.00000000       0.00000000       0.00000000       1.00107825       0.41458926       0.53703296
H        0.00000000       0.00000000       0.00000000      -1.81813574       0.43825066       0.82101345
O        0.00000000       0.00000000       0.00000000      -0.66995287       0.26845193       0.68866432
H        0.00000000       0.00000000       0.00000000       0.65067113       0.07119593       0.27293062
H        0.00000000       0.00000000       0.00000000       0.70986366       0.27537927      -0.35926989
H        0.00000000       0.00000000       0.00000000      -0.52857971      -0.41996721      -0.22581051
7
Lattice="529.1772105638412 0.0 0.0 0.0 529.1772105638412 0.0 0.0 0.0 529.1772105638412" Properties=species:S:1:pos:R:3:forces_component_raw:R:3 ipi_comment="Step:          40  Bead:       0 forces_component_raw{ase}  cell{ase}" pbc="T T T"
O        0.00000000       0.00000000       0.00000000       1.09270072      -0.05182302      -0.04087967
H        0.00000000       0.00000000       0.00000000      -0.21652955      -0.11609738      -0.29266805
H        0.00000000       0.00000000       0.00000000      -0.53108680      -0.12037870       0.12071534
O        0.00000000       0.00000000       0.00000000      -0.03626235       0.34361732       0.52571505
H        0.00000000       0.00000000       0.00000000      -0.66109562       0.15099746       0.16131517
H        0.00000000       0.00000000       0.00000000       0.13301760      -0.29621702      -0.38137132
H        0.00000000       0.00000000       0.00000000       0.21925592       0.08990135      -0.09282655
7
Lattice="529.1772105638412 0.0 0.0 0.0 529.1772105638412 0.0 0.0 0.0 529.1772105638412" Properties=species:S:1:pos:R:3:forces_component_raw:R:3 ipi_comment="Step:          60  Bead:       0 forces_component_raw{ase}  cell{ase}" pbc="T T T"
O        0.00000000       0.00000000       0.00000000      -0.01578635       0.71022040       1.85368538
H        0.00000000       0.00000000       0.00000000      -1.21485079      -0.83309198      -1.40739584
H        0.00000000       0.00000000       0.00000000       0.66658670       0.47714380      -0.10942692
O        0.00000000       0.00000000       0.00000000      -1.30387211      -1.10217059       0.46689475
H        0.00000000       0.00000000       0.00000000       0.64329732      -0.41749236      -0.49776554
H        0.00000000       0.00000000       0.00000000       0.65823776       0.15328684      -0.47706282
H        0.00000000       0.00000000       0.00000000       0.56638730       1.01210380       0.17107089
7
Lattice="529.1772105638412 0.0 0.0 0.0 529.1772105638412 0.0 0.0 0.0 529.1772105638412" Properties=species:S:1:pos:R:3:forces_component_raw:R:3 ipi_comment="Step:          80  Bead:       0 forces_component_raw{ase}  cell{ase}" pbc="T T T"
O        0.00000000       0.00000000       0.00000000       0.53411251      -0.21402261       2.01911712
H        0.00000000       0.00000000       0.00000000      -1.60137844      -0.60420358      -1.96332694
H        0.00000000       0.00000000       0.00000000       1.37685228       0.51820040      -0.61618453
O        0.00000000       0.00000000       0.00000000      -0.27581757      -1.01101995      -0.14076030
H        0.00000000       0.00000000       0.00000000      -0.50039703      -0.10688624       0.63194502
H        0.00000000       0.00000000       0.00000000      -0.14749825       0.04975858       0.11741941
H        0.00000000       0.00000000       0.00000000       0.61412656       1.36817348      -0.04820958
7
Lattice="529.1772105638412 0.0 0.0 0.0 529.1772105638412 0.0 0.0 0.0 529.1772105638412" Properties=species:S:1:pos:R:3:forces_component_raw:R:3 ipi_comment="Step:         100  Bead:       0 forces_component_raw{ase}  cell{ase}" pbc="T T T"
O        0.00000000       0.00000000       0.00000000       0.48557809      -0.46194247       2.76751090
H        0.00000000       0.00000000       0.00000000      -1.85976685       0.00128815      -1.90798474
H        0.00000000       0.00000000       0.00000000       1.41998792       0.48727203      -0.64797831
O        0.00000000       0.00000000       0.00000000      -0.33415285      -1.76371861      -0.14903009
H        0.00000000       0.00000000       0.00000000      -0.10942896       0.63851887       0.13728043
H        0.00000000       0.00000000       0.00000000      -0.71040160      -0.38145521       0.66364443
H        0.00000000       0.00000000       0.00000000       1.10818410       1.48003698      -0.86344260
7
Lattice="529.1772105638412 0.0 0.0 0.0 529.1772105638412 0.0 0.0 0.0 529.1772105638412" Properties=species:S:1:pos:R:3:forces_component_raw:R:3 ipi_comment="Step:         120  Bead:       0 forces_component_raw{ase}  cell{ase}" pbc="T T T"
O        0.00000000       0.00000000       0.00000000       0.25132257       0.77304971       2.19693971
H        0.00000000       0.00000000       0.00000000      -1.80664754       0.05920059      -1.39324808
H        0.00000000       0.00000000       0.00000000       1.40840090      -0.11718401      -0.37679935
O        0.00000000       0.00000000       0.00000000       1.47341729      -2.31374026      -1.73409796
H        0.00000000       0.00000000       0.00000000       0.08768626      -0.55483544      -0.10045059
H        0.00000000       0.00000000       0.00000000      -1.09585142       0.51238299       0.98258931
H        0.00000000       0.00000000       0.00000000      -0.31832805       1.64112616       0.42506701
7
Lattice="529.1772105638412 0.0 0.0 0.0 529.1772105638412 0.0 0.0 0.0 529.1772105638412" Properties=species:S:1:pos:R:3:forces_component_raw:R:3 ipi_comment="Step:         140  Bead:       0 forces_component_raw{ase}  cell{ase}" pbc="T T T"
O        0.00000000       0.00000000       0.00000000      -0.89205563      -0.23653057       0.52148366
H        0.00000000       0.00000000       0.00000000      -0.53589732       0.08059955      -0.43614936
H        0.00000000       0.00000000       0.00000000       1.50015354      -0.48882249      -0.39426386
O        0.00000000       0.00000000       0.00000000      -0.42603868       1.42602563       0.53257847
H        0.00000000       0.00000000       0.00000000       0.24926473       0.08098240      -0.00114702
H        0.00000000       0.00000000       0.00000000      -0.32435229      -1.04741800       0.14946477
H        0.00000000       0.00000000       0.00000000       0.42892552       0.18516347      -0.37196654
7
Lattice="529.1772105638412 0.0 0.0 0.0 529.1772105638412 0.0 0.0 0.0 529.1772105638412" Properties=species:S:1:pos:R:3:forces_component_raw:R:3 ipi_comment="Step:         160  Bead:       0 forces_component_raw{ase}  cell{ase}" pbc="T T T"
O        0.00000000       0.00000000       0.00000000      -0.92513299      -0.27672774      -0.68733561
H        0.00000000       0.00000000       0.00000000       0.45496592       0.14899969       0.92220170
H        0.00000000       0.00000000       0.00000000       0.76841492      -0.53830552      -0.28837746
O        0.00000000       0.00000000       0.00000000       0.40737352       0.43544003      -0.77431476
H        0.00000000       0.00000000       0.00000000      -0.36924335       0.49662909       0.21396932
H        0.00000000       0.00000000       0.00000000       0.16348767       0.63261241      -0.13639522
H        0.00000000       0.00000000       0.00000000      -0.49986571      -0.89864791       0.75025195
7
Lattice="529.1772105638412 0.0 0.0 0.0 529.1772105638412 0.0 0.0 0.0 529.1772105638412" Properties=species:S:1:pos:R:3:forces_component_raw:R:3 ipi_comment="Step:         180  Bead:       0 forces_component_raw{ase}  cell{ase}" pbc="T T T"
O        0.00000000       0.00000000       0.00000000      -0.60204721      -0.27134728      -2.40476847
H        0.00000000       0.00000000       0.00000000       0.38321549       0.00057054       2.18559886
H        0.00000000       0.00000000       0.00000000      -0.12807444       0.11229451       0.05537379
O        0.00000000       0.00000000       0.00000000      -2.48320461       0.84179318       2.29360199
H        0.00000000       0.00000000       0.00000000       0.66259921      -0.12127555      -0.03555097
H        0.00000000       0.00000000       0.00000000       1.68745399       0.16539210      -1.75928474
H        0.00000000       0.00000000       0.00000000       0.48005760      -0.72742748      -0.33497042
7
Lattice="529.1772105638412 0.0 0.0 0.0 529.1772105638412 0.0 0.0 0.0 529.1772105638412" Properties=species:S:1:pos:R:3:forces_component_raw:R:3 ipi_comment="Step:         200  Bead:       0 forces_component_raw{ase}  cell{ase}" pbc="T T T"
O        0.00000000       0.00000000       0.00000000       0.67772567       0.19067943      -1.99866891
H        0.00000000       0.00000000       0.00000000      -0.31908083       0.03949738       2.42818070
H        0.00000000       0.00000000       0.00000000      -0.40668136       0.24878806      -0.07044733
O        0.00000000       0.00000000       0.00000000      -0.59699160      -0.97338897      -0.00126934
H        0.00000000       0.00000000       0.00000000      -0.24051318       0.30881643       0.25060025
H        0.00000000       0.00000000       0.00000000       1.34239555       1.02237070      -1.58439875
H        0.00000000       0.00000000       0.00000000      -0.45685428      -0.83676303       0.97600347
7
Lattice="529.1772105638412 0.0 0.0 0.0 529.1772105638412 0.0 0.0 0.0 529.1772105638412" Properties=species:S:1:pos:R:3:forces_component_raw:R:3 ipi_comment="Step:         220  Bead:       0 forces_component_raw{ase}  cell{ase}" pbc="T T T"
O        0.00000000       0.00000000       0.00000000       1.29433346       0.36621130      -0.74690747
H        0.00000000       0.00000000       0.00000000      -0.49656272      -0.43010759       1.81807590
H        0.00000000       0.00000000       0.00000000      -0.70933294       0.67331112      -0.81263530
O        0.00000000       0.00000000       0.00000000      -0.91274011       1.43637681       0.25293332
H        0.00000000       0.00000000       0.00000000      -0.59265477      -0.15798581      -0.19900982
H        0.00000000       0.00000000       0.00000000       0.80476529      -0.57744849      -0.32728648
H        0.00000000       0.00000000       0.00000000       0.61219180      -1.31035734       0.01483011
7
Lattice="529.1772105638412 0.0 0.0 0.0 529.1772105638412 0.0 0.0 0.0 529.1772105638412" Properties=species:S:1:pos:R:3:forces_component_raw:R:3 ipi_comment="Step:         240  Bead:       0 forces_component_raw{ase}  cell{ase}" pbc="T T T"
O        0.00000000       0.00000000       0.00000000       1.10021079      -0.69988394      -0.33935946
H        0.00000000       0.00000000       0.00000000      -0.65644735      -0.06223607       0.92188567
H        0.00000000       0.00000000       0.00000000      -0.92195428       1.00574804      -0.57062805
O        0.00000000       0.00000000       0.00000000       0.61755908      -0.14618146      -0.55928314
H        0.00000000       0.00000000       0.00000000       0.56933099       0.01946379      -0.04005530
H        0.00000000       0.00000000       0.00000000      -0.27911204       0.77047992      -0.18433517
H        0.00000000       0.00000000       0.00000000      -0.42958725      -0.88739050       0.77177566
7
Lattice="529.1772105638412 0.0 0.0 0.0 529.1772105638412 0.0 0.0 0.0 529.1772105638412" Properties=species:S:1:pos:R:3:forces_component_raw:R:3 ipi_comment="Step:         260  Bead:       0 forces_component_raw{ase}  cell{ase}" pbc="T T T"
O        0.00000000       0.00000000       0.00000000       0.48131433      -1.32390917       1.03707218
H        0.00000000       0.00000000       0.00000000       0.36771572      -0.09706303       0.08958304
H        0.00000000       0.00000000       0.00000000      -0.49529982       1.02761460      -1.17823589
O        0.00000000       0.00000000       0.00000000       0.22585040       2.50230933      -0.35138214
H        0.00000000       0.00000000       0.00000000      -0.57492364      -0.30319920      -0.27678931
H        0.00000000       0.00000000       0.00000000      -0.60606533      -1.03017664       0.51402491
H        0.00000000       0.00000000       0.00000000       0.60140848      -0.77557582       0.16572708
7
Lattice="529.1772105638412 0.0 0.0 0.0 529.1772105638412 0.0 0.0 0.0 529.1772105638412" Properties=species:S:1:pos:R:3:forces_component_raw:R:3 ipi_comment="Step:         280  Bead:       0 forces_component_raw{ase}  cell{ase}" pbc="T T T"
O        0.00000000       0.00000000       0.00000000      -0.34042770      -1.61603475       0.87233418
H        0.00000000       0.00000000       0.00000000       0.70571172       0.70111144      -1.21969009
H        0.00000000       0.00000000       0.00000000      -0.28320006       0.19350180      -0.06158486
O        0.00000000       0.00000000       0.00000000       0.88965649      -1.03239548      -0.46750435
H        0.00000000       0.00000000       0.00000000       0.35620257       0.35762829       0.43092364
H        0.00000000       0.00000000       0.00000000      -0.63981664       0.75092447       0.19095381
H        0.00000000       0.00000000       0.00000000      -0.68812645       0.64526409       0.25456765
7
Lattice="529.1772105638412 0.0 0.0 0.0 529.1772105638412 0.0 0.0 0.0 529.1772105638412" Properties=species:S:1:pos:R:3:forces_component_raw:R:3 ipi_comment="Step:         300  Bead:       0 forces_component_raw{ase}  cell{ase}" pbc="T T T"
O        0.00000000       0.00000000       0.00000000      -0.75253385       0.72020465       1.03809071
H        0.00000000       0.00000000       0.00000000       0.78866947      -0.27399290      -1.52945686
H        0.00000000       0.00000000       0.00000000       0.17217886      -0.64637441       0.12911841
O        0.00000000       0.00000000       0.00000000      -0.84121400       0.42561030       0.88546068
H        0.00000000       0.00000000       0.00000000      -0.04978339      -0.48788360       0.02196413
H        0.00000000       0.00000000       0.00000000      -0.01994804      -0.73883689       0.26514891
H        0.00000000       0.00000000       0.00000000       0.70263100       1.00127292      -0.81032604
7
Lattice="529.1772105638412 0.0 0.0 0.0 529.1772105638412 0.0 0.0 0.0 529.1772105638412" Properties=species:S:1:pos:R:3:forces_component_raw:R:3 ipi_comment="Step:         320  Bead:       0 forces_component_raw{ase}  cell{ase}" pbc="T T T"
O        0.00000000       0.00000000       0.00000000      -0.18128711       0.73375046       0.25340980
H        0.00000000       0.00000000       0.00000000       0.36246893       0.29869190      -1.16141665
H        0.00000000       0.00000000       0.00000000      -0.19786865      -1.06038821       0.96009636
O        0.00000000       0.00000000       0.00000000       0.44279206      -2.70616508       1.06537223
H        0.00000000       0.00000000       0.00000000       0.06238028       0.33255732      -0.07142398
H        0.00000000       0.00000000       0.00000000       0.33048278       0.84950245      -0.37018246
H        0.00000000       0.00000000       0.00000000      -0.81896842       1.55205119      -0.67585546
7
Lattice="529.1772105638412 0.0 0.0 0.0 529.1772105638412 0.0 0.0 0.0 529.1772105638412" Properties=species:S:1:pos:R:3:forces_component_raw:R:3 ipi_comment="Step:         340  Bead:       0 forces_component_raw{ase}  cell{ase}" pbc="T T T"
O        0.00000000       0.00000000       0.00000000       0.30868882       2.77110243      -0.82094312
H        0.00000000       0.00000000       0.00000000      -0.14517975      -0.37986666       0.73119551
H        0.00000000       0.00000000       0.00000000      -0.43201628      -1.70760107       0.39483562
O        0.00000000       0.00000000       0.00000000      -1.47353041      -0.74941147       0.59708524
H        0.00000000       0.00000000       0.00000000      -0.08127335      -0.31261334      -0.06625214
H        0.00000000       0.00000000       0.00000000       0.89751327      -0.71028733      -0.29996806
H        0.00000000       0.00000000       0.00000000       0.92579776       1.08867765      -0.53595305
7
Lattice="529.1772105638412 0.0 0.0 0.0 529.1772105638412 0.0 0.0 0.0 529.1772105638412" Properties=species:S:1:pos:R:3:forces_component_raw:R:3 ipi_comment="Step:         360  Bead:       0 forces_component_raw{ase}  cell{ase}" pbc="T T T"
O        0.00000000       0.00000000       0.00000000       0.85152722       0.30743912      -2.03057194
H        0.00000000       0.00000000       0.00000000      -0.14318563       0.05786744       1.84985280
H        0.00000000       0.00000000       0.00000000      -0.59961534      -0.57085812       0.34820557
O        0.00000000       0.00000000       0.00000000       0.10623044      -0.91035760      -0.37358943
H        0.00000000       0.00000000       0.00000000      -0.09629550       0.53555977      -0.22499722
H        0.00000000       0.00000000       0.00000000       0.22567272       0.42919135       0.13117602
H        0.00000000       0.00000000       0.00000000      -0.34433383       0.15115806       0.29992423
7
Lattice="529.1772105638412 0.0 0.0 0.0 529.1772105638412 0.0 0.0 0.0 529.1772105638412" Properties=species:S:1:pos:R:3:forces_component_raw:R:3 ipi_comment="Step:         380  Bead:       0 forces_component_raw{ase}  cell{ase}" pbc="T T T"
O        0.00000000       0.00000000       0.00000000       0.36772016       0.41458532      -1.87464595
H        0.00000000       0.00000000       0.00000000       0.03778868      -0.42256031       2.17126847
H        0.00000000       0.00000000       0.00000000      -0.28084672       0.21803948      -0.18218228
O        0.00000000       0.00000000       0.00000000      -0.12455681       1.22366464       0.79223621
H        0.00000000       0.00000000       0.00000000       0.03809486      -0.52223599      -0.46147102
H        0.00000000       0.00000000       0.00000000       0.05577633      -0.31334564      -0.17521912
H        0.00000000       0.00000000       0.00000000      -0.09397656      -0.59814763      -0.26998633
7
Lattice="529.1772105638412 0.0 0.0 0.0 529.1772105638412 0.0 0.0 0.0 529.1772105638412" Properties=species:S:1:pos:R:3:forces_component_raw:R:3 ipi_comment="Step:         400  Bead:       0 forces_component_raw{ase}  cell{ase}" pbc="T T T"
O        0.00000000       0.00000000       0.00000000      -0.77022869      -2.40612650      -2.83969212
H        0.00000000       0.00000000       0.00000000       0.51691693      -0.28332341       1.72427285
H        0.00000000       0.00000000       0.00000000       0.69149876       1.38514388      -0.10343811
O        0.00000000       0.00000000       0.00000000       0.07001209       2.02664066       1.17706681
H        0.00000000       0.00000000       0.00000000       0.22861223       0.39996791       0.67156541
H        0.00000000       0.00000000       0.00000000       0.49857348       0.23711488      -0.19521305
H        0.00000000       0.00000000       0.00000000      -1.23538471      -1.35941732      -0.43456209
7
Lattice="529.1772105638412 0.0 0.0 0.0 529.1772105638412 0.0 0.0 0.0 529.1772105638412" Properties=species:S:1:pos:R:3:forces_component_raw:R:3 ipi_comment="Step:         420  Bead:       0 forces_component_raw{ase}  cell{ase}" pbc="T T T"
O        0.00000000       0.00000000       0.00000000      -0.25549418      -2.25690842      -0.40462533
H        0.00000000       0.00000000       0.00000000      -0.03042524      -0.42150790       0.61169672
H        0.00000000       0.00000000       0.00000000       0.55561769       2.59192706      -0.29157662
O        0.00000000       0.00000000       0.00000000       1.13376570       2.00653005       1.40495205
H        0.00000000       0.00000000       0.00000000      -0.20539120      -0.53410363      -0.11873172
H        0.00000000       0.00000000       0.00000000       0.66463530      -0.04412751      -0.28000635
H        0.00000000       0.00000000       0.00000000      -1.86270833      -1.34180928      -0.92170871
7
Lattice="529.1772105638412 0.0 0.0 0.0 529.1772105638412 0.0 0.0 0.0 529.1772105638412" Properties=species:S:1:pos:R:3:forces_component_raw:R:3 ipi_comment="Step:         440  Bead:       0 forces_component_raw{ase}  cell{ase}" pbc="T T T"
O        0.00000000       0.00000000       0.00000000      -0.79034811      -2.07021165       0.42399404
H        0.00000000       0.00000000       0.00000000      -0.06245942       0.24828059       0.33649141
H        0.00000000       0.00000000       0.00000000       0.57257158       1.97845066      -0.10238856
O        0.00000000       0.00000000       0.00000000       0.38385010       1.14436531       1.31220770
H        0.00000000       0.00000000       0.00000000       0.47949582      -0.37894106      -0.66523153
H        0.00000000       0.00000000       0.00000000       0.93689001      -0.04427221      -0.33356243
H        0.00000000       0.00000000       0.00000000      -1.52000010      -0.87767172      -0.97151077
7
Lattice="529.1772105638412 0.0 0.0 0.0 529.1772105638412 0.0 0.0 0.0 529.1772105638412" Properties=species:S:1:pos:R:3:forces_component_raw:R:3 ipi_comment="Step:         460  Bead:       0 forces_component_raw{ase}  cell{ase}" pbc="T T T"
O        0.00000000       0.00000000       0.00000000      -0.15131949      -0.35452980       0.68861556
H        0.00000000       0.00000000       0.00000000      -0.02590680       0.02782673      -0.43250525
H        0.00000000       0.00000000       0.00000000       0.15295528       0.66333652      -0.09796405
O        0.00000000       0.00000000       0.00000000      -0.49941325      -1.05716634      -0.02050367
H        0.00000000       0.00000000       0.00000000      -0.46983653       0.84962815       0.66751707
H        0.00000000       0.00000000       0.00000000       1.31004238      -0.10836244      -0.57108033
H        0.00000000       0.00000000       0.00000000      -0.31652165      -0.02073278      -0.23407930
7
Lattice="529.1772105638412 0.0 0.0 0.0 529.1772105638412 0.0 0.0 0.0 529.1772105638412" Properties=species:S:1:pos:R:3:forces_component_raw:R:3 ipi_comment="Step:         480  Bead:       0 forces_component_raw{ase}  cell{ase}" pbc="T T T"
O        0.00000000       0.00000000       0.00000000      -0.11185865       2.74268723       0.62582833
H        0.00000000       0.00000000       0.00000000       0.18448417      -0.19335906      -0.52420694
H        0.00000000       0.00000000       0.00000000      -0.58275682      -1.21538401       0.67041654
O        0.00000000       0.00000000       0.00000000      -1.57898927      -0.42148432      -0.83600527
H        0.00000000       0.00000000       0.00000000       0.49280417      -0.99839199      -0.57970482
H        0.00000000       0.00000000       0.00000000       0.89263112      -0.03220224      -0.33054459
H        0.00000000       0.00000000       0.00000000       0.70368529       0.11813416       0.97421676
7
Lattice="529.1772105638412 0.0 0.0 0.0 529.1772105638412 0.0 0.0 0.0 529.1772105638412" Properties=species:S:1:pos:R:3:forces_component_raw:R:3 ipi_comment="Step:         500  Bead:       0 forces_component_raw{ase}  cell{ase}" pbc="T T T"
O        0.00000000       0.00000000       0.00000000       0.73102743       1.66107703      -1.25305319
H        0.00000000       0.00000000       0.00000000       0.12578438       0.08225107      -0.22621663
H        0.00000000       0.00000000       0.00000000      -0.95450592      -2.11084319       1.27110613
O        0.00000000       0.00000000       0.00000000      -1.17883837       0.34162629      -1.40842390
H        0.00000000       0.00000000       0.00000000       0.48055154       0.24290395      -0.19401428
H        0.00000000       0.00000000       0.00000000      -0.54772961      -0.14214608       0.13558292
H        0.00000000       0.00000000       0.00000000       1.34371054      -0.07486897       1.67501903
7
Lattice="529.1772105638412 0.0 0.0 0.0 529.1772105638412 0.0 0.0 0.0 529.1772105638412" Properties=species:S:1:pos:R:3:forces_component_raw:R:3 ipi_comment="Step:         520  Bead:       0 forces_component_raw{ase}  cell{ase}" pbc="T T T"
O        0.00000000       0.00000000       0.00000000       0.76292551       2.05398894      -0.51170266
H        0.00000000       0.00000000       0.00000000      -0.01813544      -0.48783687      -0.11051875
H        0.00000000       0.00000000       0.00000000      -0.59170747      -1.85417605       0.19500464
O        0.00000000       0.00000000       0.00000000       0.31479257       1.33956671      -1.79611147
H        0.00000000       0.00000000       0.00000000      -0.25559121      -0.21522102       0.10422686
H        0.00000000       0.00000000       0.00000000      -1.87935567      -0.44432670       0.45811683
H        0.00000000       0.00000000       0.00000000       1.66707135      -0.39199513       1.66098476
7
Lattice="529.1772105638412 0.0 0.0 0.0 529.1772105638412 0.0 0.0 0.0 529.1772105638412" Properties=species:S:1:pos:R:3:forces_component_raw:R:3 ipi_comment="Step:         540  Bead:       0 forces_component_raw{ase}  cell{ase}" pbc="T T T"
O        0.00000000       0.00000000       0.00000000       0.12852410      -0.83138049      -0.07620219
H        0.00000000       0.00000000       0.00000000       0.12588130       0.45802823      -0.61949921
H        0.00000000       0.00000000       0.00000000      -0.02665337      -0.49404687       0.28636667
O        0.00000000       0.00000000       0.00000000      -0.15645897      -0.27273989      -2.00080109
H        0.00000000       0.00000000       0.00000000       0.17820182       0.42749104      -0.42974997
H        0.00000000       0.00000000       0.00000000      -1.67272878       0.84226000       1.49251938
H        0.00000000       0.00000000       0.00000000       1.42323399      -0.12961212       1.34736634
7
Lattice="529.1772105638412 0.0 0.0 0.0 529.1772105638412 0.0 0.0 0.0 529.1772105638412" Properties=species:S:1:pos:R:3:forces_component_raw:R:3 ipi_comment="Step:         560  Bead:       0 forces_component_raw{ase}  cell{ase}" pbc="T T T"
O        0.00000000       0.00000000       0.00000000      -0.01807465      -2.16289139       1.00225342
H        0.00000000       0.00000000       0.00000000      -0.01411347       0.02192810      -1.18480015
H        0.00000000       0.00000000       0.00000000       0.33262640       2.19909239      -0.20396817
O        0.00000000       0.00000000       0.00000000       2.22816206      -1.23609281      -0.86725849
H        0.00000000       0.00000000       0.00000000      -0.52917618      -0.01621813       0.57613564
H        0.00000000       0.00000000       0.00000000      -2.35589338       1.21525598       0.77014601
H        0.00000000       0.00000000       0.00000000       0.35646933      -0.02107413      -0.09250812
7
Lattice="529.1772105638412 0.0 0.0 0.0 529.1772105638412 0.0 0.0 0.0 529.1772105638412" Properties=species:S:1:pos:R:3:forces_component_raw:R:3 ipi_comment="Step:         580  Bead:       0 forces_component_raw{ase}  cell{ase}" pbc="T T T"
O        0.00000000       0.00000000       0.00000000      -0.35686043      -1.99440146       1.48693228
H        0.00000000       0.00000000       0.00000000      -0.03277861       0.02388507       0.27994669
H        0.00000000       0.00000000       0.00000000       0.11838985       2.35137773      -0.51236004
O        0.00000000       0.00000000       0.00000000       2.98884440      -0.78149420       0.33763814
H        0.00000000       0.00000000       0.00000000       0.43222299      -0.17594430      -1.07157374
H        0.00000000       0.00000000       0.00000000      -1.72522283       1.11072994       0.70679182
H        0.00000000       0.00000000       0.00000000      -1.42459536      -0.53415293      -1.22737527
7
Lattice="529.1772105638412 0.0 0.0 0.0 529.1772105638412 0.0 0.0 0.0 529.1772105638412" Properties=species:S:1:pos:R:3:forces_component_raw:R:3 ipi_comment="Step:         600  Bead:       0 forces_component_raw{ase}  cell{ase}" pbc="T T T"
O        0.00000000       0.00000000       0.00000000      -1.04044819       0.17237170      -2.50816131
H        0.00000000       0.00000000       0.00000000       0.73209864      -0.08624572       1.59702993
H        0.00000000       0.00000000       0.00000000       0.17821017       0.24741291       0.53118569
O        0.00000000       0.00000000       0.00000000       2.98439098       0.05126554       1.33513403
H        0.00000000       0.00000000       0.00000000      -0.06666248      -0.13419557       0.78496713
H        0.00000000       0.00000000       0.00000000      -1.58726764       0.41647917      -0.16143465
H        0.00000000       0.00000000       0.00000000      -1.20032144      -0.66708803      -1.57872081
7
Lattice="529.1772105638412 0.0 0.0 0.0 529.1772105638412 0.0 0.0 0.0 529.1772105638412" Properties=species:S:1:pos:R:3:forces_component_raw:R:3 ipi_comment="Step:         620  Bead:       0 forces_component_raw{ase}  cell{ase}" pbc="T T T"
O        0.00000000       0.00000000       0.00000000      -0.87382889       2.07201839      -1.81538022
H        0.00000000       0.00000000       0.00000000       1.06870270      -0.93940127       1.92996765
H        0.00000000       0.00000000       0.00000000      -0.52599305      -1.48824787      -0.40461943
O        0.00000000       0.00000000       0.00000000       0.20274800       0.40363878       1.47386265
H        0.00000000       0.00000000       0.00000000       0.33830714       0.22253197      -0.11995814
H        0.00000000       0.00000000       0.00000000       0.42641515      -0.20863748      -0.18772867
H        0.00000000       0.00000000       0.00000000      -0.63635111      -0.06190252      -0.87614393
7
Lattice="529.1772105638412 0.0 0.0 0.0 529.1772105638412 0.0 0.0 0.0 529.1772105638412" Properties=species:S:1:pos:R:3:forces_component_raw:R:3 ipi_comment="Step:         640  Bead:       0 forces_component_raw{ase}  cell{ase}" pbc="T T T"
O        0.00000000       0.00000000       0.00000000      -1.50874794       0.72442508      -3.42208815
H        0.00000000       0.00000000       0.00000000       1.14000261       0.36163992       1.44209290
H        0.00000000       0.00000000       0.00000000       0.23744488      -1.38864088       1.50053144
O        0.00000000       0.00000000       0.00000000      -2.45145345       0.88538087       0.25538909
H        0.00000000       0.00000000       0.00000000       0.25935370       0.01289718       0.18457614
H        0.00000000       0.00000000       0.00000000       2.19029046      -0.55751544      -0.28934035
H        0.00000000       0.00000000       0.00000000       0.13310978      -0.03818694       0.32883895
7
Lattice="529.1772105638412 0.0 0.0 0.0 529.1772105638412 0.0 0.0 0.0 529.1772105638412" Properties=species:S:1:pos:R:3:forces_component_raw:R:3 ipi_comment="Step:         660  Bead:       0 forces_component_raw{ase}  cell{ase}" pbc="T T T"
O        0.00000000       0.00000000       0.00000000       0.86843479       1.91197920       0.11476582
H        0.00000000       0.00000000       0.00000000      -0.17527804      -0.63980085       0.25888184
H        0.00000000       0.00000000       0.00000000      -0.48675662      -1.34858156      -0.12419051
O        0.00000000       0.00000000       0.00000000      -3.05506921       2.33450127      -0.60417479
H        0.00000000       0.00000000       0.00000000      -0.35806656      -0.21111931      -0.31810558
H        0.00000000       0.00000000       0.00000000       2.95501185      -1.08667469      -0.64524532
H        0.00000000       0.00000000       0.00000000       0.25172371      -0.96030390       1.31806851
7
Lattice="529.1772105638412 0.0 0.0 0.0 529.1772105638412 0.0 0.0 0.0 529.1772105638412" Properties=species:S:1:pos:R:3:forces_component_raw:R:3 ipi_comment="Step:         680  Bead:       0 forces_component_raw{ase}  cell{ase}" pbc="T T T"
O        0.00000000       0.00000000       0.00000000       0.59806854      -1.29259467       1.56153202
H        0.00000000       0.00000000       0.00000000      -0.66766250       0.65945923      -1.55871964
H        0.00000000       0.00000000       0.00000000       0.28861767       0.49945963       0.38054916
O        0.00000000       0.00000000       0.00000000      -4.17339040       2.04043532      -0.23917043
H        0.00000000       0.00000000       0.00000000       0.22896415       0.54094064       0.11996903
H        0.00000000       0.00000000       0.00000000       2.36590386      -1.01501966      -1.18540454
H        0.00000000       0.00000000       0.00000000       1.35949815      -1.43268049       0.92124427
7
Lattice="529.1772105638412 0.0 0.0 0.0 529.1772105638412 0.0 0.0 0.0 529.1772105638412" Properties=species:S:1:pos:R:3:forces_component_raw:R:3 ipi_comment="Step:         700  Bead:       0 forces_component_raw{ase}  cell{ase}" pbc="T T T"
O        0.00000000       0.00000000       0.00000000      -0.01693743       1.29103339       3.03502393
H        0.00000000       0.00000000       0.00000000       0.00008810      -1.41100860      -1.82516206
H        0.00000000       0.00000000       0.00000000      -0.05825277       0.84763032      -1.03771305
O        0.00000000       0.00000000       0.00000000      -0.94750059      -0.59168512      -2.12901307
H        0.00000000       0.00000000       0.00000000      -0.21322960      -0.63774729      -0.17235890
H        0.00000000       0.00000000       0.00000000      -0.39132515       0.43577015       0.41825801
H        0.00000000       0.00000000       0.00000000       1.62715733       0.06600703       1.71096468
7
Lattice="529.1772105638412 0.0 0.0 0.0 529.1772105638412 0.0 0.0 0.0 529.1772105638412" Properties=species:S:1:pos:R:3:forces_component_raw:R:3 ipi_comment="Step:         720  Bead:       0 forces_component_raw{ase}  cell{ase}" pbc="T T T"
O        0.00000000       0.00000000       0.00000000       0.23981899      -2.50676108       2.20803762
H        0.00000000       0.00000000       0.00000000      -0.09843597       0.61847055      -2.21446085
H        0.00000000       0.00000000       0.00000000      -0.11211523       1.73061216      -0.13979155
O        0.00000000       0.00000000       0.00000000       0.47721100      -1.12201655      -0.96080250
H        0.00000000       0.00000000       0.00000000      -0.04594255       0.17537965       0.04652841
H        0.00000000       0.00000000       0.00000000      -1.80422378       0.58163852       0.33626592
H        0.00000000       0.00000000       0.00000000       1.34368754       0.52267671       0.72422290
7
Lattice="529.1772105638412 0.0 0.0 0.0 529.1772105638412 0.0 0.0 0.0 529.1772105638412" Properties=species:S:1:pos:R:3:forces_component_raw:R:3 ipi_comment="Step:         740  Bead:       0 forces_component_raw{ase}  cell{ase}" pbc="T T T"
O        0.00000000       0.00000000       0.00000000      -0.05143803      -0.41823632       2.02863336
H        0.00000000       0.00000000       0.00000000       0.05415582      -0.72869104      -1.13321913
H        0.00000000       0.00000000       0.00000000      -0.14434779       0.55667198      -1.10974300
O        0.00000000       0.00000000       0.00000000       2.19251395      -0.53757310      -0.33825424
H        0.00000000       0.00000000       0.00000000       0.47691673      -0.13370138      -0.17958689
H        0.00000000       0.00000000       0.00000000      -2.66275979       0.75177491       0.46261099
H        0.00000000       0.00000000       0.00000000       0.13495895       0.50975514       0.26955876
7
Lattice="529.1772105638412 0.0 0.0 0.0 529.1772105638412 0.0 0.0 0.0 529.1772105638412" Properties=species:S:1:pos:R:3:forces_component_raw:R:3 ipi_comment="Step:         760  Bead:       0 forces_component_raw{ase}  cell{ase}" pbc="T T T"
O        0.00000000       0.00000000       0.00000000       0.43598816      -0.42359144      -1.52979935
H        0.00000000       0.00000000       0.00000000      -0.26912448       0.65788686       0.31423602
H        0.00000000       0.00000000       0.00000000      -0.03865496      -0.85209358       0.81642252
O        0.00000000       0.00000000       0.00000000       3.85209013       0.65912217       0.15226375
H        0.00000000       0.00000000       0.00000000      -0.72073245       0.16422033       0.41530928
H        0.00000000       0.00000000       0.00000000      -2.76945019       0.05996850      -0.19369738
H        0.00000000       0.00000000       0.00000000      -0.49011630      -0.26551300       0.02526525
7
Lattice="529.1772105638412 0.0 0.0 0.0 529.1772105638412 0.0 0.0 0.0 529.1772105638412" Properties=species:S:1:pos:R:3:forces_component_raw:R:3 ipi_comment="Step:         780  Bead:       0 forces_component_raw{ase}  cell{ase}" pbc="T T T"
O        0.00000000       0.00000000       0.00000000      -0.88070482       2.36036563      -0.48948604
H        0.00000000       0.00000000       0.00000000      -0.18309580      -0.74934501       1.32790578
H        0.00000000       0.00000000       0.00000000       0.77272278      -1.05128753      -0.52235299
O        0.00000000       0.00000000       0.00000000       1.78880263      -0.87307787      -0.10107193
H        0.00000000       0.00000000       0.00000000       0.88740856      -0.36368418      -0.05701914
H        0.00000000       0.00000000       0.00000000      -2.11734009       1.12503088      -0.06698696
H        0.00000000       0.00000000       0.00000000      -0.26779345      -0.44800198      -0.09098882
7
Lattice="529.1772105638412 0.0 0.0 0.0 529.1772105638412 0.0 0.0 0.0 529.1772105638412" Properties=species:S:1:pos:R:3:forces_component_raw:R:3 ipi_comment="Step:         800  Bead:       0 forces_component_raw{ase}  cell{ase}" pbc="T T T"
O        0.00000000       0.00000000       0.00000000       1.42669332       0.59323967      -2.81399394
H        0.00000000       0.00000000       0.00000000      -1.45733309       0.22168320       2.09131051
H        0.00000000       0.00000000       0.00000000       0.13237770      -0.40491021       0.97613335
O        0.00000000       0.00000000       0.00000000       1.71059227      -0.82901126       0.01861858
H        0.00000000       0.00000000       0.00000000      -0.75373519       0.50561929       0.12422469
H        0.00000000       0.00000000       0.00000000      -1.09793473       0.09374289      -0.37616381
H        0.00000000       0.00000000       0.00000000       0.03933960      -0.18036360      -0.02012953
7
Lattice="529.1772105638412 0.0 0.0 0.0 529.1772105638412 0.0 0.0 0.0 529.1772105638412" Properties=species:S:1:pos:R:3:forces_component_raw:R:3 ipi_comment="Step:         820  Bead:       0 forces_component_raw{ase}  cell{ase}" pbc="T T T"
O        0.00000000       0.00000000       0.00000000      -0.78335130       1.31689549      -0.78401566
H        0.00000000       0.00000000       0.00000000      -0.05463728      -0.30322728       1.05235219
H        0.00000000       0.00000000       0.00000000       0.68953782       0.00408901      -0.04515374
O        0.00000000       0.00000000       0.00000000      -1.43792701      -0.03539166       0.39935672
H        0.00000000       0.00000000       0.00000000       0.22080159      -0.73468316      -0.19549340
H        0.00000000       0.00000000       0.00000000       1.23600102      -0.40011963      -0.03182481
H        0.00000000       0.00000000       0.00000000       0.12957507       0.15243717      -0.39522141
7
Lattice="529.1772105638412 0.0 0.0 0.0 529.1772105638412 0.0 0.0 0.0 529.1772105638412" Properties=species:S:1:pos:R:3:forces_component_raw:R:3 ipi_comment="Step:         840  Bead:       0 forces_component_raw{ase}  cell{ase}" pbc="T T T"
O        0.00000000       0.00000000       0.00000000       0.66222763      -1.38901973       0.37638515
H        0.00000000       0.00000000       0.00000000      -0.04518664       0.30044183      -0.33860934
H        0.00000000       0.00000000       0.00000000      -0.46717656       0.48423410      -0.15119517
O        0.00000000       0.00000000       0.00000000      -3.01693416       1.01505482       0.53518653
H        0.00000000       0.00000000       0.00000000       0.06274620       0.38981241      -0.12725207
H        0.00000000       0.00000000       0.00000000       2.04678154      -1.09298110      -0.05688459
H        0.00000000       0.00000000       0.00000000       0.75754202       0.29245758      -0.23763049
7
Lattice="529.1772105638412 0.0 0.0 0.0 529.1772105638412 0.0 0.0 0.0 529.1772105638412" Properties=species:S:1:pos:R:3:forces_component_raw:R:3 ipi_comment="Step:         860  Bead:       0 forces_component_raw{ase}  cell{ase}" pbc="T T T"
O        0.00000000       0.00000000       0.00000000       0.17897639      -0.82762271       1.99194336
H        0.00000000       0.00000000       0.00000000       0.63710988      -0.51215786      -1.06294132
H        0.00000000       0.00000000       0.00000000      -0.58044994       0.83310056      -1.11860848
O        0.00000000       0.00000000       0.00000000      -1.92334927      -0.16046011       0.39152816
H        0.00000000       0.00000000       0.00000000      -0.58470619       0.35057169       0.24226698
H        0.00000000       0.00000000       0.00000000       1.66886473      -0.56462789      -0.56513691
H        0.00000000       0.00000000       0.00000000       0.60355437       0.88119632       0.12094809
7
Lattice="529.1772105638412 0.0 0.0 0.0 529.1772105638412 0.0 0.0 0.0 529.1772105638412" Properties=species:S:1:pos:R:3:forces_component_raw:R:3 ipi_comment="Step:         880  Bead:       0 forces_component_raw{ase}  cell{ase}" pbc="T T T"
O        0.00000000       0.00000000       0.00000000       0.38587207      -1.32405639       1.16483999
H        0.00000000       0.00000000       0.00000000      -0.06950468      -0.42541331      -1.31731439
H        0.00000000       0.00000000       0.00000000      -0.57960475       0.90510023      -0.52973926
O        0.00000000       0.00000000       0.00000000      -0.30351639       0.48164225       0.10978511
H        0.00000000       0.00000000       0.00000000       0.88675320       0.03842500       0.43641159
H        0.00000000       0.00000000       0.00000000      -0.31753975       0.10843086       0.15560597
H        0.00000000       0.00000000       0.00000000      -0.00245979       0.21587101      -0.01958883
7
Lattice="529.1772105638412 0.0 0.0 0.0 529.1772105638412 0.0 0.0 0.0 529.1772105638412" Properties=species:S:1:pos:R:3:forces_component_raw:R:3 ipi_comment="Step:         900  Bead:       0 forces_component_raw{ase}  cell{ase}" pbc="T T T"
O        0.00000000       0.00000000       0.00000000       0.23108347      -0.14073499       0.13742106
H        0.00000000       0.00000000       0.00000000      -0.13764444       0.55173439       0.24805436
H        0.00000000       0.00000000       0.00000000       0.08355358      -0.30241832       0.23449883
O        0.00000000       0.00000000       0.00000000       2.04694248       0.86733514      -2.15520621
H        0.00000000       0.00000000       0.00000000      -0.49266121      -0.39782000      -0.61966640
H        0.00000000       0.00000000       0.00000000      -0.97268176      -0.27883923       1.87061537
H        0.00000000       0.00000000       0.00000000      -0.75859201      -0.29925698       0.28428310
7
Lattice="529.1772105638412 0.0 0.0 0.0 529.1772105638412 0.0 0.0 0.0 529.1772105638412" Properties=species:S:1:pos:R:3:forces_component_raw:R:3 ipi_comment="Step:         920  Bead:       0 forces_component_raw{ase}  cell{ase}" pbc="T T T"
O        0.00000000       0.00000000       0.00000000      -1.55945731       1.13424409      -2.16890669
H        0.00000000       0.00000000       0.00000000       0.67565113       0.22702035       1.94468737
H        0.00000000       0.00000000       0.00000000       0.54708105      -1.03127504       0.21098474
O        0.00000000       0.00000000       0.00000000       0.37362176       0.44772151      -2.34229875
H        0.00000000       0.00000000       0.00000000       0.76954228       0.46545690       0.51959461
H        0.00000000       0.00000000       0.00000000      -0.97107679      -0.72454900       2.09777093
H        0.00000000       0.00000000       0.00000000       0.16463798      -0.51861894      -0.26183221
7
Lattice="529.1772105638412 0.0 0.0 0.0 529.1772105638412 0.0 0.0 0.0 529.1772105638412" Properties=species:S:1:pos:R:3:forces_component_raw:R:3 ipi_comment="Step:         940  Bead:       0 forces_component_raw{ase}  cell{ase}" pbc="T T T"
O        0.00000000       0.00000000       0.00000000      -1.02165580       0.64344132      -1.25142467
H        0.00000000       0.00000000       0.00000000       0.47330961       0.77004469       1.53177905
H        0.00000000       0.00000000       0.00000000       0.84942836      -0.81485534       0.39895240
O        0.00000000       0.00000000       0.00000000       1.36886692      -0.10335585      -2.57398844
H        0.00000000       0.00000000       0.00000000      -0.68982351      -0.37160263      -0.70580930
H        0.00000000       0.00000000       0.00000000      -0.97229922      -0.27863479       2.35068799
H        0.00000000       0.00000000       0.00000000      -0.00782642       0.15496236       0.24980301
7
Lattice="529.1772105638412 0.0 0.0 0.0 529.1772105638412 0.0 0.0 0.0 529.1772105638412" Properties=species:S:1:pos:R:3:forces_component_raw:R:3 ipi_comment="Step:         960  Bead:       0 forces_component_raw{ase}  cell{ase}" pbc="T T T"
O        0.00000000       0.00000000       0.00000000      -0.92771799       0.66237545      -0.67673355
H        0.00000000       0.00000000       0.00000000       0.10292438      -0.22725865       0.18901287
H        0.00000000       0.00000000       0.00000000       0.28027445       0.23586711       0.30889621
O        0.00000000       0.00000000       0.00000000       0.61495316      -0.17250356      -1.14771557
H        0.00000000       0.00000000       0.00000000       0.57668162      -0.52873612       0.32996410
H        0.00000000       0.00000000       0.00000000      -0.81458014      -0.01686269       1.06014812
H        0.00000000       0.00000000       0.00000000       0.16746455       0.04711843      -0.06357217
7
Lattice="529.1772105638412 0.0 0.0 0.0 529.1772105638412 0.0 0.0 0.0 529.1772105638412" Properties=species:S:1:pos:R:3:forces_component_raw:R:3 ipi_comment="Step:         980  Bead:       0 forces_component_raw{ase}  cell{ase}" pbc="T T T"
O        0.00000000       0.00000000       0.00000000      -0.17143881      -0.15699123       0.60125214
H        0.00000000       0.00000000       0.00000000       0.12617624      -0.14088804      -0.39254353
H        0.00000000       0.00000000       0.00000000       0.14749998      -0.01243801      -0.22785999
O        0.00000000       0.00000000       0.00000000      -0.51621032      -0.74177200       0.61599457
H        0.00000000       0.00000000       0.00000000      -0.22296664       0.72670603      -0.01827390
H        0.00000000       0.00000000       0.00000000       0.40313318       0.09465800      -0.52504927
H        0.00000000       0.00000000       0.00000000       0.23380631       0.23072523      -0.05351995
7
Lattice="529.1772105638412 0.0 0.0 0.0 529.1772105638412 0.0 0.0 0.0 529.1772105638412" Properties=species:S:1:pos:R:3:forces_component_raw:R:3 ipi_comment="Step:        1000  Bead:       0 forces_component_raw{ase}  cell{ase}" pbc="T T T"
O        0.00000000       0.00000000       0.00000000       0.45360485      -0.50143218       0.18621814
H        0.00000000       0.00000000       0.00000000      -0.54732943       0.09136497      -0.44433999
H        0.00000000       0.00000000       0.00000000       0.13406867       0.12739363       0.21913737
O        0.00000000       0.00000000       0.00000000      -1.76206506       0.23374307       2.02919484
H        0.00000000       0.00000000       0.00000000      -0.01361433      -0.19853748      -0.19822863
H        0.00000000       0.00000000       0.00000000       1.62818122      -0.06613225      -1.87564016
H        0.00000000       0.00000000       0.00000000       0.10715428       0.31360027       0.08365881
7
Lattice="529.1772105638412 0.0 0.0 0.0 529.1772105638412 0.0 0.0 0.0 529.1772105638412" Properties=species:S:1:pos:R:3:forces_component_raw:R:3 ipi_comment="Step:        1020  Bead:       0 forces_component_raw{ase}  cell{ase}" pbc="T T T"
O        0.00000000       0.00000000       0.00000000       1.07636822      -0.67660540      -0.13185512
H        0.00000000       0.00000000       0.00000000      -0.43003604      -0.01719438      -0.55453593
H        0.00000000       0.00000000       0.00000000      -0.52011633       0.01203230       0.06953569
O        0.00000000       0.00000000       0.00000000      -2.15803433       0.00054306       2.50081850
H        0.00000000       0.00000000       0.00000000      -0.02702740      -0.08722045       0.45298046
H        0.00000000       0.00000000       0.00000000       2.04318381       0.17704424      -2.56095100
H        0.00000000       0.00000000       0.00000000       0.01566181       0.59140074       0.22400743
7
Lattice="529.1772105638412 0.0 0.0 0.0 529.1772105638412 0.0 0.0 0.0 529.1772105638412" Properties=species:S:1:pos:R:3:forces_component_raw:R:3 ipi_comment="Step:        1040  Bead:       0 forces_component_raw{ase}  cell{ase}" pbc="T T T"
O        0.00000000       0.00000000       0.00000000       1.40198255      -1.55774188      -0.81110978
H        0.00000000       0.00000000       0.00000000       0.08179581       0.21651514       0.13392979
H        0.00000000       0.00000000       0.00000000      -1.22050596       0.26728416       0.35795674
O        0.00000000       0.00000000       0.00000000      -1.48374498       0.52495170       2.43529368
H        0.00000000       0.00000000       0.00000000       0.16456823       0.31005195      -0.34943813
H        0.00000000       0.00000000       0.00000000       0.97452903       0.15174532      -1.61910189
H        0.00000000       0.00000000       0.00000000       0.08137536       0.08719373      -0.14753026
7
Lattice="529.1772105638412 0.0 0.0 0.0 529.1772105638412 0.0 0.0 0.0 529.1772105638412" Properties=species:S:1:pos:R:3:forces_component_raw:R:3 ipi_comment="Step:        1060  Bead:       0 forces_component_raw{ase}  cell{ase}" pbc="T T T"
O        0.00000000       0.00000000       0.00000000       0.64483029      -0.66539306      -1.03902400
H        0.00000000       0.00000000       0.00000000       0.66736829       0.00999737       0.51889330
H        0.00000000       0.00000000       0.00000000      -1.49164009       0.60577411       0.32111132
O        0.00000000       0.00000000       0.00000000       0.62829960      -0.14701915      -0.58136749
H        0.00000000       0.00000000       0.00000000       0.02173036       0.22112493       0.50266230
H        0.00000000       0.00000000       0.00000000       0.18438947       0.29004109      -0.08853307
H        0.00000000       0.00000000       0.00000000      -0.65497804      -0.31452531       0.36625776
7
Lattice="529.1772105638412 0.0 0.0 0.0 529.1772105638412 0.0 0.0 0.0 529.1772105638412" Properties=species:S:1:pos:R:3:forces_component_raw:R:3 ipi_comment="Step:        1080  Bead:       0 forces_component_raw{ase}  cell{ase}" pbc="T T T"
O        0.00000000       0.00000000       0.00000000      -0.61433220       0.73727364      -0.38681209
H        0.00000000       0.00000000       0.00000000       0.63470864       0.39501423       0.91139609
H        0.00000000       0.00000000       0.00000000      -0.12552160       0.15985760       0.19325799
O        0.00000000       0.00000000       0.00000000       1.17979765       0.51838243      -1.04889751
H        0.00000000       0.00000000       0.00000000      -0.02608749      -0.63696700      -0.30419916
H        0.00000000       0.00000000       0.00000000      -0.36521685      -0.41018653       0.80715764
H        0.00000000       0.00000000       0.00000000      -0.68334806      -0.76337457      -0.17190301
7
Lattice="529.1772105638412 0.0 0.0 0.0 529.1772105638412 0.0 0.0 0.0 529.1772105638412" Properties=species:S:1:pos:R:3:forces_component_raw:R:3 ipi_comment="Step:        1100  Bead:       0 forces_component_raw{ase}  cell{ase}" pbc="T T T"
O        0.00000000       0.00000000       0.00000000      -0.96524698       1.02155268       0.27367830
H        0.00000000       0.00000000       0.00000000       0.37253910      -0.02651029       0.27827066
H        0.00000000       0.00000000       0.00000000       0.63068074      -0.46462005      -0.10746875
O        0.00000000       0.00000000       0.00000000       1.03489971      -0.11390758      -2.57730389
H        0.00000000       0.00000000       0.00000000      -0.12365098       0.59552121      -0.21417306
H        0.00000000       0.00000000       0.00000000       0.06839828      -0.09912017       2.05188752
H        0.00000000       0.00000000       0.00000000      -1.01761973      -0.91291607       0.29510927
7
Lattice="529.1772105638412 0.0 0.0 0.0 529.1772105638412 0.0 0.0 0.0 529.1772105638412" Properties=species:S:1:pos:R:3:forces_component_raw:R:3 ipi_comment="Step:        1120  Bead:       0 forces_component_raw{ase}  cell{ase}" pbc="T T T"
O        0.00000000       0.00000000       0.00000000      -1.12709785       0.28755942      -0.77177453
H        0.00000000       0.00000000       0.00000000       0.10026014      -0.03054285       0.14087811
H        0.00000000       0.00000000       0.00000000       0.92543662      -0.23305100       0.41070899
O        0.00000000       0.00000000       0.00000000       0.54798555       1.65517557      -1.62283016
H        0.00000000       0.00000000       0.00000000      -0.06197082      -0.54277253       0.34320194
H        0.00000000       0.00000000       0.00000000      -0.25368568      -1.10878873       1.73002839
H        0.00000000       0.00000000       0.00000000      -0.13092792      -0.02757978      -0.23021290
7
Lattice="529.1772105638412 0.0 0.0 0.0 529.1772105638412 0.0 0.0 0.0 529.1772105638412" Properties=species:S:1:pos:R:3:forces_component_raw:R:3 ipi_comment="Step:        1140  Bead:       0 forces_component_raw{ase}  cell{ase}" pbc="T T T"
O        0.00000000       0.00000000       0.00000000      -0.30263180       0.64517379       0.72960854
H        0.00000000       0.00000000       0.00000000      -0.17245199      -0.79315013      -0.88119382
H        0.00000000       0.00000000       0.00000000       0.44633222      -0.56130982      -0.09164238
O        0.00000000       0.00000000       0.00000000      -0.85171110      -0.95506597      -0.55570376
H        0.00000000       0.00000000       0.00000000       0.11562035       0.29460061      -0.62181407
H        0.00000000       0.00000000       0.00000000       0.07128354       0.20060866       1.51901365
H        0.00000000       0.00000000       0.00000000       0.69355875       1.16914273      -0.09826815
7
Lattice="529.1772105638412 0.0 0.0 0.0 529.1772105638412 0.0 0.0 0.0 529.1772105638412" Properties=species:S:1:pos:R:3:forces_component_raw:R:3 ipi_comment="Step:        1160  Bead:       0 forces_component_raw{ase}  cell{ase}" pbc="T T T"
O        0.00000000       0.00000000       0.00000000       1.26004100      -0.65043920       1.47612715
H        0.00000000       0.00000000       0.00000000      -0.83971727       0.15528265      -1.88415265
H        0.00000000       0.00000000       0.00000000      -0.34268779       0.18354267       0.17839322
O        0.00000000       0.00000000       0.00000000      -0.16058448      -0.92478210       0.42131114
H        0.00000000       0.00000000       0.00000000      -0.10549600      -0.13237222       0.21986623
H        0.00000000       0.00000000       0.00000000      -0.03403553      -0.54473633       0.43746024
H        0.00000000       0.00000000       0.00000000       0.22248004       1.91350460      -0.84900534
7
Lattice="529.1772105638412 0.0 0.0 0.0 529.1772105638412 0.0 0.0 0.0 529.1772105638412" Properties=species:S:1:pos:R:3:forces_component_raw:R:3 ipi_comment="Step:        1180  Bead:       0 forces_component_raw{ase}  cell{ase}" pbc="T T T"
O        0.00000000       0.00000000       0.00000000       0.08008683      -0.27973107       2.54860116
H        0.00000000       0.00000000       0.00000000      -0.30766556       0.98193801      -1.82885909
H        0.00000000       0.00000000       0.00000000       0.15374059      -0.02314758      -0.01199530
O        0.00000000       0.00000000       0.00000000       0.25096744      -2.63987542      -0.73920918
H        0.00000000       0.00000000       0.00000000       0.11429764      -0.14821501      -0.23934990
H        0.00000000       0.00000000       0.00000000      -0.02918426       0.22653189       0.63238770
H        0.00000000       0.00000000       0.00000000      -0.26224268       1.88249922      -0.36157560
7
Lattice="529.1772105638412 0.0 0.0 0.0 529.1772105638412 0.0 0.0 0.0 529.1772105638412" Properties=species:S:1:pos:R:3:forces_component_raw:R:3 ipi_comment="Step:        1200  Bead:       0 forces_component_raw{ase}  cell{ase}" pbc="T T T"
O        0.00000000       0.00000000       0.00000000      -0.00850163      -0.72706586       1.95782900
H        0.00000000       0.00000000       0.00000000      -0.24054116       1.14360965      -1.81714106
H        0.00000000       0.00000000       0.00000000       0.16398686      -0.03378814       0.11768888
O        0.00000000       0.00000000       0.00000000      -0.16909531      -1.11628604       0.45724735
H        0.00000000       0.00000000       0.00000000       0.12667821       0.38052821       0.49069470
H        0.00000000       0.00000000       0.00000000       0.25525588      -0.30709153      -0.42178372
H        0.00000000       0.00000000       0.00000000      -0.12778281       0.66009373      -0.78453571
7
Lattice="529.1772105638412 0.0 0.0 0.0 529.1772105638412 0.0 0.0 0.0 529.1772105638412" Properties=species:S:1:pos:R:3:forces_component_raw:R:3 ipi_comment="Step:        1220  Bead:       0 forces_component_raw{ase}  cell{ase}" pbc="T T T"
O        0.00000000       0.00000000       0.00000000       0.58653528       0.06746727       0.89198542
H        0.00000000       0.00000000       0.00000000       0.11978152      -0.02232030      -0.61624777
H        0.00000000       0.00000000       0.00000000      -0.37341726       0.23168799      -0.33077294
O        0.00000000       0.00000000       0.00000000      -0.47667530       0.61813927       1.09631944
H        0.00000000       0.00000000       0.00000000      -0.58660978      -0.30570316       0.11540289
H        0.00000000       0.00000000       0.00000000       0.48898232       0.25820085      -1.79098821
H        0.00000000       0.00000000       0.00000000       0.24140321      -0.84747189       0.63430131
7
Lattice="529.1772105638412 0.0 0.0 0.0 529.1772105638412 0.0 0.0 0.0 529.1772105638412" Properties=species:S:1:pos:R:3:forces_component_raw:R:3 ipi_comment="Step:        1240  Bead:       0 forces_component_raw{ase}  cell{ase}" pbc="T T T"
O        0.00000000       0.00000000       0.00000000       0.95777106      -1.49165905      -1.54891897
H        0.00000000       0.00000000       0.00000000      -0.25091493       0.05507377       0.77148092
H        0.00000000       0.00000000       0.00000000      -1.00172580       1.06290508       0.21738327
O        0.00000000       0.00000000       0.00000000      -1.47433520       1.97107745       1.08827389
H        0.00000000       0.00000000       0.00000000       0.37320566       0.03762310      -0.04049042
H        0.00000000       0.00000000       0.00000000       0.74925053       0.28793395      -1.35327030
H        0.00000000       0.00000000       0.00000000       0.64674866      -1.92295433       0.86554170
7
Lattice="529.1772105638412 0.0 0.0 0.0 529.1772105638412 0.0 0.0 0.0 529.1772105638412" Properties=species:S:1:pos:R:3:forces_component_raw:R:3 ipi_comment="Step:        1260  Bead:       0 forces_component_raw{ase}  cell{ase}" pbc="T T T"
O        0.00000000       0.00000000       0.00000000      -0.40316728       0.19917423      -1.15713573
H        0.00000000       0.00000000       0.00000000       0.67832607      -0.65221596       1.65080309
H        0.00000000       0.00000000       0.00000000      -0.31504512       0.15429944      -0.79939163
O        0.00000000       0.00000000       0.00000000      -1.06011796       1.89762021       0.13776553
H        0.00000000       0.00000000       0.00000000       0.11036116       0.18479699       0.23978280
H        0.00000000       0.00000000       0.00000000       0.56053448       0.11930317      -0.72932065
H        0.00000000       0.00000000       0.00000000       0.42910868      -1.90297819       0.65749657
7
Lattice="529.1772105638412 0.0 0.0 0.0 529.1772105638412 0.0 0.0 0.0 529.1772105638412" Properties=species:S:1:pos:R:3:forces_component_raw:R:3 ipi_comment="Step:        1280  Bead:       0 forces_component_raw{ase}  cell{ase}" pbc="T T T"
O        0.00000000       0.00000000       0.00000000       0.16165155      -1.17443824      -1.88352251
H        0.00000000       0.00000000       0.00000000       0.21800882       0.43591240       1.56191385
H        0.00000000       0.00000000       0.00000000      -0.03035204      -0.03977137       0.32452682
O        0.00000000       0.00000000       0.00000000      -0.26154146       2.19454957       0.68543279
H        0.00000000       0.00000000       0.00000000      -0.66868389       0.38049227      -0.52957797
H        0.00000000       0.00000000       0.00000000       0.33094400       0.03787988      -0.56064201
H        0.00000000       0.00000000       0.00000000       0.24997295      -1.83462441       0.40186912
7
Lattice="529.1772105638412 0.0 0.0 0.0 529.1772105638412 0.0 0.0 0.0 529.1772105638412" Properties=species:S:1:pos:R:3:forces_component_raw:R:3 ipi_comment="Step:        1300  Bead:       0 forces_component_raw{ase}  cell{ase}" pbc="T T T"
O        0.00000000       0.00000000       0.00000000      -1.10786271       1.18056333      -1.89926219
H        0.00000000       0.00000000       0.00000000       0.44899774      -0.31163183       1.37755108
H        0.00000000       0.00000000       0.00000000       0.20383982      -0.07950135       0.37423199
O        0.00000000       0.00000000       0.00000000       0.13286622       0.37482768      -0.43718773
H        0.00000000       0.00000000       0.00000000       0.61926341      -1.11588502       0.15218020
H        0.00000000       0.00000000       0.00000000      -0.19589272      -0.10534805       0.19150275
H        0.00000000       0.00000000       0.00000000      -0.10121164       0.05697495       0.24098399
7
Lattice="529.1772105638412 0.0 0.0 0.0 529.1772105638412 0.0 0.0 0.0 529.1772105638412" Properties=species:S:1:pos:R:3:forces_component_raw:R:3 ipi_comment="Step:        1320  Bead:       0 forces_component_raw{ase}  cell{ase}" pbc="T T T"
O        0.00000000       0.00000000       0.00000000      -0.34523329       0.56190068      -0.16746059
H        0.00000000       0.00000000       0.00000000       0.30495453      -0.09469834       0.69560766
H        0.00000000       0.00000000       0.00000000       0.21189389      -0.51508778      -0.17507371
O        0.00000000       0.00000000       0.00000000      -0.05747911      -1.36085904      -0.16030884
H        0.00000000       0.00000000       0.00000000      -0.07462688       1.41378153       0.01306382
H        0.00000000       0.00000000       0.00000000      -0.19961381      -0.40603685       0.77003527
H        0.00000000       0.00000000       0.00000000       0.16010472       0.40099987      -0.97586346
7
Lattice="529.1772105638412 0.0 0.0 0.0 529.1772105638412 0.0 0.0 0.0 529.1772105638412" Properties=species:S:1:pos:R:3:forces_component_raw:R:3 ipi_comment="Step:        1340  Bead:       0 forces_component_raw{ase}  cell{ase}" pbc="T T T"
O        0.00000000       0.00000000       0.00000000       0.56470031       0.55408299       0.27199012
H        0.00000000       0.00000000       0.00000000      -0.33262840       0.14759843      -0.46409473
H        0.00000000       0.00000000       0.00000000      -0.29030693       0.30506352       0.40688229
O        0.00000000       0.00000000       0.00000000       1.90956867      -1.46700776      -1.36703766
H        0.00000000       0.00000000       0.00000000      -0.12003735      -1.31184376       0.13683187
H        0.00000000       0.00000000       0.00000000      -1.18988800       0.37251371       0.86465234
H        0.00000000       0.00000000       0.00000000      -0.54140830       1.39959288       0.15077567
7
Lattice="529.1772105638412 0.0 0.0 0.0 529.1772105638412 0.0 0.0 0.0 529.1772105638412" Properties=species:S:1:pos:R:3:forces_component_raw:R:3 ipi_comment="Step:        1360  Bead:       0 forces_component_raw{ase}  cell{ase}" pbc="T T T"
O        0.00000000       0.00000000       0.00000000       0.11550263      -1.62758685       1.16040516
H        0.00000000       0.00000000       0.00000000       0.19060366       0.63568163      -0.89406216
H        0.00000000       0.00000000       0.00000000      -0.32910103       0.24406403      -0.38907278
O        0.00000000       0.00000000       0.00000000      -0.21127042      -0.81769329       0.72182709
H        0.00000000       0.00000000       0.00000000       0.40677255       0.73604947      -0.71328366
H        0.00000000       0.00000000       0.00000000      -0.68262112      -0.12603711       1.28238905
H        0.00000000       0.00000000       0.00000000       0.51011366       0.95552200      -1.16820288
7
Lattice="529.1772105638412 0.0 0.0 0.0 529.1772105638412 0.0 0.0 0.0 529.1772105638412" Properties=species:S:1:pos:R:3:forces_component_raw:R:3 ipi_comment="Step:        1380  Bead:       0 forces_component_raw{ase}  cell{ase}" pbc="T T T"
O        0.00000000       0.00000000       0.00000000       0.82824445      -1.49918425       0.39056966
H        0.00000000       0.00000000       0.00000000      -0.13763562       0.78049600      -1.04463482
H        0.00000000       0.00000000       0.00000000      -0.47337252       0.37211895       0.04185843
O        0.00000000       0.00000000       0.00000000      -0.04547761      -0.81997711      -0.93522102
H        0.00000000       0.00000000       0.00000000      -0.67457664      -0.05187941       1.28680587
H        0.00000000       0.00000000       0.00000000       0.16164628       0.06894602      -0.19044322
H        0.00000000       0.00000000       0.00000000       0.34117165       1.14947975       0.45106506
7
Lattice="529.1772105638412 0.0 0.0 0.0 529.1772105638412 0.0 0.0 0.0 529.1772105638412" Properties=species:S:1:pos:R:3:forces_component_raw:R:3 ipi_comment="Step:        1400  Bead:       0 forces_component_raw{ase}  cell{ase}" pbc="T T T"
O        0.00000000       0.00000000       0.00000000       0.18532825       0.97218001       3.01199151
H        0.00000000       0.00000000       0.00000000      -0.04120426       0.37419328      -1.42830360
H        0.00000000       0.00000000       0.00000000       0.00634021       0.13927263      -0.20861697
O        0.00000000       0.00000000       0.00000000      -0.90842962       0.44087944       2.37668849
H        0.00000000       0.00000000       0.00000000       0.03060490      -1.45921016      -1.66510511
H        0.00000000       0.00000000       0.00000000       0.73207873      -0.15717036      -1.68076492
H        0.00000000       0.00000000       0.00000000      -0.00471821      -0.31014490      -0.40588957
7
Lattice="529.1772105638412 0.0 0.0 0.0 529.1772105638412 0.0 0.0 0.0 529.1772105638412" Properties=species:S:1:pos:R:3:forces_component_raw:R:3 ipi_comment="Step:        1420  Bead:       0 forces_component_raw{ase}  cell{ase}" pbc="T T T"
O        0.00000000       0.00000000       0.00000000      -0.20071965      -0.49662122      -0.52630413
H        0.00000000       0.00000000       0.00000000      -0.26040280       0.19522414      -0.55007023
H        0.00000000       0.00000000       0.00000000       0.43543404      -0.25802246       0.29588202
O        0.00000000       0.00000000       0.00000000       0.28348935       0.78364474       1.88971162
H        0.00000000       0.00000000       0.00000000      -0.23125239       0.20996468       0.40777582
H        0.00000000       0.00000000       0.00000000       1.20677376       0.37998420      -1.88432146
H        0.00000000       0.00000000       0.00000000      -1.23332227      -0.81417412       0.36732608
7
Lattice="529.1772105638412 0.0 0.0 0.0 529.1772105638412 0.0 0.0 0.0 529.1772105638412" Properties=species:S:1:pos:R:3:forces_component_raw:R:3 ipi_comment="Step:        1440  Bead:       0 forces_component_raw{ase}  cell{ase}" pbc="T T T"
O        0.00000000       0.00000000       0.00000000      -1.11149550       1.21593762      -0.88936097
H        0.00000000       0.00000000       0.00000000       0.20533553      -0.41559208       0.66357410
H        0.00000000       0.00000000       0.00000000       0.79653365      -0.77238286      -0.06199828
O        0.00000000       0.00000000       0.00000000       0.89833266       0.43626106       1.93708528
H        0.00000000       0.00000000       0.00000000       0.29973275       0.08143065       0.38261926
H        0.00000000       0.00000000       0.00000000       0.57657206       0.23681685      -1.54845071
H        0.00000000       0.00000000       0.00000000      -1.66501117      -0.78247142      -0.48346871
7
Lattice="529.1772105638412 0.0 0.0 0.0 529.1772105638412 0.0 0.0 0.0 529.1772105638412" Properties=species:S:1:pos:R:3:forces_component_raw:R:3 ipi_comment="Step:        1460  Bead:       0 forces_component_raw{ase}  cell{ase}" pbc="T T T"
O        0.00000000       0.00000000       0.00000000      -0.11687797       2.18639350      -0.57916445
H        0.00000000       0.00000000       0.00000000       0.35958073      -0.75447357       2.13194085
H        0.00000000       0.00000000       0.00000000       0.15955269      -0.64447123      -0.14509380
O        0.00000000       0.00000000       0.00000000       0.86015308       0.48144370      -0.79483152
H        0.00000000       0.00000000       0.00000000      -0.06360178      -0.45630941      -0.99325776
H        0.00000000       0.00000000       0.00000000       0.61487633      -0.15639490       0.40302551
H        0.00000000       0.00000000       0.00000000      -1.81368328      -0.65618837      -0.02261898
7
Lattice="529.1772105638412 0.0 0.0 0.0 529.1772105638412 0.0 0.0 0.0 529.1772105638412" Properties=species:S:1:pos:R:3:forces_component_raw:R:3 ipi_comment="Step:        1480  Bead:       0 forces_component_raw{ase}  cell{ase}" pbc="T T T"
O        0.00000000       0.00000000       0.00000000       0.01135501       0.70190913      -1.47803617
H        0.00000000       0.00000000       0.00000000       0.45834279      -0.80093223       1.96537137
H        0.00000000       0.00000000       0.00000000      -0.21779801       0.38668385       0.01458150
O        0.00000000       0.00000000       0.00000000       1.25309599       0.06547517      -0.57606071
H        0.00000000       0.00000000       0.00000000      -0.43414968       0.38515440       0.94072032
H        0.00000000       0.00000000       0.00000000      -0.54950345      -0.66740292      -0.32412866
H        0.00000000       0.00000000       0.00000000      -0.52134276      -0.07088727      -0.54244781
7
Lattice="529.1772105638412 0.0 0.0 0.0 529.1772105638412 0.0 0.0 0.0 529.1772105638412" Properties=species:S:1:pos:R:3:forces_component_raw:R:3 ipi_comment="Step:        1500  Bead:       0 forces_component_raw{ase}  cell{ase}" pbc="T T T"
O        0.00000000       0.00000000       0.00000000       0.62948626      -1.25117135      -0.33536396
H        0.00000000       0.00000000       0.00000000       0.26732451      -0.46106306       0.51117420
H        0.00000000       0.00000000       0.00000000      -0.95920533       1.32000757      -0.18140250
O        0.00000000       0.00000000       0.00000000      -0.60286582      -0.06557322      -0.97411186
H        0.00000000       0.00000000       0.00000000       0.40499419       0.20641013      -0.51596594
H        0.00000000       0.00000000       0.00000000       0.01472715       0.26501858       1.01485086
H        0.00000000       0.00000000       0.00000000       0.24553907      -0.01362848       0.48081911
7
Lattice="529.1772105638412 0.0 0.0 0.0 529.1772105638412 0.0 0.0 0.0 529.1772105638412" Properties=species:S:1:pos:R:3:forces_component_raw:R:3 ipi_comment="Step:        1520  Bead:       0 forces_component_raw{ase}  cell{ase}" pbc="T T T"
O        0.00000000       0.00000000       0.00000000       1.55874563      -2.62065101      -0.15830305
H        0.00000000       0.00000000       0.00000000      -0.35058335       0.68119717      -1.25641012
H        0.00000000       0.00000000       0.00000000      -1.53904271       2.01053501       0.56620199
O        0.00000000       0.00000000       0.00000000      -0.20055074       0.07993603      -0.61501974
H        0.00000000       0.00000000       0.00000000       0.01950662      -0.70345134       0.47960913
H        0.00000000       0.00000000       0.00000000      -0.91064763      -0.04821283       0.51337838
H        0.00000000       0.00000000       0.00000000       1.42257214       0.60064680       0.47054327
7
Lattice="529.1772105638412 0.0 0.0 0.0 529.1772105638412 0.0 0.0 0.0 529.1772105638412" Properties=species:S:1:pos:R:3:forces_component_raw:R:3 ipi_comment="Step:        1540  Bead:       0 forces_component_raw{ase}  cell{ase}" pbc="T T T"
O        0.00000000       0.00000000       0.00000000       0.43871611      -3.14396048       2.32701135
H        0.00000000       0.00000000       0.00000000       0.90807569       0.83018816      -1.47025919
H        0.00000000       0.00000000       0.00000000      -1.41924525       1.62861526      -0.63603944
O        0.00000000       0.00000000       0.00000000      -0.71682620      -0.79463208      -0.78046084
H        0.00000000       0.00000000       0.00000000      -0.26350057       0.43232051      -0.68098831
H        0.00000000       0.00000000       0.00000000       0.03251553       0.17035338       0.22652663
H        0.00000000       0.00000000       0.00000000       1.02026487       0.87711549       1.01420951
7
Lattice="529.1772105638412 0.0 0.0 0.0 529.1772105638412 0.0 0.0 0.0 529.1772105638412" Properties=species:S:1:pos:R:3:forces_component_raw:R:3 ipi_comment="Step:        1560  Bead:       0 forces_component_raw{ase}  cell{ase}" pbc="T T T"
O        0.00000000       0.00000000       0.00000000       0.50814307      -1.92142630       0.94357980
H        0.00000000       0.00000000       0.00000000      -0.24083510       0.57629472      -2.26907182
H        0.00000000       0.00000000       0.00000000      -0.62428475       1.17716158       0.36002269
O        0.00000000       0.00000000       0.00000000      -0.70526302       0.27967104       0.33120528
H        0.00000000       0.00000000       0.00000000       0.09541609      -0.35683581       0.52550697
H        0.00000000       0.00000000       0.00000000       0.23487842      -0.16005623      -0.15811811
H        0.00000000       0.00000000       0.00000000       0.73194528       0.40519103       0.26687512
7
Lattice="529.1772105638412 0.0 0.0 0.0 529.1772105638412 0.0 0.0 0.0 529.1772105638412" Properties=species:S:1:pos:R:3:forces_component_raw:R:3 ipi_comment="Step:        1580  Bead:       0 forces_component_raw{ase}  cell{ase}" pbc="T T T"
O        0.00000000       0.00000000       0.00000000       0.37565351      -0.16692227       2.14521337
H        0.00000000       0.00000000       0.00000000       0.00852395      -0.40205407      -1.01986420
H        0.00000000       0.00000000       0.00000000      -0.21771807       0.57484150      -0.70405793
O        0.00000000       0.00000000       0.00000000      -0.67026645      -0.35223734      -0.67908734
H        0.00000000       0.00000000       0.00000000       0.15055358       0.84007490       0.41986123
H        0.00000000       0.00000000       0.00000000       0.25549063      -0.36890158      -0.10233983
H        0.00000000       0.00000000       0.00000000       0.09776288      -0.12480127      -0.05972517
7
Lattice="529.1772105638412 0.0 0.0 0.0 529.1772105638412 0.0 0.0 0.0 529.1772105638412" Properties=species:S:1:pos:R:3:forces_component_raw:R:3 ipi_comment="Step:        1600  Bead:       0 forces_component_raw{ase}  cell{ase}" pbc="T T T"
O        0.00000000       0.00000000       0.00000000      -0.25026095       1.57979882      -0.45882759
H        0.00000000       0.00000000       0.00000000       0.44635239      -0.00275403       1.14148307
H        0.00000000       0.00000000       0.00000000       0.12538701      -0.29745412       0.45496959
O        0.00000000       0.00000000       0.00000000      -0.78676772       0.27341795      -0.01993001
H        0.00000000       0.00000000       0.00000000       0.14640582      -0.84779215      -0.73644579
H        0.00000000       0.00000000       0.00000000       0.73863036      -0.68775582      -0.12453018
H        0.00000000       0.00000000       0.00000000      -0.41974694      -0.01746066      -0.25671917
7
Lattice="529.1772105638412 0.0 0.0 0.0 529.1772105638412 0.0 0.0 0.0 529.1772105638412" Properties=species:S:1:pos:R:3:forces_component_raw:R:3 ipi_comment="Step:        1620  Bead:       0 forces_component_raw{ase}  cell{ase}" pbc="T T T"
O        0.00000000       0.00000000       0.00000000      -0.63675273       1.70886648      -2.34875584
H        0.00000000       0.00000000       0.00000000       1.39104986      -1.13260937       2.44345618
H        0.00000000       0.00000000       0.00000000      -0.54958588      -0.56409407      -0.01948598
O        0.00000000       0.00000000       0.00000000       0.79510886       0.21322882      -0.27675030
H        0.00000000       0.00000000       0.00000000      -0.44039220       0.69557518       0.33161628
H        0.00000000       0.00000000       0.00000000       0.09040463      -0.86850363      -0.21657270
H        0.00000000       0.00000000       0.00000000      -0.64983261      -0.05246340       0.08649215
7
Lattice="529.1772105638412 0.0 0.0 0.0 529.1772105638412 0.0 0.0 0.0 529.1772105638412" Properties=species:S:1:pos:R:3:forces_component_raw:R:3 ipi_comment="Step:        1640  Bead:       0 forces_component_raw{ase}  cell{ase}" pbc="T T T"
O        0.00000000       0.00000000       0.00000000      -1.17871702       1.71459294      -2.97002745
H        0.00000000       0.00000000       0.00000000       1.65432382      -1.38868428       2.04498244
H        0.00000000       0.00000000       0.00000000      -0.78801060      -0.95471502       0.30265883
O        0.00000000       0.00000000       0.00000000       0.29268172       1.42913199       0.55114728
H        0.00000000       0.00000000       0.00000000       0.42641372      -0.15126115       0.11904571
H        0.00000000       0.00000000       0.00000000       0.31027147      -0.60921806       0.21481270
H        0.00000000       0.00000000       0.00000000      -0.71696317      -0.03984627      -0.26261967
7
Lattice="529.1772105638412 0.0 0.0 0.0 529.1772105638412 0.0 0.0 0.0 529.1772105638412" Properties=species:S:1:pos:R:3:forces_component_raw:R:3 ipi_comment="Step:        1660  Bead:       0 forces_component_raw{ase}  cell{ase}" pbc="T T T"
O        0.00000000       0.00000000       0.00000000       0.41605407       1.79634083      -0.35984433
H        0.00000000       0.00000000       0.00000000       0.47754637      -0.36585471       0.63408804
H        0.00000000       0.00000000       0.00000000      -0.57963646      -0.79631519       0.40001351
O        0.00000000       0.00000000       0.00000000       0.25918463       0.15353607       0.51108575
H        0.00000000       0.00000000       0.00000000      -0.41324908      -0.99246562      -1.01674700
H        0.00000000       0.00000000       0.00000000       0.03135544       0.13678467      -0.05600408
H        0.00000000       0.00000000       0.00000000      -0.19125509       0.06797388      -0.11259204
7
Lattice="529.1772105638412 0.0 0.0 0.0 529.1772105638412 0.0 0.0 0.0 529.1772105638412" Properties=species:S:1:pos:R:3:forces_component_raw:R:3 ipi_comment="Step:        1680  Bead:       0 forces_component_raw{ase}  cell{ase}" pbc="T T T"
O        0.00000000       0.00000000       0.00000000       0.69449544      -0.39666578      -0.54132927
H        0.00000000       0.00000000       0.00000000      -0.64345682       0.02029505      -0.50491142
H        0.00000000       0.00000000       0.00000000      -0.50158197      -0.38068718       0.16456735
O        0.00000000       0.00000000       0.00000000       0.23410967      -0.14486635       0.44800088
H        0.00000000       0.00000000       0.00000000      -0.08983734       0.17306258      -0.01822206
H        0.00000000       0.00000000       0.00000000      -0.20761426       0.74839246      -0.14503372
H        0.00000000       0.00000000       0.00000000       0.51388532      -0.01953080       0.59692812
7
Lattice="529.1772105638412 0.0 0.0 0.0 529.1772105638412 0.0 0.0 0.0 529.1772105638412" Properties=species:S:1:pos:R:3:forces_component_raw:R:3 ipi_comment="Step:        1700  Bead:       0 forces_component_raw{ase}  cell{ase}" pbc="T T T"
O        0.00000000       0.00000000       0.00000000       0.62073362      -0.95764995       1.12447262
H        0.00000000       0.00000000       0.00000000      -1.16333604       0.63277757      -1.56884849
H        0.00000000       0.00000000       0.00000000       0.24415596       0.13370596       0.18189812
O        0.00000000       0.00000000       0.00000000      -0.52543080      -0.99185550      -0.25744042
H        0.00000000       0.00000000       0.00000000       0.51442635       0.16863860       0.29896665
H        0.00000000       0.00000000       0.00000000      -0.14997956       1.47592199      -0.14136809
H        0.00000000       0.00000000       0.00000000       0.45943061      -0.46153844       0.36231974
7
Lattice="529.1772105638412 0.0 0.0 0.0 529.1772105638412 0.0 0.0 0.0 529.1772105638412" Properties=species:S:1:pos:R:3:forces_component_raw:R:3 ipi_comment="Step:        1720  Bead:       0 forces_component_raw{ase}  cell{ase}" pbc="T T T"
O        0.00000000       0.00000000       0.00000000       1.40091908      -0.97789407       3.62648488
H        0.00000000       0.00000000       0.00000000      -1.48116350       0.73884541      -1.75940395
H        0.00000000       0.00000000       0.00000000       0.70980454       1.20079828      -0.73505795
O        0.00000000       0.00000000       0.00000000      -0.79113519      -1.95865179      -0.02535793
H        0.00000000       0.00000000       0.00000000      -0.32518584      -0.49020049      -0.73058856
H        0.00000000       0.00000000       0.00000000       0.45746353       1.39228702      -0.26451439
H        0.00000000       0.00000000       0.00000000       0.02929732       0.09481573      -0.11156189
7
Lattice="529.1772105638412 0.0 0.0 0.0 529.1772105638412 0.0 0.0 0.0 529.1772105638412" Properties=species:S:1:pos:R:3:forces_component_raw:R:3 ipi_comment="Step:        1740  Bead:       0 forces_component_raw{ase}  cell{ase}" pbc="T T T"
O        0.00000000       0.00000000       0.00000000       0.72049874      -1.45795060       2.69946099
H        0.00000000       0.00000000       0.00000000      -0.93231559       1.05734337      -1.76097811
H        0.00000000       0.00000000       0.00000000       0.87488061       1.12094987      -0.20859340
O        0.00000000       0.00000000       0.00000000      -0.18315181      -2.26144362      -0.94303799
H        0.00000000       0.00000000       0.00000000       0.38310108       0.14905100       0.66048306
H        0.00000000       0.00000000       0.00000000       0.22958514       1.08934403      -0.21670535
H        0.00000000       0.00000000       0.00000000      -1.09259808       0.30270594      -0.23062924
7
Lattice="529.1772105638412 0.0 0.0 0.0 529.1772105638412 0.0 0.0 0.0 529.1772105638412" Properties=species:S:1:pos:R:3:forces_component_raw:R:3 ipi_comment="Step:        1760  Bead:       0 forces_component_raw{ase}  cell{ase}" pbc="T T T"
O        0.00000000       0.00000000       0.00000000       0.57429505      -0.13221419       1.03316760
H        0.00000000       0.00000000       0.00000000      -0.38120988       0.17567593      -0.69475472
H        0.00000000       0.00000000       0.00000000      -0.09118596      -0.11779755      -0.20131609
O        0.00000000       0.00000000       0.00000000       0.65120828      -0.55041844       0.29724661
H        0.00000000       0.00000000       0.00000000      -0.13508405       0.14205821      -0.21996781
H        0.00000000       0.00000000       0.00000000       0.14691722       0.13987267      -0.09626190
H        0.00000000       0.00000000       0.00000000      -0.76494074       0.34282318      -0.11811373
7
Lattice="529.1772105638412 0.0 0.0 0.0 529.1772105638412 0.0 0.0 0.0 529.1772105638412" Properties=species:S:1:pos:R:3:forces_component_raw:R:3 ipi_comment="Step:        1780  Bead:       0 forces_component_raw{ase}  cell{ase}" pbc="T T T"
O        0.00000000       0.00000000       0.00000000      -0.21466783       0.47292537      -1.80657435
H        0.00000000       0.00000000       0.00000000       0.26426950      -0.29240373       0.78991896
H        0.00000000       0.00000000       0.00000000      -0.55614716      -0.61640442       0.37014049
O        0.00000000       0.00000000       0.00000000       0.43003953       1.87173200       0.69858682
H        0.00000000       0.00000000       0.00000000       0.02280992      -0.11056677      -0.10991680
H        0.00000000       0.00000000       0.00000000       0.08685967      -1.37465263       0.12968913
H        0.00000000       0.00000000       0.00000000      -0.03316367       0.04937035      -0.07184424
7
Lattice="529.1772105638412 0.0 0.0 0.0 529.1772105638412 0.0 0.0 0.0 529.1772105638412" Properties=species:S:1:pos:R:3:forces_component_raw:R:3 ipi_comment="Step:        1800  Bead:       0 forces_component_raw{ase}  cell{ase}" pbc="T T T"
O        0.00000000       0.00000000       0.00000000       0.32554507       0.53686190      -2.46386481
H        0.00000000       0.00000000       0.00000000       0.08245382      -0.32797086       1.67458463
H        0.00000000       0.00000000       0.00000000      -0.81194139      -0.51215685       0.26950452
O        0.00000000       0.00000000       0.00000000      -0.38049060       1.98447347      -0.26367405
H        0.00000000       0.00000000       0.00000000       0.18577290       0.49786559       0.54082757
H        0.00000000       0.00000000       0.00000000       0.10848016      -2.10536051       0.00068288
H        0.00000000       0.00000000       0.00000000       0.49018002      -0.07371268       0.24193904
7
Lattice="529.1772105638412 0.0 0.0 0.0 529.1772105638412 0.0 0.0 0.0 529.1772105638412" Properties=species:S:1:pos:R:3:forces_component_raw:R:3 ipi_comment="Step:        1820  Bead:       0 forces_component_raw{ase}  cell{ase}" pbc="T T T"
O        0.00000000       0.00000000       0.00000000      -0.35692722      -0.21766719      -1.00837112
H        0.00000000       0.00000000       0.00000000       0.09779307       0.09293009       0.62098307
H        0.00000000       0.00000000       0.00000000      -0.68160004      -0.29134569       0.03480077
O        0.00000000       0.00000000       0.00000000      -0.94028950       1.87617076       0.42166394
H        0.00000000       0.00000000       0.00000000       0.49528164      -0.30892485      -0.50728268
H        0.00000000       0.00000000       0.00000000       0.49767852      -1.27829540       0.09365244
H        0.00000000       0.00000000       0.00000000       0.88806355       0.12713236       0.34455353
7
Lattice="529.1772105638412 0.0 0.0 0.0 529.1772105638412 0.0 0.0 0.0 529.1772105638412" Properties=species:S:1:pos:R:3:forces_component_raw:R:3 ipi_comment="Step:        1840  Bead:       0 forces_component_raw{ase}  cell{ase}" pbc="T T T"
O        0.00000000       0.00000000       0.00000000       0.04807471       0.01385351       0.02664849
H        0.00000000       0.00000000       0.00000000      -0.02888903      -0.07712507      -0.15088345
H        0.00000000       0.00000000       0.00000000      -0.10673434      -0.04310288      -0.11658615
O        0.00000000       0.00000000       0.00000000      -0.26093990       0.27410111      -0.07182810
H        0.00000000       0.00000000       0.00000000      -0.38121149       0.18371820       0.21813010
H        0.00000000       0.00000000       0.00000000      -0.49179709       0.12625325      -0.06354621
H        0.00000000       0.00000000       0.00000000       1.22149706      -0.47769815       0.15806529
7
Lattice="529.1772105638412 0.0 0.0 0.0 529.1772105638412 0.0 0.0 0.0 529.1772105638412" Properties=species:S:1:pos:R:3:forces_component_raw:R:3 ipi_comment="Step:        1860  Bead:       0 forces_component_raw{ase}  cell{ase}" pbc="T T T"
O        0.00000000       0.00000000       0.00000000      -1.69147110       0.79954565       1.42419041
H        0.00000000       0.00000000       0.00000000       0.54588783      -0.26404339      -0.66266912
H        0.00000000       0.00000000       0.00000000       1.85770345       0.00454335       0.03660086
O        0.00000000       0.00000000       0.00000000      -1.52201760      -0.98059654      -0.68087024
H        0.00000000       0.00000000       0.00000000       0.02381567      -0.31298190      -0.16467655
H        0.00000000       0.00000000       0.00000000       0.00958821       1.14958632       0.45159379
H        0.00000000       0.00000000       0.00000000       0.77649355      -0.39605340      -0.40416914
7
Lattice="529.1772105638412 0.0 0.0 0.0 529.1772105638412 0.0 0.0 0.0 529.1772105638412" Properties=species:S:1:pos:R:3:forces_component_raw:R:3 ipi_comment="Step:        1880  Bead:       0 forces_component_raw{ase}  cell{ase}" pbc="T T T"
O        0.00000000       0.00000000       0.00000000      -1.19695914       1.36414922       1.64503742
H        0.00000000       0.00000000       0.00000000       0.22632769      -0.59845853      -1.02371681
H        0.00000000       0.00000000       0.00000000       1.99731291      -0.50793523       0.17139520
O        0.00000000       0.00000000       0.00000000      -0.87197250      -1.68111837      -0.59890652
H        0.00000000       0.00000000       0.00000000      -0.22613365       0.40694636      -0.19955626
H        0.00000000       0.00000000       0.00000000       0.15373927       0.91403699       0.20079109
H        0.00000000       0.00000000       0.00000000      -0.08231464       0.10237974      -0.19504407
7
Lattice="529.1772105638412 0.0 0.0 0.0 529.1772105638412 0.0 0.0 0.0 529.1772105638412" Properties=species:S:1:pos:R:3:forces_component_raw:R:3 ipi_comment="Step:        1900  Bead:       0 forces_component_raw{ase}  cell{ase}" pbc="T T T"
O        0.00000000       0.00000000       0.00000000      -0.53140330       0.65805018       0.79157746
H        0.00000000       0.00000000       0.00000000       0.09788558      -0.26539096      -0.62644059
H        0.00000000       0.00000000       0.00000000       0.41702694      -0.33873668      -0.06777919
O        0.00000000       0.00000000       0.00000000       0.36230671      -1.02177286      -0.91280771
H        0.00000000       0.00000000       0.00000000       0.49173367      -0.05193008       0.18406923
H        0.00000000       0.00000000       0.00000000      -0.05272096       0.97264147       0.60890246
H        0.00000000       0.00000000       0.00000000      -0.78482860       0.04713890       0.02247837
7
Lattice="529.1772105638412 0.0 0.0 0.0 529.1772105638412 0.0 0.0 0.0 529.1772105638412" Properties=species:S:1:pos:R:3:forces_component_raw:R:3 ipi_comment="Step:        1920  Bead:       0 forces_component_raw{ase}  cell{ase}" pbc="T T T"
O        0.00000000       0.00000000       0.00000000       0.12882368      -1.46474481      -0.31430066
H        0.00000000       0.00000000       0.00000000      -0.06394619       0.06510746       0.03160942
H        0.00000000       0.00000000       0.00000000      -0.85191512       0.96745974      -0.52904189
O        0.00000000       0.00000000       0.00000000       1.66043246      -0.90980649      -0.30742297
H        0.00000000       0.00000000       0.00000000       0.01423019       0.17340304       0.33683279
H        0.00000000       0.00000000       0.00000000      -0.23012248       0.91738057       0.63242197
H        0.00000000       0.00000000       0.00000000      -0.65750253       0.25120035       0.14990136
7
Lattice="529.1772105638412 0.0 0.0 0.0 529.1772105638412 0.0 0.0 0.0 529.1772105638412" Properties=species:S:1:pos:R:3:forces_component_raw:R:3 ipi_comment="Step:        1940  Bead:       0 forces_component_raw{ase}  cell{ase}" pbc="T T T"
O        0.00000000       0.00000000       0.00000000       0.91539729      -0.93348956       1.00193763
H        0.00000000       0.00000000       0.00000000      -0.00630674       0.48001397       0.49083489
H        0.00000000       0.00000000       0.00000000      -0.51770479       1.02875257      -0.74819601
O        0.00000000       0.00000000       0.00000000       0.49866825       0.38029423       0.64403439
H        0.00000000       0.00000000       0.00000000      -0.77170056      -0.74381614      -0.94445890
H        0.00000000       0.00000000       0.00000000       0.27808785      -0.45638275      -0.52340692
H        0.00000000       0.00000000       0.00000000      -0.39644134       0.24462777       0.07925503
7
Lattice="529.1772105638412 0.0 0.0 0.0 529.1772105638412 0.0 0.0 0.0 529.1772105638412" Properties=species:S:1:pos:R:3:forces_component_raw:R:3 ipi_comment="Step:        1960  Bead:       0 forces_component_raw{ase}  cell{ase}" pbc="T T T"
O        0.00000000       0.00000000       0.00000000       0.06422141      -2.71386958      -0.91561794
H        0.00000000       0.00000000       0.00000000      -0.42658910       0.66761947       0.62577385
H        0.00000000       0.00000000       0.00000000      -0.21648224       1.53523505      -0.51153302
O        0.00000000       0.00000000       0.00000000      -0.71336484       1.34882891       1.83403969
H        0.00000000       0.00000000       0.00000000      -0.11442374       0.24973373       0.47158146
H        0.00000000       0.00000000       0.00000000       1.00857210      -1.28738570      -1.85980988
H        0.00000000       0.00000000       0.00000000       0.39806640       0.19983819       0.35556611
7
Lattice="529.1772105638412 0.0 0.0 0.0 529.1772105638412 0.0 0.0 0.0 529.1772105638412" Properties=species:S:1:pos:R:3:forces_component_raw:R:3 ipi_comment="Step:        1980  Bead:       0 forces_component_raw{ase}  cell{ase}" pbc="T T T"
O        0.00000000       0.00000000       0.00000000       0.55015618      -1.17105294       1.00319576
H        0.00000000       0.00000000       0.00000000      -0.20786469       0.17921823      -0.05692238
H        0.00000000       0.00000000       0.00000000      -0.47982320       0.98936695      -0.86884427
O        0.00000000       0.00000000       0.00000000      -1.23278261       1.38431752       2.47518921
H        0.00000000       0.00000000       0.00000000       0.35646102      -0.27261677      -0.44924140
H        0.00000000       0.00000000       0.00000000       1.04127777      -1.04514027      -2.07269145
H        0.00000000       0.00000000       0.00000000      -0.02742457      -0.06409276      -0.03068563
7
Lattice="529.1772105638412 0.0 0.0 0.0 529.1772105638412 0.0 0.0 0.0 529.1772105638412" Properties=species:S:1:pos:R:3:forces_component_raw:R:3 ipi_comment="Step:        2000  Bead:       0 forces_component_raw{ase}  cell{ase}" pbc="T T T"
O        0.00000000       0.00000000       0.00000000       0.58321995       0.92314184       0.39670420
H        0.00000000       0.00000000       0.00000000      -0.07017775      -0.76438916      -0.09010273
H        0.00000000       0.00000000       0.00000000       0.17662054       0.02237129       0.35436636
O        0.00000000       0.00000000       0.00000000      -0.19073385      -1.05901218      -0.07394457
H        0.00000000       0.00000000       0.00000000       0.34927327       0.60942328       0.56052888
H        0.00000000       0.00000000       0.00000000       0.21809122      -0.26191935      -0.91943401
H        0.00000000       0.00000000       0.00000000      -1.06629348       0.53038401      -0.22811812
7
Lattice="529.1772105638412 0.0 0.0 0.0 529.1772105638412 0.0 0.0 0.0 529.1772105638412" Properties=species:S:1:pos:R:3:forces_component_raw:R:3 ipi_comment="Step:        2020  Bead:       0 forces_component_raw{ase}  cell{ase}" pbc="T T T"
O        0.00000000       0.00000000       0.00000000       0.57318151       1.91892362      -0.82310039
H        0.00000000       0.00000000       0.00000000      -0.18832701      -0.81848675       0.17152575
H        0.00000000       0.00000000       0.00000000       0.31059679      -0.67093957       1.30381096
O        0.00000000       0.00000000       0.00000000       0.39138872      -0.53088176      -0.49685493
H        0.00000000       0.00000000       0.00000000      -0.16032407      -0.25537679      -0.21644728
H        0.00000000       0.00000000       0.00000000       0.07649195      -0.13728082       0.10317692
H        0.00000000       0.00000000       0.00000000      -1.00300801       0.49404207      -0.04211093
7
Lattice="529.1772105638412 0.0 0.0 0.0 529.1772105638412 0.0 0.0 0.0 529.1772105638412" Properties=species:S:1:pos:R:3:forces_component_raw:R:3 ipi_comment="Step:        2040  Bead:       0 forces_component_raw{ase}  cell{ase}" pbc="T T T"
O        0.00000000       0.00000000       0.00000000       0.10378772       0.65518856      -1.21656347
H        0.00000000       0.00000000       0.00000000      -0.24913721      -0.31832674       0.05000752
H        0.00000000       0.00000000       0.00000000       0.04918066      -0.41266954       1.28121412
O        0.00000000       0.00000000       0.00000000       1.26824153      -0.54547578      -0.88696742
H        0.00000000       0.00000000       0.00000000       0.10096264       0.04087910      -0.29172820
H        0.00000000       0.00000000       0.00000000      -0.69824839       0.22142433       1.18929613
H        0.00000000       0.00000000       0.00000000      -0.57478684       0.35898015      -0.12525880
7
Lattice="529.1772105638412 0.0 0.0 0.0 529.1772105638412 0.0 0.0 0.0 529.1772105638412" Properties=species:S:1:pos:R:3:forces_component_raw:R:3 ipi_comment="Step:        2060  Bead:       0 forces_component_raw{ase}  cell{ase}" pbc="T T T"
O        0.00000000       0.00000000       0.00000000      -0.45192152      -0.12612686      -0.36259985
H        0.00000000       0.00000000       0.00000000      -0.05774677       0.01914209      -0.05181038
H        0.00000000       0.00000000       0.00000000       0.01085269      -0.04972446       0.11115062
O        0.00000000       0.00000000       0.00000000       1.05079055      -0.13525805      -0.73535007
H        0.00000000       0.00000000       0.00000000       0.12951820      -0.08521743      -0.08674611
H        0.00000000       0.00000000       0.00000000      -0.98272991       0.51641113       1.27469635
H        0.00000000       0.00000000       0.00000000       0.30123693      -0.13922650      -0.14934073
7
Lattice="529.1772105638412 0.0 0.0 0.0 529.1772105638412 0.0 0.0 0.0 529.1772105638412" Properties=species:S:1:pos:R:3:forces_component_raw:R:3 ipi_comment="Step:        2080  Bead:       0 forces_component_raw{ase}  cell{ase}" pbc="T T T"
O        0.00000000       0.00000000       0.00000000      -1.10359168      -1.21009839       0.17700022
H        0.00000000       0.00000000       0.00000000       0.33693126       0.73310781       0.10820785
H        0.00000000       0.00000000       0.00000000       0.31612384       0.32320607      -0.59589934
O        0.00000000       0.00000000       0.00000000      -0.36945731       0.39257041      -1.49733568
H        0.00000000       0.00000000       0.00000000       0.22551045      -0.02314985      -0.00229332
H        0.00000000       0.00000000       0.00000000      -0.33903885       0.37215838       1.45550549
H        0.00000000       0.00000000       0.00000000       0.93352235      -0.58779454       0.35481459
7
Lattice="529.1772105638412 0.0 0.0 0.0 529.1772105638412 0.0 0.0 0.0 529.1772105638412" Properties=species:S:1:pos:R:3:forces_component_raw:R:3 ipi_comment="Step:        2100  Bead:       0 forces_component_raw{ase}  cell{ase}" pbc="T T T"
O        0.00000000       0.00000000       0.00000000      -0.73599065      -1.89850986       1.11855936
H        0.00000000       0.00000000       0.00000000       0.90327746       1.77226389      -0.26403475
H        0.00000000       0.00000000       0.00000000       0.05673403       0.05014667      -0.74026305
O        0.00000000       0.00000000       0.00000000      -0.71443039       0.54036749      -0.82441616
H        0.00000000       0.00000000       0.00000000      -0.39574230       0.11533566      -0.12402128
H        0.00000000       0.00000000       0.00000000      -0.52516514       0.38193280       0.90345729
H        0.00000000       0.00000000       0.00000000       1.41131711      -0.96153653      -0.06928149
7
Lattice="529.1772105638412 0.0 0.0 0.0 529.1772105638412 0.0 0.0 0.0 529.1772105638412" Properties=species:S:1:pos:R:3:forces_component_raw:R:3 ipi_comment="Step:        2120  Bead:       0 forces_component_raw{ase}  cell{ase}" pbc="T T T"
O        0.00000000       0.00000000       0.00000000      -0.33030814      -1.03236699       1.03376961
H        0.00000000       0.00000000       0.00000000       0.48926988       1.01636470       0.13883048
H        0.00000000       0.00000000       0.00000000       0.16515252       0.32884178      -0.69623363
O        0.00000000       0.00000000       0.00000000      -1.25222767       0.60842860      -0.68268514
H        0.00000000       0.00000000       0.00000000       0.32666653      -0.43992198      -0.42129970
H        0.00000000       0.00000000       0.00000000       0.01214164       0.15066603       0.64079482
H        0.00000000       0.00000000       0.00000000       0.58930510      -0.63201213      -0.01317650
7
Lattice="529.1772105638412 0.0 0.0 0.0 529.1772105638412 0.0 0.0 0.0 529.1772105638412" Properties=species:S:1:pos:R:3:forces_component_raw:R:3 ipi_comment="Step:        2140  Bead:       0 forces_component_raw{ase}  cell{ase}" pbc="T T T"
O        0.00000000       0.00000000       0.00000000       0.46245059      -0.07767059       0.91000366
H        0.00000000       0.00000000       0.00000000      -0.00734813      -0.06396705       0.06738564
H        0.00000000       0.00000000       0.00000000      -0.05044927       0.22479838      -0.70109618
O        0.00000000       0.00000000       0.00000000      -0.02448370      -0.82526380      -0.10382961
H        0.00000000       0.00000000       0.00000000       0.08882599       0.58257067       0.66651672
H        0.00000000       0.00000000       0.00000000      -0.24633122      -0.12230116      -0.63907528
H        0.00000000       0.00000000       0.00000000      -0.22266418       0.28183359      -0.19990490
7
Lattice="529.1772105638412 0.0 0.0 0.0 529.1772105638412 0.0 0.0 0.0 529.1772105638412" Properties=species:S:1:pos:R:3:forces_component_raw:R:3 ipi_comment="Step:        2160  Bead:       0 forces_component_raw{ase}  cell{ase}" pbc="T T T"
O        0.00000000       0.00000000       0.00000000       0.52983934       1.03940952       0.26147366
H        0.00000000       0.00000000       0.00000000      -0.48906967      -1.17282224      -0.00398389
H        0.00000000       0.00000000       0.00000000      -0.13368696       0.14029619      -0.15155090
O        0.00000000       0.00000000       0.00000000       0.65499514      -0.35814756       0.87732369
H        0.00000000       0.00000000       0.00000000       0.21035737      -0.14959970      -0.41669822
H        0.00000000       0.00000000       0.00000000       0.42086163      -0.34940183      -0.32906726
H        0.00000000       0.00000000       0.00000000      -1.19329679       0.85026562      -0.23749714
7
Lattice="529.1772105638412 0.0 0.0 0.0 529.1772105638412 0.0 0.0 0.0 529.1772105638412" Properties=species:S:1:pos:R:3:forces_component_raw:R:3 ipi_comment="Step:        2180  Bead:       0 forces_component_raw{ase}  cell{ase}" pbc="T T T"
O        0.00000000       0.00000000       0.00000000      -0.08612502       1.29752338      -1.34575820
H        0.00000000       0.00000000       0.00000000      -0.32699481      -1.23209179       0.18707854
H        0.00000000       0.00000000       0.00000000       0.06548680      -0.16389096       0.69402152
O        0.00000000       0.00000000       0.00000000       1.00194800      -0.17462659       1.08200228
H        0.00000000       0.00000000       0.00000000      -0.13879564       0.06192677       0.17881939
H        0.00000000       0.00000000       0.00000000       0.29021609      -0.61139810      -0.58971232
H        0.00000000       0.00000000       0.00000000      -0.80573535       0.82255727      -0.20645110
7
Lattice="529.1772105638412 0.0 0.0 0.0 529.1772105638412 0.0 0.0 0.0 529.1772105638412" Properties=species:S:1:pos:R:3:forces_component_raw:R:3 ipi_comment="Step:        2200  Bead:       0 forces_component_raw{ase}  cell{ase}" pbc="T T T"
O        0.00000000       0.00000000       0.00000000       0.11821795       1.23986197      -0.93391407
H        0.00000000       0.00000000       0.00000000      -0.39776382      -0.66263443      -0.44246748
H        0.00000000       0.00000000       0.00000000      -0.10255817      -0.73254550       1.04480505
O        0.00000000       0.00000000       0.00000000       0.63540375       0.70320392       1.58225894
H        0.00000000       0.00000000       0.00000000       0.11008566      -0.10272296       0.04713774
H        0.00000000       0.00000000       0.00000000       0.14839539      -0.80985391      -0.82220394
H        0.00000000       0.00000000       0.00000000      -0.51178062       0.36469096      -0.47561622
7
Lattice="529.1772105638412 0.0 0.0 0.0 529.1772105638412 0.0 0.0 0.0 529.1772105638412" Properties=species:S:1:pos:R:3:forces_component_raw:R:3 ipi_comment="Step:        2220  Bead:       0 forces_component_raw{ase}  cell{ase}" pbc="T T T"
O        0.00000000       0.00000000       0.00000000      -0.37619728      -0.53763116      -0.76395083
H        0.00000000       0.00000000       0.00000000       0.02277555       0.25768599       0.20319775
H        0.00000000       0.00000000       0.00000000       0.17703360       0.12531483       0.55367410
O        0.00000000       0.00000000       0.00000000      -0.24303255      -0.00063556       0.05886394
H        0.00000000       0.00000000       0.00000000       0.22815222       0.20930344       0.06228641
H        0.00000000       0.00000000       0.00000000       0.17773239      -0.32074189      -0.13483614
H        0.00000000       0.00000000       0.00000000       0.01353604       0.26670438       0.02076475
7
Lattice="529.1772105638412 0.0 0.0 0.0 529.1772105638412 0.0 0.0 0.0 529.1772105638412" Properties=species:S:1:pos:R:3:forces_component_raw:R:3 ipi_comment="Step:        2240  Bead:       0 forces_component_raw{ase}  cell{ase}" pbc="T T T"
O        0.00000000       0.00000000       0.00000000       0.27401656       0.57842595       0.40869081
H        0.00000000       0.00000000       0.00000000       0.26525676       0.06513023      -0.15499604
H        0.00000000       0.00000000       0.00000000      -0.07767108      -0.24904203      -0.20069557
O        0.00000000       0.00000000       0.00000000      -0.05731161      -0.31463483      -1.12918508
H        0.00000000       0.00000000       0.00000000      -0.48535967      -0.52190089       0.22194630
H        0.00000000       0.00000000       0.00000000      -0.17967522       1.07245028       0.41611129
H        0.00000000       0.00000000       0.00000000       0.26074427      -0.63042873       0.43812841
7
Lattice="529.1772105638412 0.0 0.0 0.0 529.1772105638412 0.0 0.0 0.0 529.1772105638412" Properties=species:S:1:pos:R:3:forces_component_raw:R:3 ipi_comment="Step:        2260  Bead:       0 forces_component_raw{ase}  cell{ase}" pbc="T T T"
O        0.00000000       0.00000000       0.00000000      -0.85902822      -0.64254224       0.01810850
H        0.00000000       0.00000000       0.00000000       0.21247101       0.44057483       0.06681302
H        0.00000000       0.00000000       0.00000000       0.40076110       0.10064501       0.30062449
O        0.00000000       0.00000000       0.00000000      -0.42041284      -1.04457784      -1.19297028
H        0.00000000       0.00000000       0.00000000       0.70618951       0.51703107      -0.15886918
H        0.00000000       0.00000000       0.00000000      -0.35013986       1.55276060       0.26266524
H        0.00000000       0.00000000       0.00000000       0.31015939      -0.92389155       0.70362818
7
Lattice="529.1772105638412 0.0 0.0 0.0 529.1772105638412 0.0 0.0 0.0 529.1772105638412" Properties=species:S:1:pos:R:3:forces_component_raw:R:3 ipi_comment="Step:        2280  Bead:       0 forces_component_raw{ase}  cell{ase}" pbc="T T T"
O        0.00000000       0.00000000       0.00000000       0.25246644      -0.27319264       0.63341940
H        0.00000000       0.00000000       0.00000000       0.55457091       0.78322858      -0.25471616
H        0.00000000       0.00000000       0.00000000      -0.42152229      -0.26126051      -0.79279429
O        0.00000000       0.00000000       0.00000000       0.65782285      -0.77649701      -1.96368921
H        0.00000000       0.00000000       0.00000000      -0.85198224      -0.52147055       0.39315492
H        0.00000000       0.00000000       0.00000000      -0.02290960       1.42768848       1.22935617
H        0.00000000       0.00000000       0.00000000      -0.16844617      -0.37849620       0.75526929
7
Lattice="529.1772105638412 0.0 0.0 0.0 529.1772105638412 0.0 0.0 0.0 529.1772105638412" Properties=species:S:1:pos:R:3:forces_component_raw:R:3 ipi_comment="Step:        2300  Bead:       0 forces_component_raw{ase}  cell{ase}" pbc="T T T"
O        0.00000000       0.00000000       0.00000000      -1.99075175      -2.19089985       0.11549318
H        0.00000000       0.00000000       0.00000000       0.98366422       1.37604237       0.10807085
H        0.00000000       0.00000000       0.00000000       0.38697383       0.50841606      -0.35246295
O        0.00000000       0.00000000       0.00000000       0.13698858      -1.56211353       0.43462101
H        0.00000000       0.00000000       0.00000000       0.34534443       0.40270403      -0.48878497
H        0.00000000       0.00000000       0.00000000       0.14166343       1.65547645       0.36918157
H        0.00000000       0.00000000       0.00000000      -0.00388272      -0.18962556      -0.18611863
7
Lattice="529.1772105638412 0.0 0.0 0.0 529.1772105638412 0.0 0.0 0.0 529.1772105638412" Properties=species:S:1:pos:R:3:forces_component_raw:R:3 ipi_comment="Step:        2320  Bead:       0 forces_component_raw{ase}  cell{ase}" pbc="T T T"
O        0.00000000       0.00000000       0.00000000       0.09310639      -0.09247878      -0.06734908
H        0.00000000       0.00000000       0.00000000       0.49386764       0.48252529      -0.42951828
H        0.00000000       0.00000000       0.00000000      -0.52239883      -0.33361453       0.19199964
O        0.00000000       0.00000000       0.00000000      -0.42131421      -0.62802959      -0.26720044
H        0.00000000       0.00000000       0.00000000      -0.05167022      -0.23934329       0.33662167
H        0.00000000       0.00000000       0.00000000       0.42777661       0.57291019       0.36997682
H        0.00000000       0.00000000       0.00000000      -0.01936736       0.23803076      -0.13453035
7
Lattice="529.1772105638412 0.0 0.0 0.0 529.1772105638412 0.0 0.0 0.0 529.1772105638412" Properties=species:S:1:pos:R:3:forces_component_raw:R:3 ipi_comment="Step:        2340  Bead:       0 forces_component_raw{ase}  cell{ase}" pbc="T T T"
O        0.00000000       0.00000000       0.00000000       0.45679712       0.10441671      -0.24904808
H        0.00000000       0.00000000       0.00000000      -0.37935770      -0.33408290       0.13555151
H        0.00000000       0.00000000       0.00000000       0.09171480       0.21625392       0.79445166
O        0.00000000       0.00000000       0.00000000       0.16944194       1.05355001       0.02821709
H        0.00000000       0.00000000       0.00000000       0.01922661       0.13336360      -0.49772918
H        0.00000000       0.00000000       0.00000000      -0.44542483      -0.90268195      -0.34791309
H        0.00000000       0.00000000       0.00000000       0.08760215      -0.27081946       0.13647009
7
Lattice="529.1772105638412 0.0 0.0 0.0 529.1772105638412 0.0 0.0 0.0 529.1772105638412" Properties=species:S:1:pos:R:3:forces_component_raw:R:3 ipi_comment="Step:        2360  Bead:       0 forces_component_raw{ase}  cell{ase}" pbc="T T T"
O        0.00000000       0.00000000       0.00000000       0.79494041       0.98733235      -0.36269569
H        0.00000000       0.00000000       0.00000000      -0.09817991      -0.61837649      -0.39950129
H        0.00000000       0.00000000       0.00000000      -0.56225503      -0.26587313       0.83809483
O        0.00000000       0.00000000       0.00000000       0.18406922       2.76286841      -0.97524417
H        0.00000000       0.00000000       0.00000000       0.10225937       0.04307865       0.43427497
H        0.00000000       0.00000000       0.00000000      -1.03549934      -2.80253435       0.00317417
H        0.00000000       0.00000000       0.00000000       0.61466539      -0.10649574       0.46189726
7
Lattice="529.1772105638412 0.0 0.0 0.0 529.1772105638412 0.0 0.0 0.0 529.1772105638412" Properties=species:S:1:pos:R:3:forces_component_raw:R:3 ipi_comment="Step:        2380  Bead:       0 forces_component_raw{ase}  cell{ase}" pbc="T T T"
O        0.00000000       0.00000000       0.00000000       0.81650239       0.33740538      -1.10767651
H        0.00000000       0.00000000       0.00000000      -0.44082141      -0.40153444       0.22287077
H        0.00000000       0.00000000       0.00000000      -0.20586976       0.15828279       1.15702999
O        0.00000000       0.00000000       0.00000000       1.04179335       3.03528548      -0.71236360
H        0.00000000       0.00000000       0.00000000      -0.04429226       0.03138593      -0.04362750
H        0.00000000       0.00000000       0.00000000      -1.52022028      -2.46955467       0.02860990
H        0.00000000       0.00000000       0.00000000       0.35290790      -0.69127035       0.45515707
7
Lattice="529.1772105638412 0.0 0.0 0.0 529.1772105638412 0.0 0.0 0.0 529.1772105638412" Properties=species:S:1:pos:R:3:forces_component_raw:R:3 ipi_comment="Step:        2400  Bead:       0 forces_component_raw{ase}  cell{ase}" pbc="T T T"
O        0.00000000       0.00000000       0.00000000       0.48380804       0.53609151      -0.22875005
H        0.00000000       0.00000000       0.00000000      -0.45919737      -0.35576603      -0.04769853
H        0.00000000       0.00000000       0.00000000      -0.18059763      -0.02993539       0.46745128
O        0.00000000       0.00000000       0.00000000      -0.14176291       1.64885223      -0.11798143
H        0.00000000       0.00000000       0.00000000       0.31272832      -0.46387833      -0.41627702
H        0.00000000       0.00000000       0.00000000      -0.48350290      -1.31213081       0.25933227
H        0.00000000       0.00000000       0.00000000       0.46852446      -0.02323323       0.08392364
7
Lattice="529.1772105638412 0.0 0.0 0.0 529.1772105638412 0.0 0.0 0.0 529.1772105638412" Properties=species:S:1:pos:R:3:forces_component_raw:R:3 ipi_comment="Step:        2420  Bead:       0 forces_component_raw{ase}  cell{ase}" pbc="T T T"
O        0.00000000       0.00000000       0.00000000      -0.38029763      -0.30723110      -0.35085663
H        0.00000000       0.00000000       0.00000000       0.52445942       0.27869090       0.22635987
H        0.00000000       0.00000000       0.00000000      -0.03082699       0.05170797      -0.08887595
O        0.00000000       0.00000000       0.00000000       0.18921322      -1.15583706       0.36135030
H        0.00000000       0.00000000       0.00000000      -0.05891064       0.29547328       0.13862133
H        0.00000000       0.00000000       0.00000000       0.13787299       0.39698917      -0.20879072
H        0.00000000       0.00000000       0.00000000      -0.38151041       0.44020695      -0.07780828
7
Lattice="529.1772105638412 0.0 0.0 0.0 529.1772105638412 0.0 0.0 0.0 529.1772105638412" Properties=species:S:1:pos:R:3:forces_component_raw:R:3 ipi_comment="Step:        2440  Bead:       0 forces_component_raw{ase}  cell{ase}" pbc="T T T"
O        0.00000000       0.00000000       0.00000000       0.22098634       0.05460978       0.61306679
H        0.00000000       0.00000000       0.00000000       0.30002147       0.15470150      -0.27300039
H        0.00000000       0.00000000       0.00000000      -0.42753753      -0.20117436      -0.52539683
O        0.00000000       0.00000000       0.00000000       0.22782016      -1.39423359       0.49170533
H        0.00000000       0.00000000       0.00000000      -0.20381466      -0.15611512       0.07836207
H        0.00000000       0.00000000       0.00000000       0.53884483       0.21649659       0.08310982
H        0.00000000       0.00000000       0.00000000      -0.65632069       1.32571519      -0.46784690
7
Lattice="529.1772105638412 0.0 0.0 0.0 529.1772105638412 0.0 0.0 0.0 529.1772105638412" Properties=species:S:1:pos:R:3:forces_component_raw:R:3 ipi_comment="Step:        2460  Bead:       0 forces_component_raw{ase}  cell{ase}" pbc="T T T"
O        0.00000000       0.00000000       0.00000000      -0.86465985      -0.63076544       0.79987872
H        0.00000000       0.00000000       0.00000000       0.20520908      -0.13672660       0.02687567
H        0.00000000       0.00000000       0.00000000       0.43275678       0.53265453      -0.73922229
O        0.00000000       0.00000000       0.00000000      -0.00839421      -1.34341073       0.77718985
H        0.00000000       0.00000000       0.00000000       0.20195088       0.14151351      -0.19770533
H        0.00000000       0.00000000       0.00000000       0.56054068       0.31112263      -0.08208108
H        0.00000000       0.00000000       0.00000000      -0.52740336       1.12561214      -0.58493567
7
Lattice="529.1772105638412 0.0 0.0 0.0 529.1772105638412 0.0 0.0 0.0 529.1772105638412" Properties=species:S:1:pos:R:3:forces_component_raw:R:3 ipi_comment="Step:        2480  Bead:       0 forces_component_raw{ase}  cell{ase}" pbc="T T T"
O        0.00000000       0.00000000       0.00000000       0.97991866      -0.28555176       0.04209846
H        0.00000000       0.00000000       0.00000000      -0.53008974       0.26149744      -0.41806972
H        0.00000000       0.00000000       0.00000000      -0.42601270      -0.07704484       0.26752952
O        0.00000000       0.00000000       0.00000000      -0.41385922      -0.23701944       0.05820587
H        0.00000000       0.00000000       0.00000000      -0.30626196      -0.00397028       0.20003246
H        0.00000000       0.00000000       0.00000000       0.75622690       0.47424281      -0.19304794
H        0.00000000       0.00000000       0.00000000      -0.05992197      -0.13215408       0.04325122
7
Lattice="529.1772105638412 0.0 0.0 0.0 529.1772105638412 0.0 0.0 0.0 529.1772105638412" Properties=species:S:1:pos:R:3:forces_component_raw:R:3 ipi_comment="Step:        2500  Bead:       0 forces_component_raw{ase}  cell{ase}" pbc="T T T"
O        0.00000000       0.00000000       0.00000000       0.02358194       0.48892826      -1.36888123
H        0.00000000       0.00000000       0.00000000      -0.69224364      -0.14120060       0.39266250
H        0.00000000       0.00000000       0.00000000       0.36487365      -0.43452293       0.90702272
O        0.00000000       0.00000000       0.00000000      -1.36966121       0.22933531      -0.84254408
H        0.00000000       0.00000000       0.00000000       0.38264757       0.04207289       0.00455938
H        0.00000000       0.00000000       0.00000000       0.89960671       0.47010642      -0.46882406
H        0.00000000       0.00000000       0.00000000       0.39119488      -0.65471935       1.37600482
7
Lattice="529.1772105638412 0.0 0.0 0.0 529.1772105638412 0.0 0.0 0.0 529.1772105638412" Properties=species:S:1:pos:R:3:forces_component_raw:R:3 ipi_comment="Step:        2520  Bead:       0 forces_component_raw{ase}  cell{ase}" pbc="T T T"
O        0.00000000       0.00000000       0.00000000       1.62375594       0.72776508      -0.63932157
H        0.00000000       0.00000000       0.00000000      -0.33958244       0.34325427      -0.07352272
H        0.00000000       0.00000000       0.00000000      -0.72429562      -0.56755817       1.07848025
O        0.00000000       0.00000000       0.00000000      -1.04852641       0.24564809      -1.92966783
H        0.00000000       0.00000000       0.00000000      -0.34756994      -0.53126896      -0.23359424
H        0.00000000       0.00000000       0.00000000       0.64102346       0.32471177      -0.32235643
H        0.00000000       0.00000000       0.00000000       0.19519486      -0.54255206       2.11998249
7
Lattice="529.1772105638412 0.0 0.0 0.0 529.1772105638412 0.0 0.0 0.0 529.1772105638412" Properties=species:S:1:pos:R:3:forces_component_raw:R:3 ipi_comment="Step:        2540  Bead:       0 forces_component_raw{ase}  cell{ase}" pbc="T T T"
O        0.00000000       0.00000000       0.00000000       0.73402971       0.38856346      -1.97768856
H        0.00000000       0.00000000       0.00000000      -0.34991127       0.12585151       0.52340698
H        0.00000000       0.00000000       0.00000000      -0.15294445      -0.53303778       1.49190688
O        0.00000000       0.00000000       0.00000000      -0.07542200      -0.05669704      -2.12334133
H        0.00000000       0.00000000       0.00000000       0.18323359       0.35968071       0.31364232
H        0.00000000       0.00000000       0.00000000       0.09614450       0.10861596      -0.17446569
H        0.00000000       0.00000000       0.00000000      -0.43513015      -0.39297688       1.94653941
7
Lattice="529.1772105638412 0.0 0.0 0.0 529.1772105638412 0.0 0.0 0.0 529.1772105638412" Properties=species:S:1:pos:R:3:forces_component_raw:R:3 ipi_comment="Step:        2560  Bead:       0 forces_component_raw{ase}  cell{ase}" pbc="T T T"
O        0.00000000       0.00000000       0.00000000      -0.05302393       0.13837746      -0.35599512
H        0.00000000       0.00000000       0.00000000       0.63215983      -0.04249822      -0.56902325
H        0.00000000       0.00000000       0.00000000      -0.73087686      -0.22351204       0.96590811
O        0.00000000       0.00000000       0.00000000       2.15628767       0.79391736      -1.23705983
H        0.00000000       0.00000000       0.00000000      -0.04805489       0.20906383      -0.19230959
H        0.00000000       0.00000000       0.00000000      -1.10673762      -0.32645664      -0.07299791
H        0.00000000       0.00000000       0.00000000      -0.84975404      -0.54889166       1.46147752
7
Lattice="529.1772105638412 0.0 0.0 0.0 529.1772105638412 0.0 0.0 0.0 529.1772105638412" Properties=species:S:1:pos:R:3:forces_component_raw:R:3 ipi_comment="Step:        2580  Bead:       0 forces_component_raw{ase}  cell{ase}" pbc="T T T"
O        0.00000000       0.00000000       0.00000000      -1.59945846      -0.11760741      -1.38096083
H        0.00000000       0.00000000       0.00000000       1.12251389       0.05348508       0.27088383
H        0.00000000       0.00000000       0.00000000       0.10459173       0.06499791       1.00342584
O        0.00000000       0.00000000       0.00000000       2.75978375       0.90248108      -0.68681407
H        0.00000000       0.00000000       0.00000000       0.00671181      -0.22557251       0.19491515
H        0.00000000       0.00000000       0.00000000      -1.90655995      -0.34253427       0.01320562
H        0.00000000       0.00000000       0.00000000      -0.48758271      -0.33524993       0.58534455
7
Lattice="529.1772105638412 0.0 0.0 0.0 529.1772105638412 0.0 0.0 0.0 529.1772105638412" Properties=species:S:1:pos:R:3:forces_component_raw:R:3 ipi_comment="Step:        2600  Bead:       0 forces_component_raw{ase}  cell{ase}" pbc="T T T"
O        0.00000000       0.00000000       0.00000000      -0.93193132       0.12575603       0.52906156
H        0.00000000       0.00000000       0.00000000       1.33079446       0.00105314      -0.59214527
H        0.00000000       0.00000000       0.00000000      -0.58056975      -0.15168944       0.04528826
O        0.00000000       0.00000000       0.00000000       1.06171012      -0.04355341       0.80096060
H        0.00000000       0.00000000       0.00000000       0.09185515      -0.03211640      -0.46417844
H        0.00000000       0.00000000       0.00000000      -1.22783935      -0.14899166       0.14100346
H        0.00000000       0.00000000       0.00000000       0.25598085       0.24954180      -0.45999017
7
Lattice="529.1772105638412 0.0 0.0 0.0 529.1772105638412 0.0 0.0 0.0 529.1772105638412" Properties=species:S:1:pos:R:3:forces_component_raw:R:3 ipi_comment="Step:        2620  Bead:       0 forces_component_raw{ase}  cell{ase}" pbc="T T T"
O        0.00000000       0.00000000       0.00000000      -1.07737041      -0.25051367      -0.12757789
H        0.00000000       0.00000000       0.00000000       0.66467577       0.27595648       0.53478873
H        0.00000000       0.00000000       0.00000000       0.72115159      -0.20202220      -0.79960835
O        0.00000000       0.00000000       0.00000000      -0.03311569      -0.88940144       3.13426614
H        0.00000000       0.00000000       0.00000000      -0.24388304       0.45354933       0.40294445
H        0.00000000       0.00000000       0.00000000      -0.25604871      -0.03765755      -0.21438324
H        0.00000000       0.00000000       0.00000000       0.22459048       0.65008903      -2.93042970
7
Lattice="529.1772105638412 0.0 0.0 0.0 529.1772105638412 0.0 0.0 0.0 529.1772105638412" Properties=species:S:1:pos:R:3:forces_component_raw:R:3 ipi_comment="Step:        2640  Bead:       0 forces_component_raw{ase}  cell{ase}" pbc="T T T"
O        0.00000000       0.00000000       0.00000000       0.16082850       0.70852101       1.45078016
H        0.00000000       0.00000000       0.00000000      -0.72348946      -0.35551849      -0.49545422
H        0.00000000       0.00000000       0.00000000       0.36737487      -0.36162448      -1.30557108
O        0.00000000       0.00000000       0.00000000      -1.01005233      -0.16289592       3.80859328
H        0.00000000       0.00000000       0.00000000       0.30168498      -0.36525363       0.06429321
H        0.00000000       0.00000000       0.00000000       0.50564593      -0.43498781      -0.09844396
H        0.00000000       0.00000000       0.00000000       0.39800751       0.97175932      -3.42419768
7
Lattice="529.1772105638412 0.0 0.0 0.0 529.1772105638412 0.0 0.0 0.0 529.1772105638412" Properties=species:S:1:pos:R:3:forces_component_raw:R:3 ipi_comment="Step:        2660  Bead:       0 forces_component_raw{ase}  cell{ase}" pbc="T T T"
O        0.00000000       0.00000000       0.00000000       0.92496675       0.37304986      -0.17490947
H        0.00000000       0.00000000       0.00000000      -2.04169226      -0.73905134       0.27085501
H        0.00000000       0.00000000       0.00000000       0.87972295       0.18596217      -0.40411759
O        0.00000000       0.00000000       0.00000000      -0.84684348      -0.73721612       2.29729796
H        0.00000000       0.00000000       0.00000000      -0.10877064      -0.02296604       0.50557482
H        0.00000000       0.00000000       0.00000000       1.13509047       0.22933570      -0.22509348
H        0.00000000       0.00000000       0.00000000       0.05752596       0.71088571      -2.26960707
7
Lattice="529.1772105638412 0.0 0.0 0.0 529.1772105638412 0.0 0.0 0.0 529.1772105638412" Properties=species:S:1:pos:R:3:forces_component_raw:R:3 ipi_comment="Step:        2680  Bead:       0 forces_component_raw{ase}  cell{ase}" pbc="T T T"
O        0.00000000       0.00000000       0.00000000       1.85996700       0.93994153       0.10176003
H        0.00000000       0.00000000       0.00000000      -1.76903129      -1.14903617      -0.44986338
H        0.00000000       0.00000000       0.00000000      -0.29344490      -0.03170678       0.50527120
O        0.00000000       0.00000000       0.00000000      -0.66292811      -0.79145158       0.36550954
H        0.00000000       0.00000000       0.00000000      -0.14607167       0.35995746      -0.30821946
H        0.00000000       0.00000000       0.00000000       0.92889559       0.41198009       0.16297817
H        0.00000000       0.00000000       0.00000000       0.08261344       0.26031536      -0.37743616
7
Lattice="529.1772105638412 0.0 0.0 0.0 529.1772105638412 0.0 0.0 0.0 529.1772105638412" Properties=species:S:1:pos:R:3:forces_component_raw:R:3 ipi_comment="Step:        2700  Bead:       0 forces_component_raw{ase}  cell{ase}" pbc="T T T"
O        0.00000000       0.00000000       0.00000000       0.79425740       0.62398696      -0.82005561
H        0.00000000       0.00000000       0.00000000      -0.79866630      -0.37061822       0.23440343
H        0.00000000       0.00000000       0.00000000      -0.00563976       0.04320650       0.90502197
O        0.00000000       0.00000000       0.00000000       0.21200088       1.72501660      -1.86685419
H        0.00000000       0.00000000       0.00000000       0.19689980      -0.41968381       0.14040896
H        0.00000000       0.00000000       0.00000000      -0.51898772      -0.23491499       0.14358759
H        0.00000000       0.00000000       0.00000000       0.12013583      -1.36699319       1.26348782
7
Lattice="529.1772105638412 0.0 0.0 0.0 529.1772105638412 0.0 0.0 0.0 529.1772105638412" Properties=species:S:1:pos:R:3:forces_component_raw:R:3 ipi_comment="Step:        2720  Bead:       0 forces_component_raw{ase}  cell{ase}" pbc="T T T"
O        0.00000000       0.00000000       0.00000000       0.26784843       0.25272504      -0.82169104
H        0.00000000       0.00000000       0.00000000       0.48699358       0.24128303       0.04641879
H        0.00000000       0.00000000       0.00000000      -0.14381024      -0.13792709       1.20992112
O        0.00000000       0.00000000       0.00000000      -1.67529560       1.57123125      -2.18408084
H        0.00000000       0.00000000       0.00000000      -0.14756140       0.33906218      -0.23404847
H        0.00000000       0.00000000       0.00000000      -0.52172554      -0.89484108       0.24831745
H        0.00000000       0.00000000       0.00000000       1.73355091      -1.37153340       1.73516310
7
Lattice="529.1772105638412 0.0 0.0 0.0 529.1772105638412 0.0 0.0 0.0 529.1772105638412" Properties=species:S:1:pos:R:3:forces_component_raw:R:3 ipi_comment="Step:        2740  Bead:       0 forces_component_raw{ase}  cell{ase}" pbc="T T T"
O        0.00000000       0.00000000       0.00000000      -1.62828553       0.40402404      -0.41213769
H        0.00000000       0.00000000       0.00000000       2.41417575      -0.02993098      -0.67108309
H        0.00000000       0.00000000       0.00000000      -0.40403807      -0.14002769       1.02157200
O        0.00000000       0.00000000       0.00000000      -1.00289035       2.74821807      -1.65271044
H        0.00000000       0.00000000       0.00000000       0.12602714      -0.37476900       0.23497970
H        0.00000000       0.00000000       0.00000000      -0.79405117      -0.75574166       0.10175544
H        0.00000000       0.00000000       0.00000000       1.28906226      -1.85177279       1.37762451
7
Lattice="529.1772105638412 0.0 0.0 0.0 529.1772105638412 0.0 0.0 0.0 529.1772105638412" Properties=species:S:1:pos:R:3:forces_component_raw:R:3 ipi_comment="Step:        2760  Bead:       0 forces_component_raw{ase}  cell{ase}" pbc="T T T"
O        0.00000000       0.00000000       0.00000000      -2.41667295      -0.26849115      -0.27065176
H        0.00000000       0.00000000       0.00000000       2.01527739       0.06143391      -0.40733707
H        0.00000000       0.00000000       0.00000000       0.05098391       0.00050031       0.65486252
O        0.00000000       0.00000000       0.00000000      -2.13344336       0.35978103      -1.73034978
H        0.00000000       0.00000000       0.00000000       0.32574534      -0.02262958      -0.16687544
H        0.00000000       0.00000000       0.00000000       0.40680352       0.11358973       0.37568656
H        0.00000000       0.00000000       0.00000000       1.75130630      -0.24418423       1.54466486
7
Lattice="529.1772105638412 0.0 0.0 0.0 529.1772105638412 0.0 0.0 0.0 529.1772105638412" Properties=species:S:1:pos:R:3:forces_component_raw:R:3 ipi_comment="Step:        2780  Bead:       0 forces_component_raw{ase}  cell{ase}" pbc="T T T"
O        0.00000000       0.00000000       0.00000000      -0.20809946      -0.12036178      -0.55485338
H        0.00000000       0.00000000       0.00000000       0.67149431       0.24283218      -0.05189896
H        0.00000000       0.00000000       0.00000000      -0.18214417      -0.17884833       0.37276068
O        0.00000000       0.00000000       0.00000000       0.25514078       0.09678333       0.18908966
H        0.00000000       0.00000000       0.00000000      -0.74253738      -0.05598839      -0.13468963
H        0.00000000       0.00000000       0.00000000      -0.36387658       0.54450899      -0.58543086
H        0.00000000       0.00000000       0.00000000       0.57002247      -0.52892584       0.76502240
7
Lattice="529.1772105638412 0.0 0.0 0.0 529.1772105638412 0.0 0.0 0.0 529.1772105638412" Properties=species:S:1:pos:R:3:forces_component_raw:R:3 ipi_comment="Step:        2800  Bead:       0 forces_component_raw{ase}  cell{ase}" pbc="T T T"
O        0.00000000       0.00000000       0.00000000      -0.05758905      -0.23564225      -0.23813170
H        0.00000000       0.00000000       0.00000000      -0.46596965      -0.26224864      -0.21482050
H        0.00000000       0.00000000       0.00000000       0.00879326       0.09167999       0.03420839
O        0.00000000       0.00000000       0.00000000       0.91603005      -1.83433581       0.65520227
H        0.00000000       0.00000000       0.00000000       0.44605196       0.06702362       0.23203374
H        0.00000000       0.00000000       0.00000000      -0.07671462       1.53997231       0.30047095
H        0.00000000       0.00000000       0.00000000      -0.77060211       0.63355088      -0.76896328
7
Lattice="529.1772105638412 0.0 0.0 0.0 529.1772105638412 0.0 0.0 0.0 529.1772105638412" Properties=species:S:1:pos:R:3:forces_component_raw:R:3 ipi_comment="Step:        2820  Bead:       0 forces_component_raw{ase}  cell{ase}" pbc="T T T"
O        0.00000000       0.00000000       0.00000000       0.98544061       0.44011000      -0.25813305
H        0.00000000       0.00000000       0.00000000      -1.23590684      -0.66934812       0.10230815
H        0.00000000       0.00000000       0.00000000       0.15198085       0.08462691       0.03944331
O        0.00000000       0.00000000       0.00000000       2.47857810      -0.64350116       2.06053877
H        0.00000000       0.00000000       0.00000000      -0.14664772       0.17360012       0.00250936
H        0.00000000       0.00000000       0.00000000      -0.52091330       0.28223807      -0.33081639
H        0.00000000       0.00000000       0.00000000      -1.71253157       0.33227402      -1.61585021
7
Lattice="529.1772105638412 0.0 0.0 0.0 529.1772105638412 0.0 0.0 0.0 529.1772105638412" Properties=species:S:1:pos:R:3:forces_component_raw:R:3 ipi_comment="Step:        2840  Bead:       0 forces_component_raw{ase}  cell{ase}" pbc="T T T"
O        0.00000000       0.00000000       0.00000000       1.49192214       1.35782600       1.60548735
H        0.00000000       0.00000000       0.00000000      -1.12032843      -0.63828534      -0.00088125
H        0.00000000       0.00000000       0.00000000       0.03933874       0.05007501      -1.00242007
O        0.00000000       0.00000000       0.00000000       1.08884633      -1.07136011       0.12193614
H        0.00000000       0.00000000       0.00000000      -0.31948569      -0.33275902      -0.21018705
H        0.00000000       0.00000000       0.00000000       0.36821550      -0.09761116       0.17383894
H        0.00000000       0.00000000       0.00000000      -1.54850853       0.73211485      -0.68777394
7
Lattice="529.1772105638412 0.0 0.0 0.0 529.1772105638412 0.0 0.0 0.0 529.1772105638412" Properties=species:S:1:pos:R:3:forces_component_raw:R:3 ipi_comment="Step:        2860  Bead:       0 forces_component_raw{ase}  cell{ase}" pbc="T T T"
O        0.00000000       0.00000000       0.00000000       0.50606096       0.23908013       0.60054016
H        0.00000000       0.00000000       0.00000000      -0.48687461      -0.38325524       0.09557942
H        0.00000000       0.00000000       0.00000000       0.08618687       0.24355151      -0.59546495
O        0.00000000       0.00000000       0.00000000      -0.83634663       0.78041738       1.16087044
H        0.00000000       0.00000000       0.00000000       0.10875209      -0.13608576       0.03090518
H        0.00000000       0.00000000       0.00000000       0.52980369      -0.40703219      -0.93377966
H        0.00000000       0.00000000       0.00000000       0.09241775      -0.33667588      -0.35865063
7
Lattice="529.1772105638412 0.0 0.0 0.0 529.1772105638412 0.0 0.0 0.0 529.1772105638412" Properties=species:S:1:pos:R:3:forces_component_raw:R:3 ipi_comment="Step:        2880  Bead:       0 forces_component_raw{ase}  cell{ase}" pbc="T T T"
O        0.00000000       0.00000000       0.00000000      -0.06482952      -0.93122441       0.42356953
H        0.00000000       0.00000000       0.00000000       0.04798171      -0.04659474      -0.07494640
H        0.00000000       0.00000000       0.00000000       0.01607548       0.44634563      -0.57933682
O        0.00000000       0.00000000       0.00000000      -1.93259168       1.48536587       0.73074269
H        0.00000000       0.00000000       0.00000000      -0.10027824       0.23079437       0.04122847
H        0.00000000       0.00000000       0.00000000       1.52129174      -0.49693310      -1.34582234
H        0.00000000       0.00000000       0.00000000       0.51235050      -0.68775368       0.80456478
7
Lattice="529.1772105638412 0.0 0.0 0.0 529.1772105638412 0.0 0.0 0.0 529.1772105638412" Properties=species:S:1:pos:R:3:forces_component_raw:R:3 ipi_comment="Step:        2900  Bead:       0 forces_component_raw{ase}  cell{ase}" pbc="T T T"
O        0.00000000       0.00000000       0.00000000       0.43763495       0.11162764      -0.44470796
H        0.00000000       0.00000000       0.00000000      -0.43591449      -0.42968914      -0.16983026
H        0.00000000       0.00000000       0.00000000      -0.05078027      -0.13326997       0.28213337
O        0.00000000       0.00000000       0.00000000      -0.95226109       1.04466379       1.77360988
H        0.00000000       0.00000000       0.00000000      -0.13302320      -0.09582821       0.13447747
H        0.00000000       0.00000000       0.00000000       0.14655095      -0.03122393      -1.15100348
H        0.00000000       0.00000000       0.00000000       0.98779309      -0.46628022      -0.42467892
7
Lattice="529.1772105638412 0.0 0.0 0.0 529.1772105638412 0.0 0.0 0.0 529.1772105638412" Properties=species:S:1:pos:R:3:forces_component_raw:R:3 ipi_comment="Step:        2920  Bead:       0 forces_component_raw{ase}  cell{ase}" pbc="T T T"
O        0.00000000       0.00000000       0.00000000      -0.01908889       0.34227291      -1.36245394
H        0.00000000       0.00000000       0.00000000      -0.22628796      -0.25220785       0.16728520
H        0.00000000       0.00000000       0.00000000       0.19254920      -0.28681901       1.01497841
O        0.00000000       0.00000000       0.00000000      -1.47484041      -0.74982584      -0.99781281
H        0.00000000       0.00000000       0.00000000       0.14650947       0.48986507       0.18405448
H        0.00000000       0.00000000       0.00000000       0.50429309       0.23698661       0.31660524
H        0.00000000       0.00000000       0.00000000       0.87686557       0.21972828       0.67734325
7
Lattice="529.1772105638412 0.0 0.0 0.0 529.1772105638412 0.0 0.0 0.0 529.1772105638412" Properties=species:S:1:pos:R:3:forces_component_raw:R:3 ipi_comment="Step:        2940  Bead:       0 forces_component_raw{ase}  cell{ase}" pbc="T T T"
O        0.00000000       0.00000000       0.00000000      -0.25279975       1.36475027      -0.81682247
H        0.00000000       0.00000000       0.00000000       0.10892606       0.12580723       0.22382435
H        0.00000000       0.00000000       0.00000000       0.34622955      -0.46421552       1.26289869
O        0.00000000       0.00000000       0.00000000       0.09180945      -0.18790896      -1.34511233
H        0.00000000       0.00000000       0.00000000      -0.01212898      -0.87677342      -0.54931194
H        0.00000000       0.00000000       0.00000000      -1.31899405      -0.29983360       1.62280608
H        0.00000000       0.00000000       0.00000000       1.03695786       0.33817405      -0.39828220
7
Lattice="529.1772105638412 0.0 0.0 0.0 529.1772105638412 0.0 0.0 0.0 529.1772105638412" Properties=species:S:1:pos:R:3:forces_component_raw:R:3 ipi_comment="Step:        2960  Bead:       0 forces_component_raw{ase}  cell{ase}" pbc="T T T"
O        0.00000000       0.00000000       0.00000000      -0.47257793      -0.85933650       0.30416828
H        0.00000000       0.00000000       0.00000000       0.73456288       0.96419609      -0.57380474
H        0.00000000       0.00000000       0.00000000      -0.09449675      -0.14023501       0.60857868
O        0.00000000       0.00000000       0.00000000       1.75912738      -0.58293224      -2.93534232
H        0.00000000       0.00000000       0.00000000      -0.14741804       0.83143699       0.25809068
H        0.00000000       0.00000000       0.00000000      -1.48037386      -0.14914945       2.30885292
H        0.00000000       0.00000000       0.00000000      -0.29882389      -0.06397992       0.02945632
7
Lattice="529.1772105638412 0.0 0.0 0.0 529.1772105638412 0.0 0.0 0.0 529.1772105638412" Properties=species:S:1:pos:R:3:forces_component_raw:R:3 ipi_comment="Step:        2980  Bead:       0 forces_component_raw{ase}  cell{ase}" pbc="T T T"
O        0.00000000       0.00000000       0.00000000      -0.97414041      -0.24878949       0.40201965
H        0.00000000       0.00000000       0.00000000       0.83745247       0.95089966      -0.27884710
H        0.00000000       0.00000000       0.00000000       0.18189833      -0.06670651       0.26450309
O        0.00000000       0.00000000       0.00000000       2.18924284       1.48467791      -1.28956378
H        0.00000000       0.00000000       0.00000000       0.01712715      -0.63143158      -0.29495868
H        0.00000000       0.00000000       0.00000000      -0.83230138      -0.21801123       1.32867301
H        0.00000000       0.00000000       0.00000000      -1.41927910      -1.27063871      -0.13182604
7
Lattice="529.1772105638412 0.0 0.0 0.0 529.1772105638412 0.0 0.0 0.0 529.1772105638412" Properties=species:S:1:pos:R:3:forces_component_raw:R:3 ipi_comment="Step:        3000  Bead:       0 forces_component_raw{ase}  cell{ase}" pbc="T T T"
O        0.00000000       0.00000000       0.00000000      -0.55127669      -0.81927175       0.35457763
H        0.00000000       0.00000000       0.00000000       0.29038858       0.36816731      -0.24463952
H        0.00000000       0.00000000       0.00000000      -0.09307786       0.14417908      -0.28273001
O        0.00000000       0.00000000       0.00000000       0.41001117       0.51058817       0.39133021
H        0.00000000       0.00000000       0.00000000       0.63061547       0.25049466      -0.14337069
H        0.00000000       0.00000000       0.00000000       0.20194790       0.35779703      -0.39351136
H        0.00000000       0.00000000       0.00000000      -0.88860858      -0.81195444       0.31834367
7
Lattice="529.1772105638412 0.0 0.0 0.0 529.1772105638412 0.0 0.0 0.0 529.1772105638412" Properties=species:S:1:pos:R:3:forces_component_raw:R:3 ipi_comment="Step:        3020  Bead:       0 forces_component_raw{ase}  cell{ase}" pbc="T T T"
O        0.00000000       0.00000000       0.00000000       0.84730005      -0.48424870      -0.00306018
H        0.00000000       0.00000000       0.00000000      -0.23227698      -0.33817744       0.15987152
H        0.00000000       0.00000000       0.00000000      -0.32462525       0.45937881      -0.49943084
O        0.00000000       0.00000000       0.00000000       0.21244356      -0.15182364       3.70290137
H        0.00000000       0.00000000       0.00000000      -0.58545339       0.04568461       0.34373468
H        0.00000000       0.00000000       0.00000000      -0.05815296       0.22765580      -3.62161685
H        0.00000000       0.00000000       0.00000000       0.14076486       0.24153063      -0.08239967
7
Lattice="529.1772105638412 0.0 0.0 0.0 529.1772105638412 0.0 0.0 0.0 529.1772105638412" Properties=species:S:1:pos:R:3:forces_component_raw:R:3 ipi_comment="Step:        3040  Bead:       0 forces_component_raw{ase}  cell{ase}" pbc="T T T"
O        0.00000000       0.00000000       0.00000000       0.80097759       1.06111217       0.68597919
H        0.00000000       0.00000000       0.00000000      -0.41552156      -1.20996011       0.19100036
H        0.00000000       0.00000000       0.00000000      -0.51157409       0.18325967      -0.92393661
O        0.00000000       0.00000000       0.00000000      -0.00777516      -0.59590900       4.97292997
H        0.00000000       0.00000000       0.00000000       0.51633251       0.01974711       0.07968479
H        0.00000000       0.00000000       0.00000000      -0.91898060       0.59094501      -4.69113923
H        0.00000000       0.00000000       0.00000000       0.53654134      -0.04919490      -0.31451821
7
Lattice="529.1772105638412 0.0 0.0 0.0 529.1772105638412 0.0 0.0 0.0 529.1772105638412" Properties=species:S:1:pos:R:3:forces_component_raw:R:3 ipi_comment="Step:        3060  Bead:       0 forces_component_raw{ase}  cell{ase}" pbc="T T T"
O        0.00000000       0.00000000       0.00000000       0.12888615       1.09770751      -0.00651118
H        0.00000000       0.00000000       0.00000000       0.21605268      -1.20156276       0.66238141
H        0.00000000       0.00000000       0.00000000      -0.20954081       0.37164059      -0.46443018
O        0.00000000       0.00000000       0.00000000      -0.19708431      -1.49874640       2.04377652
H        0.00000000       0.00000000       0.00000000      -0.27362812       0.07014649       0.26771605
H        0.00000000       0.00000000       0.00000000      -0.42590389       0.40645820      -2.34121967
H        0.00000000       0.00000000       0.00000000       0.76121825       0.75435656      -0.16171292
7
Lattice="529.1772105638412 0.0 0.0 0.0 529.1772105638412 0.0 0.0 0.0 529.1772105638412" Properties=species:S:1:pos:R:3:forces_component_raw:R:3 ipi_comment="Step:        3080  Bead:       0 forces_component_raw{ase}  cell{ase}" pbc="T T T"
O        0.00000000       0.00000000       0.00000000      -0.31385908       2.15610981       0.27181786
H        0.00000000       0.00000000       0.00000000       0.45676214      -1.53091038       0.55128247
H        0.00000000       0.00000000       0.00000000      -0.21056375      -0.24701570      -0.44473416
O        0.00000000       0.00000000       0.00000000      -0.13207221      -0.45569345      -0.20287556
H        0.00000000       0.00000000       0.00000000      -0.03158105      -0.17527761      -0.23331457
H        0.00000000       0.00000000       0.00000000       0.02985421      -0.23812836       0.33830300
H        0.00000000       0.00000000       0.00000000       0.20145972       0.49091572      -0.28047901
7
Lattice="529.1772105638412 0.0 0.0 0.0 529.1772105638412 0.0 0.0 0.0 529.1772105638412" Properties=species:S:1:pos:R:3:forces_component_raw:R:3 ipi_comment="Step:        3100  Bead:       0 forces_component_raw{ase}  cell{ase}" pbc="T T T"
O        0.00000000       0.00000000       0.00000000      -0.80157513       0.74810207      -0.44601560
H        0.00000000       0.00000000       0.00000000       0.73903620      -0.87485135       0.75753272
H        0.00000000       0.00000000       0.00000000      -0.24080701      -0.06693879      -0.39667693
O        0.00000000       0.00000000       0.00000000      -0.48746851       0.72136986      -2.06732488
H        0.00000000       0.00000000       0.00000000       0.43447721       0.03238593      -0.13602531
H        0.00000000       0.00000000       0.00000000       0.50676835      -0.35534036       2.20144868
H        0.00000000       0.00000000       0.00000000      -0.15043113      -0.20472738       0.08706152
7
Lattice="529.1772105638412 0.0 0.0 0.0 529.1772105638412 0.0 0.0 0.0 529.1772105638412" Properties=species:S:1:pos:R:3:forces_component_raw:R:3 ipi_comment="Step:        3120  Bead:       0 forces_component_raw{ase}  cell{ase}" pbc="T T T"
O        0.00000000       0.00000000       0.00000000       0.42321831       0.52208501      -0.50240374
H        0.00000000       0.00000000       0.00000000       0.13053617      -0.73814088       0.15390924
H        0.00000000       0.00000000       0.00000000      -0.17155510      -0.21559668       0.09957059
O        0.00000000       0.00000000       0.00000000      -0.24125755       1.29204262      -2.86100960
H        0.00000000       0.00000000       0.00000000      -0.51953924      -0.17930016       0.16941240
H        0.00000000       0.00000000       0.00000000       0.61343813      -0.48891059       2.80596686
H        0.00000000       0.00000000       0.00000000      -0.23484063      -0.19217935       0.13455433
7
Lattice="529.1772105638412 0.0 0.0 0.0 529.1772105638412 0.0 0.0 0.0 529.1772105638412" Properties=species:S:1:pos:R:3:forces_component_raw:R:3 ipi_comment="Step:        3140  Bead:       0 forces_component_raw{ase}  cell{ase}" pbc="T T T"
O        0.00000000       0.00000000       0.00000000      -0.82770693      -0.78338289      -0.74005056
H        0.00000000       0.00000000       0.00000000       0.44710466       0.00425209       0.31226376
H        0.00000000       0.00000000       0.00000000       0.36721209       0.49445945       0.07078159
O        0.00000000       0.00000000       0.00000000      -0.77543336       0.46141523      -2.68430162
H        0.00000000       0.00000000       0.00000000       0.14616302      -0.04771034       0.11224132
H        0.00000000       0.00000000       0.00000000       0.78905231       0.38598895       2.52349949
H        0.00000000       0.00000000       0.00000000      -0.14639178      -0.51502252       0.40556601
7
Lattice="529.1772105638412 0.0 0.0 0.0 529.1772105638412 0.0 0.0 0.0 529.1772105638412" Properties=species:S:1:pos:R:3:forces_component_raw:R:3 ipi_comment="Step:        3160  Bead:       0 forces_component_raw{ase}  cell{ase}" pbc="T T T"
O        0.00000000       0.00000000       0.00000000      -0.52908552       0.23012722       0.36731100
H        0.00000000       0.00000000       0.00000000      -0.35900605      -0.06636240      -0.13936892
H        0.00000000       0.00000000       0.00000000       0.81373084       0.29400534       0.16385254
O        0.00000000       0.00000000       0.00000000      -0.29567313       0.01116651      -1.14801038
H        0.00000000       0.00000000       0.00000000       0.13025411      -0.21874844      -0.64241243
H        0.00000000       0.00000000       0.00000000       0.29810435       0.45775455       1.21471536
H        0.00000000       0.00000000       0.00000000      -0.05832447      -0.70794279       0.18391275
7
Lattice="529.1772105638412 0.0 0.0 0.0 529.1772105638412 0.0 0.0 0.0 529.1772105638412" Properties=species:S:1:pos:R:3:forces_component_raw:R:3 ipi_comment="Step:        3180  Bead:       0 forces_component_raw{ase}  cell{ase}" pbc="T T T"
O        0.00000000       0.00000000       0.00000000       0.36500424      -1.09392834      -0.27197471
H        0.00000000       0.00000000       0.00000000      -0.76211155       0.75705308      -0.03078042
H        0.00000000       0.00000000       0.00000000       0.48406339       0.98162639       0.25647298
O        0.00000000       0.00000000       0.00000000       0.56827384      -0.56506509       0.07083929
H        0.00000000       0.00000000       0.00000000      -0.42764777       0.11133525       0.95239431
H        0.00000000       0.00000000       0.00000000      -0.21470508      -0.37539578      -0.86284107
H        0.00000000       0.00000000       0.00000000      -0.01287703       0.18437459      -0.11411035
7
Lattice="529.1772105638412 0.0 0.0 0.0 529.1772105638412 0.0 0.0 0.0 529.1772105638412" Properties=species:S:1:pos:R:3:forces_component_raw:R:3 ipi_comment="Step:        3200  Bead:       0 forces_component_raw{ase}  cell{ase}" pbc="T T T"
O        0.00000000       0.00000000       0.00000000      -0.45166427      -0.05737573       0.63007903
H        0.00000000       0.00000000       0.00000000      -1.11705947       0.18490446       0.09511720
H        0.00000000       0.00000000       0.00000000       1.04263163       0.51774782      -0.17844063
O        0.00000000       0.00000000       0.00000000       0.31084848      -0.57674432       3.64333273
H        0.00000000       0.00000000       0.00000000       0.63093531      -0.02100421      -0.55493337
H        0.00000000       0.00000000       0.00000000      -0.83754528      -0.79345042      -2.77959157
H        0.00000000       0.00000000       0.00000000       0.42185375       0.74592221      -0.85556352
7
Lattice="529.1772105638412 0.0 0.0 0.0 529.1772105638412 0.0 0.0 0.0 529.1772105638412" Properties=species:S:1:pos:R:3:forces_component_raw:R:3 ipi_comment="Step:        3220  Bead:       0 forces_component_raw{ase}  cell{ase}" pbc="T T T"
O        0.00000000       0.00000000       0.00000000       0.86632395      -1.45042956      -0.36829031
H        0.00000000       0.00000000       0.00000000      -0.79550344       0.57905352       0.13505274
H        0.00000000       0.00000000       0.00000000       0.15714461       0.95537293       0.14665300
O        0.00000000       0.00000000       0.00000000       1.12736821       0.13105929       3.34846736
H        0.00000000       0.00000000       0.00000000      -0.28178048      -0.06202386       0.16288865
H        0.00000000       0.00000000       0.00000000      -0.92722923      -0.87772346      -2.73443246
H        0.00000000       0.00000000       0.00000000      -0.14632344       0.72469109      -0.69033897
7
Lattice="529.1772105638412 0.0 0.0 0.0 529.1772105638412 0.0 0.0 0.0 529.1772105638412" Properties=species:S:1:pos:R:3:forces_component_raw:R:3 ipi_comment="Step:        3240  Bead:       0 forces_component_raw{ase}  cell{ase}" pbc="T T T"
O        0.00000000       0.00000000       0.00000000       0.47650254       0.28419536      -0.05342880
H        0.00000000       0.00000000       0.00000000      -0.80996502      -0.27258110       0.10163589
H        0.00000000       0.00000000       0.00000000       0.29788545      -0.63573945      -0.17908926
O        0.00000000       0.00000000       0.00000000      -0.25448960       0.51447612      -0.42711613
H        0.00000000       0.00000000       0.00000000       0.30809945       0.14084615      -0.10316008
H        0.00000000       0.00000000       0.00000000      -0.16567072       0.32013404      -0.07696837
H        0.00000000       0.00000000       0.00000000       0.14763802      -0.35133120       0.73812682
7
Lattice="529.1772105638412 0.0 0.0 0.0 529.1772105638412 0.0 0.0 0.0 529.1772105638412" Properties=species:S:1:pos:R:3:forces_component_raw:R:3 ipi_comment="Step:        3260  Bead:       0 forces_component_raw{ase}  cell{ase}" pbc="T T T"
O        0.00000000       0.00000000       0.00000000       1.60294414      -0.16556108      -0.48626229
H        0.00000000       0.00000000       0.00000000      -0.30028242       0.57313955      -0.01101095
H        0.00000000       0.00000000       0.00000000      -1.07864523      -1.09927511       0.26289573
O        0.00000000       0.00000000       0.00000000      -0.90750486       1.34863305      -1.05949509
H        0.00000000       0.00000000       0.00000000      -0.02382952       0.07440016      -0.06789268
H        0.00000000       0.00000000       0.00000000       0.56689191       0.10522153       0.87866694
H        0.00000000       0.00000000       0.00000000       0.14042589      -0.83655822       0.48309827
7
Lattice="529.1772105638412 0.0 0.0 0.0 529.1772105638412 0.0 0.0 0.0 529.1772105638412" Properties=species:S:1:pos:R:3:forces_component_raw:R:3 ipi_comment="Step:        3280  Bead:       0 forces_component_raw{ase}  cell{ase}" pbc="T T T"
O        0.00000000       0.00000000       0.00000000       0.35534856       1.64532495      -0.34007144
H        0.00000000       0.00000000       0.00000000      -0.00098228      -0.44573864       0.00252539
H        0.00000000       0.00000000       0.00000000      -0.05196062      -1.45929540       0.32802618
O        0.00000000       0.00000000       0.00000000      -1.53795672       0.11593941      -1.49503517
H        0.00000000       0.00000000       0.00000000      -0.17577505      -0.30286136      -0.24384111
H        0.00000000       0.00000000       0.00000000       1.06386745       0.95057309       0.96788907
H        0.00000000       0.00000000       0.00000000       0.34745890      -0.50394219       0.78050709
7
Lattice="529.1772105638412 0.0 0.0 0.0 529.1772105638412 0.0 0.0 0.0 529.1772105638412" Properties=species:S:1:pos:R:3:forces_component_raw:R:3 ipi_comment="Step:        3300  Bead:       0 forces_component_raw{ase}  cell{ase}" pbc="T T T"
O        0.00000000       0.00000000       0.00000000       0.09326114      -0.18697947      -0.53199697
H        0.00000000       0.00000000       0.00000000       0.47260389       0.40511832      -0.06561928
H        0.00000000       0.00000000       0.00000000      -0.50331199      -0.51603890       0.35408861
O        0.00000000       0.00000000       0.00000000      -1.40669740      -0.06446376      -1.41021681
H        0.00000000       0.00000000       0.00000000       0.12124060      -0.01790400       0.06778043
H        0.00000000       0.00000000       0.00000000       1.28807068       0.74588502       1.85205055
H        0.00000000       0.00000000       0.00000000      -0.06516682      -0.36561719      -0.26608640
7
Lattice="529.1772105638412 0.0 0.0 0.0 529.1772105638412 0.0 0.0 0.0 529.1772105638412" Properties=species:S:1:pos:R:3:forces_component_raw:R:3 ipi_comment="Step:        3320  Bead:       0 forces_component_raw{ase}  cell{ase}" pbc="T T T"
O        0.00000000       0.00000000       0.00000000      -1.78062916       0.09894025      -0.31460422
H        0.00000000       0.00000000       0.00000000       1.57004583      -0.25717694       0.24410570
H        0.00000000       0.00000000       0.00000000       0.35001987       0.25077370      -0.02456552
O        0.00000000       0.00000000       0.00000000       0.26108009      -1.72691119       0.17713079
H        0.00000000       0.00000000       0.00000000      -0.47411615       0.02721933       0.06871742
H        0.00000000       0.00000000       0.00000000       0.33895880       0.77745342       0.99227232
H        0.00000000       0.00000000       0.00000000      -0.26535937       0.82970143      -1.14305651
7
Lattice="529.1772105638412 0.0 0.0 0.0 529.1772105638412 0.0 0.0 0.0 529.1772105638412" Properties=species:S:1:pos:R:3:forces_component_raw:R:3 ipi_comment="Step:        3340  Bead:       0 forces_component_raw{ase}  cell{ase}" pbc="T T T"
O        0.00000000       0.00000000       0.00000000      -1.95423162      -0.36133409       0.74941629
H        0.00000000       0.00000000       0.00000000       1.30613673       0.37921715      -0.07414302
H        0.00000000       0.00000000       0.00000000       0.11380449       0.39954999      -0.33048612
O        0.00000000       0.00000000       0.00000000       0.25484306      -1.16655588       0.87387514
H        0.00000000       0.00000000       0.00000000       0.49563679      -0.24913958      -0.37101317
H        0.00000000       0.00000000       0.00000000       0.15510702       0.12660235       0.30690882
H        0.00000000       0.00000000       0.00000000      -0.37129632       0.87166006      -1.15455795
7
Lattice="529.1772105638412 0.0 0.0 0.0 529.1772105638412 0.0 0.0 0.0 529.1772105638412" Properties=species:S:1:pos:R:3:forces_component_raw:R:3 ipi_comment="Step:        3360  Bead:       0 forces_component_raw{ase}  cell{ase}" pbc="T T T"
O        0.00000000       0.00000000       0.00000000      -1.14745283       0.03515512       0.19900735
H        0.00000000       0.00000000       0.00000000       1.00088859      -0.47147799      -0.07384510
H        0.00000000       0.00000000       0.00000000       0.35579813       0.40005893      -0.18241407
O        0.00000000       0.00000000       0.00000000       1.05277550      -0.30102152       1.36588049
H        0.00000000       0.00000000       0.00000000      -0.32761052       0.09226750       0.23582369
H        0.00000000       0.00000000       0.00000000      -0.33617503      -0.56721223      -0.60781980
H        0.00000000       0.00000000       0.00000000      -0.59822381       0.81223011      -0.93663275
7
Lattice="529.1772105638412 0.0 0.0 0.0 529.1772105638412 0.0 0.0 0.0 529.1772105638412" Properties=species:S:1:pos:R:3:forces_component_raw:R:3 ipi_comment="Step:        3380  Bead:       0 forces_component_raw{ase}  cell{ase}" pbc="T T T"
O        0.00000000       0.00000000       0.00000000       0.44160879      -1.02592373       0.14424156
H        0.00000000       0.00000000       0.00000000      -0.34509438       0.08151469      -0.00263652
H        0.00000000       0.00000000       0.00000000       0.06555825       0.13991052      -0.15138440
O        0.00000000       0.00000000       0.00000000       0.15959817       1.15271497       1.33796966
H        0.00000000       0.00000000       0.00000000       0.45132879       0.23839355      -0.24089171
H        0.00000000       0.00000000       0.00000000      -0.41440541      -0.81567913      -0.63109803
H        0.00000000       0.00000000       0.00000000      -0.35859418       0.22906900      -0.45620048
7
Lattice="529.1772105638412 0.0 0.0 0.0 529.1772105638412 0.0 0.0 0.0 529.1772105638412" Properties=species:S:1:pos:R:3:forces_component_raw:R:3 ipi_comment="Step:        3400  Bead:       0 forces_component_raw{ase}  cell{ase}" pbc="T T T"
O        0.00000000       0.00000000       0.00000000       3.12281800       0.29434639      -0.34473205
H        0.00000000       0.00000000       0.00000000      -2.86845041       0.10742275       0.32661575
H        0.00000000       0.00000000       0.00000000      -0.04066956       0.00554043       0.01545402
O        0.00000000       0.00000000       0.00000000      -0.79849518       1.04022694      -0.64030886
H        0.00000000       0.00000000       0.00000000       0.08165485      -0.77699226      -0.05956172
H        0.00000000       0.00000000       0.00000000       0.00899631      -0.19574593      -0.08518618
H        0.00000000       0.00000000       0.00000000       0.49414566      -0.47479832       0.78771913
7
Lattice="529.1772105638412 0.0 0.0 0.0 529.1772105638412 0.0 0.0 0.0 529.1772105638412" Properties=species:S:1:pos:R:3:forces_component_raw:R:3 ipi_comment="Step:        3420  Bead:       0 forces_component_raw{ase}  cell{ase}" pbc="T T T"
O        0.00000000       0.00000000       0.00000000       3.01560593       0.86526555      -0.72383660
H        0.00000000       0.00000000       0.00000000      -3.03986145       0.09898976       0.40079057
H        0.00000000       0.00000000       0.00000000      -0.20323056      -0.84250331       0.34692186
O        0.00000000       0.00000000       0.00000000      -0.17605859      -1.32508552      -0.71893728
H        0.00000000       0.00000000       0.00000000      -0.11860025       0.68342853       0.27475613
H        0.00000000       0.00000000       0.00000000       0.39193299       0.46070489       0.13408572
H        0.00000000       0.00000000       0.00000000       0.13021180       0.05920012       0.28621960
7
Lattice="529.1772105638412 0.0 0.0 0.0 529.1772105638412 0.0 0.0 0.0 529.1772105638412" Properties=species:S:1:pos:R:3:forces_component_raw:R:3 ipi_comment="Step:        3440  Bead:       0 forces_component_raw{ase}  cell{ase}" pbc="T T T"
O        0.00000000       0.00000000       0.00000000       0.66394723       1.05769480      -0.13031223
H        0.00000000       0.00000000       0.00000000      -1.24960780      -0.27780968       0.18065622
H        0.00000000       0.00000000       0.00000000       0.32871461      -0.48326805       0.09709296
O        0.00000000       0.00000000       0.00000000      -0.53544355      -0.21440938      -0.38516778
H        0.00000000       0.00000000       0.00000000       0.03686357      -0.35144174      -0.26772514
H        0.00000000       0.00000000       0.00000000       0.73047280       0.76456827       0.51790297
H        0.00000000       0.00000000       0.00000000       0.02505311      -0.49533415      -0.01244700
7
Lattice="529.1772105638412 0.0 0.0 0.0 529.1772105638412 0.0 0.0 0.0 529.1772105638412" Properties=species:S:1:pos:R:3:forces_component_raw:R:3 ipi_comment="Step:        3460  Bead:       0 forces_component_raw{ase}  cell{ase}" pbc="T T T"
O        0.00000000       0.00000000       0.00000000       0.25123528      -0.61736500      -0.03727645
H        0.00000000       0.00000000       0.00000000      -0.15579370       0.31627408      -0.07278071
H        0.00000000       0.00000000       0.00000000      -0.12921494       0.41789085      -0.29149050
O        0.00000000       0.00000000       0.00000000      -0.97655928      -1.40503383      -0.61788952
H        0.00000000       0.00000000       0.00000000       0.05513576      -0.29402110       0.78971946
H        0.00000000       0.00000000       0.00000000       0.80804968       1.37426853       0.08608086
H        0.00000000       0.00000000       0.00000000       0.14714718       0.20798643       0.14363694
7
Lattice="529.1772105638412 0.0 0.0 0.0 529.1772105638412 0.0 0.0 0.0 529.1772105638412" Properties=species:S:1:pos:R:3:forces_component_raw:R:3 ipi_comment="Step:        3480  Bead:       0 forces_component_raw{ase}  cell{ase}" pbc="T T T"
O        0.00000000       0.00000000       0.00000000      -1.68322611      -0.80608881       0.52369577
H        0.00000000       0.00000000       0.00000000       1.21782160       0.09044424       0.19753546
H        0.00000000       0.00000000       0.00000000       0.48767209       0.41093946      -0.48413441
O        0.00000000       0.00000000       0.00000000      -0.82364583      -0.87538225      -0.49405658
H        0.00000000       0.00000000       0.00000000      -0.27470687       0.10695415      -0.64114511
H        0.00000000       0.00000000       0.00000000       0.59762234       1.44873810       0.41062176
H        0.00000000       0.00000000       0.00000000       0.47846282      -0.37560514       0.48748306
7
Lattice="529.1772105638412 0.0 0.0 0.0 529.1772105638412 0.0 0.0 0.0 529.1772105638412" Properties=species:S:1:pos:R:3:forces_component_raw:R:3 ipi_comment="Step:        3500  Bead:       0 forces_component_raw{ase}  cell{ase}" pbc="T T T"
O        0.00000000       0.00000000       0.00000000      -1.61129570      -0.81277192       0.29513165
H        0.00000000       0.00000000       0.00000000       1.91957736       0.05684057      -0.05701168
H        0.00000000       0.00000000       0.00000000      -0.03343824       0.42184609      -0.34776640
O        0.00000000       0.00000000       0.00000000      -1.31600511      -0.71559513      -0.98257542
H        0.00000000       0.00000000       0.00000000      -0.07286266       0.15162843       0.16951422
H        0.00000000       0.00000000       0.00000000       0.60896111       0.93518335       0.18708745
H        0.00000000       0.00000000       0.00000000       0.50506342      -0.03713150       0.73562008
7
Lattice="529.1772105638412 0.0 0.0 0.0 529.1772105638412 0.0 0.0 0.0 529.1772105638412" Properties=species:S:1:pos:R:3:forces_component_raw:R:3 ipi_comment="Step:        3520  Bead:       0 forces_component_raw{ase}  cell{ase}" pbc="T T T"
O        0.00000000       0.00000000       0.00000000      -1.54747343       0.10530126       0.34592944
H        0.00000000       0.00000000       0.00000000       1.61990273      -0.24685422      -0.10496980
H        0.00000000       0.00000000       0.00000000      -0.00090653       0.12921593      -0.17546162
O        0.00000000       0.00000000       0.00000000      -0.59130144       0.31115389      -0.16806495
H        0.00000000       0.00000000       0.00000000       0.28535301      -0.15641269      -0.09833929
H        0.00000000       0.00000000       0.00000000       0.18295211      -0.10329773       0.05096033
H        0.00000000       0.00000000       0.00000000       0.05147371      -0.03910640       0.14994580
7
Lattice="529.1772105638412 0.0 0.0 0.0 529.1772105638412 0.0 0.0 0.0 529.1772105638412" Properties=species:S:1:pos:R:3:forces_component_raw:R:3 ipi_comment="Step:        3540  Bead:       0 forces_component_raw{ase}  cell{ase}" pbc="T T T"
O        0.00000000       0.00000000       0.00000000      -0.46263915       0.30729467      -0.28487355
H        0.00000000       0.00000000       0.00000000       0.87384147      -0.20929042      -0.06756409
H        0.00000000       0.00000000       0.00000000      -0.30003789      -0.32680333       0.43326193
O        0.00000000       0.00000000       0.00000000       0.94512809      -0.45077348       0.67306686
H        0.00000000       0.00000000       0.00000000      -0.09003517       0.28841746      -0.05224572
H        0.00000000       0.00000000       0.00000000      -0.43120131      -0.11179021      -0.23872343
H        0.00000000       0.00000000       0.00000000      -0.53505600       0.50294525      -0.46292204
7
Lattice="529.1772105638412 0.0 0.0 0.0 529.1772105638412 0.0 0.0 0.0 529.1772105638412" Properties=species:S:1:pos:R:3:forces_component_raw:R:3 ipi_comment="Step:        3560  Bead:       0 forces_component_raw{ase}  cell{ase}" pbc="T T T"
O        0.00000000       0.00000000       0.00000000      -0.15829943      -0.00402117      -0.01450100
H        0.00000000       0.00000000       0.00000000       0.23976311      -0.13828196      -0.03550187
H        0.00000000       0.00000000       0.00000000      -0.07012188       0.02822851      -0.03300563
O        0.00000000       0.00000000       0.00000000       0.73134202       0.99062443       0.34768197
H        0.00000000       0.00000000       0.00000000       0.11014478       0.23906946       0.20943216
H        0.00000000       0.00000000       0.00000000       0.00102571      -0.71682853       0.16087711
H        0.00000000       0.00000000       0.00000000      -0.85385424      -0.39879084      -0.63498283
7
Lattice="529.1772105638412 0.0 0.0 0.0 529.1772105638412 0.0 0.0 0.0 529.1772105638412" Properties=species:S:1:pos:R:3:forces_component_raw:R:3 ipi_comment="Step:        3580  Bead:       0 forces_component_raw{ase}  cell{ase}" pbc="T T T"
O        0.00000000       0.00000000       0.00000000       1.24110103       0.09865683      -0.10220689
H        0.00000000       0.00000000       0.00000000      -1.06199563       0.06629653       0.14200722
H        0.00000000       0.00000000       0.00000000      -0.08183223      -0.05596121      -0.01223147
O        0.00000000       0.00000000       0.00000000       1.10558963       0.09264219       0.91076940
H        0.00000000       0.00000000       0.00000000      -0.28095415      -0.27239904      -0.13499829
H        0.00000000       0.00000000       0.00000000      -0.71770048      -0.35904867      -0.49026099
H        0.00000000       0.00000000       0.00000000      -0.20420837       0.42981333      -0.31307900
7
Lattice="529.1772105638412 0.0 0.0 0.0 529.1772105638412 0.0 0.0 0.0 529.1772105638412" Properties=species:S:1:pos:R:3:forces_component_raw:R:3 ipi_comment="Step:        3600  Bead:       0 forces_component_raw{ase}  cell{ase}" pbc="T T T"
O        0.00000000       0.00000000       0.00000000       0.32837221      -0.83208263       0.47180274
H        0.00000000       0.00000000       0.00000000      -0.39357433       0.05564308      -0.01315770
H        0.00000000       0.00000000       0.00000000       0.16274640       0.28963715      -0.42463768
O        0.00000000       0.00000000       0.00000000      -0.45598534       1.14078629      -0.58956432
H        0.00000000       0.00000000       0.00000000       0.30839956       0.01185969       0.14701766
H        0.00000000       0.00000000       0.00000000       0.04479906      -0.27263659       0.24762309
H        0.00000000       0.00000000       0.00000000       0.00524251      -0.39320693       0.16091627
7
Lattice="529.1772105638412 0.0 0.0 0.0 529.1772105638412 0.0 0.0 0.0 529.1772105638412" Properties=species:S:1:pos:R:3:forces_component_raw:R:3 ipi_comment="Step:        3620  Bead:       0 forces_component_raw{ase}  cell{ase}" pbc="T T T"
O        0.00000000       0.00000000       0.00000000       0.03507110       0.13525605      -0.23332927
H        0.00000000       0.00000000       0.00000000      -0.22836739      -0.36533550       0.31373036
H        0.00000000       0.00000000       0.00000000       0.42725563      -0.08208613      -0.11359984
O        0.00000000       0.00000000       0.00000000       0.12985811      -0.49514756      -0.49726480
H        0.00000000       0.00000000       0.00000000      -0.53211820       0.33779520      -0.02658029
H        0.00000000       0.00000000       0.00000000      -0.11828193       0.40603498      -0.10310787
H        0.00000000       0.00000000       0.00000000       0.28658271       0.06348294       0.66015172
7
Lattice="529.1772105638412 0.0 0.0 0.0 529.1772105638412 0.0 0.0 0.0 529.1772105638412" Properties=species:S:1:pos:R:3:forces_component_raw:R:3 ipi_comment="Step:        3640  Bead:       0 forces_component_raw{ase}  cell{ase}" pbc="T T T"
O        0.00000000       0.00000000       0.00000000       2.23439694      -0.94829047      -0.32073411
H        0.00000000       0.00000000       0.00000000      -1.39048136       0.60771990      -0.13592806
H        0.00000000       0.00000000       0.00000000      -0.77188641      -0.20243685       0.55973637
O        0.00000000       0.00000000       0.00000000      -0.82886505       0.00516349      -0.16192052
H        0.00000000       0.00000000       0.00000000       0.29901090       0.06313333      -0.02378932
H        0.00000000       0.00000000       0.00000000       0.21949017       0.42462614      -0.13203388
H        0.00000000       0.00000000       0.00000000       0.23833489       0.05008447       0.21466970
7
Lattice="529.1772105638412 0.0 0.0 0.0 529.1772105638412 0.0 0.0 0.0 529.1772105638412" Properties=species:S:1:pos:R:3:forces_component_raw:R:3 ipi_comment="Step:        3660  Bead:       0 forces_component_raw{ase}  cell{ase}" pbc="T T T"
O        0.00000000       0.00000000       0.00000000       0.52001298       1.02376199      -1.13351286
H        0.00000000       0.00000000       0.00000000      -0.96182597      -0.14049161       0.58723652
H        0.00000000       0.00000000       0.00000000       0.42545226      -0.51695281       0.64374346
O        0.00000000       0.00000000       0.00000000      -0.64427185       0.08195087      -0.24939609
H        0.00000000       0.00000000       0.00000000       0.15121621      -0.75722265      -0.08376250
H        0.00000000       0.00000000       0.00000000       0.16828847       0.22914408      -0.15730619
H        0.00000000       0.00000000       0.00000000       0.34112784       0.07981002       0.39299777
7
Lattice="529.1772105638412 0.0 0.0 0.0 529.1772105638412 0.0 0.0 0.0 529.1772105638412" Properties=species:S:1:pos:R:3:forces_component_raw:R:3 ipi_comment="Step:        3680  Bead:       0 forces_component_raw{ase}  cell{ase}" pbc="T T T"
O        0.00000000       0.00000000       0.00000000       1.31235099      -0.85290396      -0.19730842
H        0.00000000       0.00000000       0.00000000      -0.75841630       0.36867437      -0.23203185
H        0.00000000       0.00000000       0.00000000      -0.47481489       0.19868913       0.37057006
O        0.00000000       0.00000000       0.00000000       0.12183674      -0.54171491      -0.13159174
H        0.00000000       0.00000000       0.00000000      -0.25136504       0.91854763       0.10023505
H        0.00000000       0.00000000       0.00000000       0.25787056      -0.09569040       0.27671388
H        0.00000000       0.00000000       0.00000000      -0.20746197       0.00439799      -0.18658704
7
Lattice="529.1772105638412 0.0 0.0 0.0 529.1772105638412 0.0 0.0 0.0 529.1772105638412" Properties=species:S:1:pos:R:3:forces_component_raw:R:3 ipi_comment="Step:        3700  Bead:       0 forces_component_raw{ase}  cell{ase}" pbc="T T T"
O        0.00000000       0.00000000       0.00000000      -1.15898097       0.11890629      -0.69637770
H        0.00000000       0.00000000       0.00000000       0.64780671      -0.14979491       0.50966489
H        0.00000000       0.00000000       0.00000000       0.64474517      -0.13315493       0.29103234
O        0.00000000       0.00000000       0.00000000      -0.60030615      -0.17589171       0.61640459
H        0.00000000       0.00000000       0.00000000       0.01258996      -0.32404614      -0.06699152
H        0.00000000       0.00000000       0.00000000       0.43922404       0.45837408      -0.08915687
H        0.00000000       0.00000000       0.00000000       0.01492126       0.20560724      -0.56457591
7
Lattice="529.1772105638412 0.0 0.0 0.0 529.1772105638412 0.0 0.0 0.0 529.1772105638412" Properties=species:S:1:pos:R:3:forces_component_raw:R:3 ipi_comment="Step:        3720  Bead:       0 forces_component_raw{ase}  cell{ase}" pbc="T T T"
O        0.00000000       0.00000000       0.00000000      -0.03210375      -1.35992599       1.17981172
H        0.00000000       0.00000000       0.00000000       0.55583727       0.08461314      -0.72378290
H        0.00000000       0.00000000       0.00000000      -0.43716854       0.43091047      -0.37837574
O        0.00000000       0.00000000       0.00000000      -0.73824740       0.65251839      -0.03973200
H        0.00000000       0.00000000       0.00000000       0.30134654       0.13457614       0.00740053
H        0.00000000       0.00000000       0.00000000       0.36740956       0.25836349       0.13818145
H        0.00000000       0.00000000       0.00000000      -0.01707371      -0.20105571      -0.18350300
7
Lattice="529.1772105638412 0.0 0.0 0.0 529.1772105638412 0.0 0.0 0.0 529.1772105638412" Properties=species:S:1:pos:R:3:forces_component_raw:R:3 ipi_comment="Step:        3740  Bead:       0 forces_component_raw{ase}  cell{ase}" pbc="T T T"
O        0.00000000       0.00000000       0.00000000      -0.66404224       0.48601392       0.30752805
H        0.00000000       0.00000000       0.00000000       0.33740389      -0.74713075       0.45987788
H        0.00000000       0.00000000       0.00000000       0.58133924      -0.12389712      -0.74240387
O        0.00000000       0.00000000       0.00000000      -0.05788428      -0.61169803       0.16648912
H        0.00000000       0.00000000       0.00000000      -0.45469833       0.03651695      -0.02501385
H        0.00000000       0.00000000       0.00000000       0.22117844       0.88566172      -0.11883867
H        0.00000000       0.00000000       0.00000000       0.03670344       0.07453313      -0.04763874
7
Lattice="529.1772105638412 0.0 0.0 0.0 529.1772105638412 0.0 0.0 0.0 529.1772105638412" Properties=species:S:1:pos:R:3:forces_component_raw:R:3 ipi_comment="Step:        3760  Bead:       0 forces_component_raw{ase}  cell{ase}" pbc="T T T"
O        0.00000000       0.00000000       0.00000000      -0.54005754      -0.77733433       1.38573170
H        0.00000000       0.00000000       0.00000000       0.46301973      -0.05797638      -0.89188600
H        0.00000000       0.00000000       0.00000000      -0.22932023       0.43249306      -0.23807195
O        0.00000000       0.00000000       0.00000000      -0.71764732       0.25484383      -0.63701898
H        0.00000000       0.00000000       0.00000000       0.91105253       0.37540329      -0.04743924
H        0.00000000       0.00000000       0.00000000       0.37004572      -0.09855202       0.38203013
H        0.00000000       0.00000000       0.00000000      -0.25709280      -0.12887740       0.04665436
7
Lattice="529.1772105638412 0.0 0.0 0.0 529.1772105638412 0.0 0.0 0.0 529.1772105638412" Properties=species:S:1:pos:R:3:forces_component_raw:R:3 ipi_comment="Step:        3780  Bead:       0 forces_component_raw{ase}  cell{ase}" pbc="T T T"
O        0.00000000       0.00000000       0.00000000      -0.18362924       1.72078419      -0.94345379
H        0.00000000       0.00000000       0.00000000       0.07041898      -0.24701002       0.15897186
H        0.00000000       0.00000000       0.00000000      -0.00360557      -0.15386890       0.18031478
O        0.00000000       0.00000000       0.00000000       1.47214127      -0.35008210       0.99868560
H        0.00000000       0.00000000       0.00000000      -0.31488183      -1.04901719       0.44240859
H        0.00000000       0.00000000       0.00000000      -0.92186874      -0.32430312      -0.38391280
H        0.00000000       0.00000000       0.00000000      -0.11857486       0.40349710      -0.45301408
7
Lattice="529.1772105638412 0.0 0.0 0.0 529.1772105638412 0.0 0.0 0.0 529.1772105638412" Properties=species:S:1:pos:R:3:forces_component_raw:R:3 ipi_comment="Step:        3800  Bead:       0 forces_component_raw{ase}  cell{ase}" pbc="T T T"
O        0.00000000       0.00000000       0.00000000       0.36856982       0.13075799      -1.10369551
H        0.00000000       0.00000000       0.00000000       0.00642394       0.40680164       0.01117772
H        0.00000000       0.00000000       0.00000000      -0.41839352      -0.18887585       1.04033268
O        0.00000000       0.00000000       0.00000000       0.80841166      -0.30807483       0.00672984
H        0.00000000       0.00000000       0.00000000      -0.16832703       0.80183679      -0.24515054
H        0.00000000       0.00000000       0.00000000      -0.17111307      -0.51915836       0.28660014
H        0.00000000       0.00000000       0.00000000      -0.42557174      -0.32328740       0.00400568
7
Lattice="529.1772105638412 0.0 0.0 0.0 529.1772105638412 0.0 0.0 0.0 529.1772105638412" Properties=species:S:1:pos:R:3:forces_component_raw:R:3 ipi_comment="Step:        3820  Bead:       0 forces_component_raw{ase}  cell{ase}" pbc="T T T"
O        0.00000000       0.00000000       0.00000000      -0.24517852       1.02656460       0.18110010
H        0.00000000       0.00000000       0.00000000      -0.03218275      -0.44219089      -0.02882358
H        0.00000000       0.00000000       0.00000000       0.09483720      -0.44315070      -0.06279480
O        0.00000000       0.00000000       0.00000000      -0.36837846       0.63403893      -0.65120053
H        0.00000000       0.00000000       0.00000000       0.40933710      -0.28576586       0.04827474
H        0.00000000       0.00000000       0.00000000      -0.62458885      -0.32021514      -0.11070389
H        0.00000000       0.00000000       0.00000000       0.76615417      -0.16928071       0.62414789
7
Lattice="529.1772105638412 0.0 0.0 0.0 529.1772105638412 0.0 0.0 0.0 529.1772105638412" Properties=species:S:1:pos:R:3:forces_component_raw:R:3 ipi_comment="Step:        3840  Bead:       0 forces_component_raw{ase}  cell{ase}" pbc="T T T"
O        0.00000000       0.00000000       0.00000000       0.24848102      -0.11623056       1.82866466
H        0.00000000       0.00000000       0.00000000      -0.16363844      -0.59752774      -1.19916809
H        0.00000000       0.00000000       0.00000000       0.47437197       0.62458396      -0.65322721
O        0.00000000       0.00000000       0.00000000      -0.85583610       1.39497209      -1.52939225
H        0.00000000       0.00000000       0.00000000      -0.88981283      -0.37856013       0.07594610
H        0.00000000       0.00000000       0.00000000       0.34627137       0.10612969       0.13560739
H        0.00000000       0.00000000       0.00000000       0.84016299      -1.03336740       1.34156967
7
Lattice="529.1772105638412 0.0 0.0 0.0 529.1772105638412 0.0 0.0 0.0 529.1772105638412" Properties=species:S:1:pos:R:3:forces_component_raw:R:3 ipi_comment="Step:        3860  Bead:       0 forces_component_raw{ase}  cell{ase}" pbc="T T T"
O        0.00000000       0.00000000       0.00000000       0.66780365       0.29566521       2.53558350
H        0.00000000       0.00000000       0.00000000      -1.29346729      -1.37984300      -1.19857681
H        0.00000000       0.00000000       0.00000000       0.25695616      -0.20118785      -1.04754353
O        0.00000000       0.00000000       0.00000000      -2.18397809       0.55617494      -1.50491453
H        0.00000000       0.00000000       0.00000000       0.84649563       0.27579302       0.26137516
H        0.00000000       0.00000000       0.00000000       1.35536039       0.40173516       0.31992593
H        0.00000000       0.00000000       0.00000000       0.35082951       0.05166237       0.63415027
7
Lattice="529.1772105638412 0.0 0.0 0.0 529.1772105638412 0.0 0.0 0.0 529.1772105638412" Properties=species:S:1:pos:R:3:forces_component_raw:R:3 ipi_comment="Step:        3880  Bead:       0 forces_component_raw{ase}  cell{ase}" pbc="T T T"
O        0.00000000       0.00000000       0.00000000       0.48327461      -0.66282082       2.26225663
H        0.00000000       0.00000000       0.00000000      -0.77533931      -0.22506684      -1.73459757
H        0.00000000       0.00000000       0.00000000       0.52433419       0.39477608      -0.25486061
O        0.00000000       0.00000000       0.00000000      -0.18251854      -0.38514733       0.77827776
H        0.00000000       0.00000000       0.00000000      -0.47882503      -0.08446921      -0.32923126
H        0.00000000       0.00000000       0.00000000       1.13874352       0.77326989       0.33821228
H        0.00000000       0.00000000       0.00000000      -0.70966935       0.18945822      -1.06005764
7
Lattice="529.1772105638412 0.0 0.0 0.0 529.1772105638412 0.0 0.0 0.0 529.1772105638412" Properties=species:S:1:pos:R:3:forces_component_raw:R:3 ipi_comment="Step:        3900  Bead:       0 forces_component_raw{ase}  cell{ase}" pbc="T T T"
O        0.00000000       0.00000000       0.00000000       0.66634739       0.85264218      -0.02202356
H        0.00000000       0.00000000       0.00000000      -0.69448996      -0.47940546       0.02528968
H        0.00000000       0.00000000       0.00000000      -0.21322173       0.00922075      -0.37742922
O        0.00000000       0.00000000       0.00000000      -0.11034453      -1.84726954       1.69205451
H        0.00000000       0.00000000       0.00000000       0.30134645      -0.08202052       0.32705376
H        0.00000000       0.00000000       0.00000000       0.83654934       1.00302232      -0.07118981
H        0.00000000       0.00000000       0.00000000      -0.78618670       0.54381043      -1.57375539
7
Lattice="529.1772105638412 0.0 0.0 0.0 529.1772105638412 0.0 0.0 0.0 529.1772105638412" Properties=species:S:1:pos:R:3:forces_component_raw:R:3 ipi_comment="Step:        3920  Bead:       0 forces_component_raw{ase}  cell{ase}" pbc="T T T"
O        0.00000000       0.00000000       0.00000000      -0.43619040       0.88696784      -0.51450521
H        0.00000000       0.00000000       0.00000000       0.30520579       0.28734395       0.10576737
H        0.00000000       0.00000000       0.00000000       0.07950275       0.00632588       0.35833645
O        0.00000000       0.00000000       0.00000000      -0.30921751      -1.11008847       1.11311913
H        0.00000000       0.00000000       0.00000000       0.50464314      -0.20697662      -0.26641327
H        0.00000000       0.00000000       0.00000000       1.08996487       0.21542531       0.54573774
H        0.00000000       0.00000000       0.00000000      -1.23390854      -0.07899779      -1.34204221
7
Lattice="529.1772105638412 0.0 0.0 0.0 529.1772105638412 0.0 0.0 0.0 529.1772105638412" Properties=species:S:1:pos:R:3:forces_component_raw:R:3 ipi_comment="Step:        3940  Bead:       0 forces_component_raw{ase}  cell{ase}" pbc="T T T"
O        0.00000000       0.00000000       0.00000000      -1.34378100      -0.45005944      -1.64567590
H        0.00000000       0.00000000       0.00000000       1.31197262       0.82232309       1.00079727
H        0.00000000       0.00000000       0.00000000       0.17350684      -0.02517744       0.51169253
O        0.00000000       0.00000000       0.00000000       0.13117489      -2.34563852       1.89053059
H        0.00000000       0.00000000       0.00000000      -0.14592393       0.17743877       0.25624192
H        0.00000000       0.00000000       0.00000000      -0.00509542       0.47730485      -0.38187197
H        0.00000000       0.00000000       0.00000000      -0.12185410       1.34380865      -1.63171435
7
Lattice="529.1772105638412 0.0 0.0 0.0 529.1772105638412 0.0 0.0 0.0 529.1772105638412" Properties=species:S:1:pos:R:3:forces_component_raw:R:3 ipi_comment="Step:        3960  Bead:       0 forces_component_raw{ase}  cell{ase}" pbc="T T T"
O        0.00000000       0.00000000       0.00000000      -1.28093756      -0.90176511      -1.39316583
H        0.00000000       0.00000000       0.00000000       1.47586990       0.68398369       1.47593415
H        0.00000000       0.00000000       0.00000000      -0.19601016      -0.37283489      -0.00380844
O        0.00000000       0.00000000       0.00000000       1.76022983      -0.01461250       0.60647178
H        0.00000000       0.00000000       0.00000000      -0.30646107      -0.19794245       0.11440817
H        0.00000000       0.00000000       0.00000000      -0.35939315      -0.53671569       0.43705583
H        0.00000000       0.00000000       0.00000000      -1.09329760       1.33988679      -1.23689580
7
Lattice="529.1772105638412 0.0 0.0 0.0 529.1772105638412 0.0 0.0 0.0 529.1772105638412" Properties=species:S:1:pos:R:3:forces_component_raw:R:3 ipi_comment="Step:        3980  Bead:       0 forces_component_raw{ase}  cell{ase}" pbc="T T T"
O        0.00000000       0.00000000       0.00000000      -1.49935150      -1.17124760      -1.09387422
H        0.00000000       0.00000000       0.00000000       1.20458114       0.57348305       0.67025590
H        0.00000000       0.00000000       0.00000000       0.18108588      -0.01760408       0.34638023
O        0.00000000       0.00000000       0.00000000      -0.47888300      -1.17180205       0.38579786
H        0.00000000       0.00000000       0.00000000       0.15752597       0.40804780       0.38984609
H        0.00000000       0.00000000       0.00000000      -0.10368407       0.36098379      -0.21140561
H        0.00000000       0.00000000       0.00000000       0.53872550       1.01813913      -0.48700035
7
Lattice="529.1772105638412 0.0 0.0 0.0 529.1772105638412 0.0 0.0 0.0 529.1772105638412" Properties=species:S:1:pos:R:3:forces_component_raw:R:3 ipi_comment="Step:        4000  Bead:       0 forces_component_raw{ase}  cell{ase}" pbc="T T T"
O        0.00000000       0.00000000       0.00000000      -0.14281844       0.15710557       0.19348119
H        0.00000000       0.00000000       0.00000000       0.31731209      -0.11371965       0.48967731
H        0.00000000       0.00000000       0.00000000      -0.15454951       0.02251314      -0.63910782
O        0.00000000       0.00000000       0.00000000       0.62907320       0.76538539       0.05666405
H        0.00000000       0.00000000       0.00000000      -0.26358980      -0.36679149      -0.30773181
H        0.00000000       0.00000000       0.00000000       0.11619294      -0.49649710       0.17772913
H        0.00000000       0.00000000       0.00000000      -0.50162053       0.03200421       0.02928778
7
Lattice="529.1772105638412 0.0 0.0 0.0 529.1772105638412 0.0 0.0 0.0 529.1772105638412" Properties=species:S:1:pos:R:3:forces_component_raw:R:3 ipi_comment="Step:        4020  Bead:       0 forces_component_raw{ase}  cell{ase}" pbc="T T T"
O        0.00000000       0.00000000       0.00000000       0.12270781      -0.12077891       1.70009566
H        0.00000000       0.00000000       0.00000000      -0.49507219      -0.03367831      -0.71162743
H        0.00000000       0.00000000       0.00000000       0.59064299       0.56931162      -1.11336851
O        0.00000000       0.00000000       0.00000000      -1.26520789      -0.27142876       0.08640856
H        0.00000000       0.00000000       0.00000000       0.29884473       0.55630338       0.04008189
H        0.00000000       0.00000000       0.00000000      -0.32106972       0.38963983      -0.19085847
H        0.00000000       0.00000000       0.00000000       1.06915438      -1.08936882       0.18926819
7
Lattice="529.1772105638412 0.0 0.0 0.0 529.1772105638412 0.0 0.0 0.0 529.1772105638412" Properties=species:S:1:pos:R:3:forces_component_raw:R:3 ipi_comment="Step:        4040  Bead:       0 forces_component_raw{ase}  cell{ase}" pbc="T T T"
O        0.00000000       0.00000000       0.00000000       1.56734825       0.52200544       1.37612319
H        0.00000000       0.00000000       0.00000000      -1.12191165       0.02448121      -0.36052927
H        0.00000000       0.00000000       0.00000000      -0.11488697       0.14206958      -0.88352859
O        0.00000000       0.00000000       0.00000000      -1.32075167       2.39899016      -0.45222446
H        0.00000000       0.00000000       0.00000000      -0.10463727      -0.36132115      -0.27576596
H        0.00000000       0.00000000       0.00000000       0.12352067      -0.49329406       0.08931045
H        0.00000000       0.00000000       0.00000000       0.97131860      -2.23293114       0.50661457
7
Lattice="529.1772105638412 0.0 0.0 0.0 529.1772105638412 0.0 0.0 0.0 529.1772105638412" Properties=species:S:1:pos:R:3:forces_component_raw:R:3 ipi_comment="Step:        4060  Bead:       0 forces_component_raw{ase}  cell{ase}" pbc="T T T"
O        0.00000000       0.00000000       0.00000000       0.19153546      -0.62093246       0.45402351
H        0.00000000       0.00000000       0.00000000      -0.59071696       0.28628796      -1.07320786
H        0.00000000       0.00000000       0.00000000       0.16995433       0.01190732       0.36436695
O        0.00000000       0.00000000       0.00000000      -1.16924835       0.51328033       0.15203521
H        0.00000000       0.00000000       0.00000000       0.30517694       0.43316364       0.58163452
H        0.00000000       0.00000000       0.00000000       0.12375033       0.61456430      -0.09354687
H        0.00000000       0.00000000       0.00000000       0.96954823      -1.23827124      -0.38530561
7
Lattice="529.1772105638412 0.0 0.0 0.0 529.1772105638412 0.0 0.0 0.0 529.1772105638412" Properties=species:S:1:pos:R:3:forces_component_raw:R:3 ipi_comment="Step:        4080  Bead:       0 forces_component_raw{ase}  cell{ase}" pbc="T T T"
O        0.00000000       0.00000000       0.00000000       1.15313864       0.61244953       0.56975120
H        0.00000000       0.00000000       0.00000000      -0.68358421      -0.17066616      -0.40619421
H        0.00000000       0.00000000       0.00000000      -0.73161537      -0.78245878       0.23684539
O        0.00000000       0.00000000       0.00000000       1.14318192       1.08641458      -0.48617345
H        0.00000000       0.00000000       0.00000000      -0.16690110      -0.28108725      -0.48969260
H        0.00000000       0.00000000       0.00000000      -0.44487661      -0.37106717       0.34854570
H        0.00000000       0.00000000       0.00000000      -0.26934338      -0.09358481       0.22691792
7
Lattice="529.1772105638412 0.0 0.0 0.0 529.1772105638412 0.0 0.0 0.0 529.1772105638412" Properties=species:S:1:pos:R:3:forces_component_raw:R:3 ipi_comment="Step:        4100  Bead:       0 forces_component_raw{ase}  cell{ase}" pbc="T T T"
O        0.00000000       0.00000000       0.00000000      -1.12866056       0.28656316      -1.98625601
H        0.00000000       0.00000000       0.00000000       0.41724247       0.09290476       0.10094845
H        0.00000000       0.00000000       0.00000000       0.23747277      -0.72367251       1.52791810
O        0.00000000       0.00000000       0.00000000       1.54906047      -1.45694077      -1.28604961
H        0.00000000       0.00000000       0.00000000       0.22683838       0.05187213       0.56406886
H        0.00000000       0.00000000       0.00000000      -1.10354245       0.28059083       0.83815998
H        0.00000000       0.00000000       0.00000000      -0.19841099       1.46868241       0.24121006
7
Lattice="529.1772105638412 0.0 0.0 0.0 529.1772105638412 0.0 0.0 0.0 529.1772105638412" Properties=species:S:1:pos:R:3:forces_component_raw:R:3 ipi_comment="Step:        4120  Bead:       0 forces_component_raw{ase}  cell{ase}" pbc="T T T"
O        0.00000000       0.00000000       0.00000000      -0.25244221       0.66170347      -0.74236071
H        0.00000000       0.00000000       0.00000000       0.54869360       0.04252647       0.44406051
H        0.00000000       0.00000000       0.00000000      -0.10126086      -0.84376478       0.71450418
O        0.00000000       0.00000000       0.00000000       1.53181076      -1.70765043      -0.31183243
H        0.00000000       0.00000000       0.00000000      -0.40691674       0.36621878      -0.79383552
H        0.00000000       0.00000000       0.00000000      -0.33356637      -0.30400723       0.28703606
H        0.00000000       0.00000000       0.00000000      -0.98631817       1.78497386       0.40242785
7
Lattice="529.1772105638412 0.0 0.0 0.0 529.1772105638412 0.0 0.0 0.0 529.1772105638412" Properties=species:S:1:pos:R:3:forces_component_raw:R:3 ipi_comment="Step:        4140  Bead:       0 forces_component_raw{ase}  cell{ase}" pbc="T T T"
O        0.00000000       0.00000000       0.00000000      -0.53711760       1.29114187      -0.63981515
H        0.00000000       0.00000000       0.00000000       0.39701104      -0.20561853       0.13245294
H        0.00000000       0.00000000       0.00000000       0.44791702       0.15214826       0.23785114
O        0.00000000       0.00000000       0.00000000      -0.23714688      -2.15796900       0.05111426
H        0.00000000       0.00000000       0.00000000       0.24916722      -0.75532222       0.48453039
H        0.00000000       0.00000000       0.00000000       0.10353369       0.09988228      -0.10692313
H        0.00000000       0.00000000       0.00000000      -0.42336458       1.57573748      -0.15921046
7
Lattice="529.1772105638412 0.0 0.0 0.0 529.1772105638412 0.0 0.0 0.0 529.1772105638412" Properties=species:S:1:pos:R:3:forces_component_raw:R:3 ipi_comment="Step:        4160  Bead:       0 forces_component_raw{ase}  cell{ase}" pbc="T T T"
O        0.00000000       0.00000000       0.00000000       0.57769323      -0.51384437       0.51289255
H        0.00000000       0.00000000       0.00000000      -0.32996264       0.30226669      -0.18276757
H        0.00000000       0.00000000       0.00000000       0.14155221       0.05535513      -0.17133451
O        0.00000000       0.00000000       0.00000000       0.28557360      -0.42472175       0.70692384
H        0.00000000       0.00000000       0.00000000      -0.73685002       0.59540528      -0.26667118
H        0.00000000       0.00000000       0.00000000       0.59400416      -0.24994317      -0.54453540
H        0.00000000       0.00000000       0.00000000      -0.53201074       0.23548228      -0.05450769
7
Lattice="529.1772105638412 0.0 0.0 0.0 529.1772105638412 0.0 0.0 0.0 529.1772105638412" Properties=species:S:1:pos:R:3:forces_component_raw:R:3 ipi_comment="Step:        4180  Bead:       0 forces_component_raw{ase}  cell{ase}" pbc="T T T"
O        0.00000000       0.00000000       0.00000000       0.08354259      -0.50567025      -0.10337697
H        0.00000000       0.00000000       0.00000000      -0.33223012      -0.06075698       0.08748612
H        0.00000000       0.00000000       0.00000000      -0.22443940       0.31346601      -0.14876536
O        0.00000000       0.00000000       0.00000000      -1.35074687       0.16078472       0.84934843
H        0.00000000       0.00000000       0.00000000       0.77988553      -0.36796910       0.08896664
H        0.00000000       0.00000000       0.00000000       0.65290666      -0.03472775      -0.72224146
H        0.00000000       0.00000000       0.00000000       0.39108166       0.49487326      -0.05141741
7
Lattice="529.1772105638412 0.0 0.0 0.0 529.1772105638412 0.0 0.0 0.0 529.1772105638412" Properties=species:S:1:pos:R:3:forces_component_raw:R:3 ipi_comment="Step:        4200  Bead:       0 forces_component_raw{ase}  cell{ase}" pbc="T T T"
O        0.00000000       0.00000000       0.00000000      -0.10154262      -1.59140659      -0.46148759
H        0.00000000       0.00000000       0.00000000       0.22466604       0.60904169       0.27337420
H        0.00000000       0.00000000       0.00000000      -0.21954702      -0.05266091      -0.22317256
O        0.00000000       0.00000000       0.00000000       0.12637125       0.95972634       0.43150839
H        0.00000000       0.00000000       0.00000000      -0.65169323       0.35749823       0.39996037
H        0.00000000       0.00000000       0.00000000       0.93922699      -0.19566834      -0.56120169
H        0.00000000       0.00000000       0.00000000      -0.31748134      -0.08653049       0.14101881
7
Lattice="529.1772105638412 0.0 0.0 0.0 529.1772105638412 0.0 0.0 0.0 529.1772105638412" Properties=species:S:1:pos:R:3:forces_component_raw:R:3 ipi_comment="Step:        4220  Bead:       0 forces_component_raw{ase}  cell{ase}" pbc="T T T"
O        0.00000000       0.00000000       0.00000000      -0.07129335       0.98562646      -0.35106132
H        0.00000000       0.00000000       0.00000000      -0.43416631      -0.26352936       0.15189281
H        0.00000000       0.00000000       0.00000000      -0.22922753      -0.59819019       0.36826408
O        0.00000000       0.00000000       0.00000000      -0.20941493       0.28531912       0.69537586
H        0.00000000       0.00000000       0.00000000       0.70096016      -0.73765397      -0.50778258
H        0.00000000       0.00000000       0.00000000      -0.18555212       0.36986294      -0.11712098
H        0.00000000       0.00000000       0.00000000       0.42869401      -0.04143506      -0.23956779
7
Lattice="529.1772105638412 0.0 0.0 0.0 529.1772105638412 0.0 0.0 0.0 529.1772105638412" Properties=species:S:1:pos:R:3:forces_component_raw:R:3 ipi_comment="Step:        4240  Bead:       0 forces_component_raw{ase}  cell{ase}" pbc="T T T"
O        0.00000000       0.00000000       0.00000000      -1.08385051       0.27274513      -0.41465038
H        0.00000000       0.00000000       0.00000000       0.65136922       0.20753500      -0.15083556
H        0.00000000       0.00000000       0.00000000       0.34589467      -0.93612355       0.28363583
O        0.00000000       0.00000000       0.00000000       2.05074048       0.21531048      -0.71608961
H        0.00000000       0.00000000       0.00000000      -0.56899268       0.58319974       0.34547424
H        0.00000000       0.00000000       0.00000000      -0.75452948      -0.14354485       0.67077196
H        0.00000000       0.00000000       0.00000000      -0.64063162      -0.19912212      -0.01830649
7
Lattice="529.1772105638412 0.0 0.0 0.0 529.1772105638412 0.0 0.0 0.0 529.1772105638412" Properties=species:S:1:pos:R:3:forces_component_raw:R:3 ipi_comment="Step:        4260  Bead:       0 forces_component_raw{ase}  cell{ase}" pbc="T T T"
O        0.00000000       0.00000000       0.00000000      -1.32855392       1.92980862      -0.07814515
H        0.00000000       0.00000000       0.00000000       0.81514192      -0.54398698      -0.20461403
H        0.00000000       0.00000000       0.00000000       0.25990686      -1.16974759       0.60952079
O        0.00000000       0.00000000       0.00000000      -0.36263007       0.08700812       0.08858854
H        0.00000000       0.00000000       0.00000000       0.85044682      -0.13877329      -0.62831938
H        0.00000000       0.00000000       0.00000000      -0.59898144       0.02778906       0.26707020
H        0.00000000       0.00000000       0.00000000       0.36466980      -0.19209802      -0.05410093
7
Lattice="529.1772105638412 0.0 0.0 0.0 529.1772105638412 0.0 0.0 0.0 529.1772105638412" Properties=species:S:1:pos:R:3:forces_component_raw:R:3 ipi_comment="Step:        4280  Bead:       0 forces_component_raw{ase}  cell{ase}" pbc="T T T"
O        0.00000000       0.00000000       0.00000000       0.84628087       0.76099098       0.24815780
H        0.00000000       0.00000000       0.00000000      -0.36741519       0.35098946       0.02659558
H        0.00000000       0.00000000       0.00000000       0.52433044      -0.65195251       0.02051526
O        0.00000000       0.00000000       0.00000000       0.41866979      -0.26811704      -0.60423637
H        0.00000000       0.00000000       0.00000000      -0.66594094       0.30011162       0.01061134
H        0.00000000       0.00000000       0.00000000      -0.31695452      -0.31348652       0.20567207
H        0.00000000       0.00000000       0.00000000      -0.43897045      -0.17853582       0.09268427
7
Lattice="529.1772105638412 0.0 0.0 0.0 529.1772105638412 0.0 0.0 0.0 529.1772105638412" Properties=species:S:1:pos:R:3:forces_component_raw:R:3 ipi_comment="Step:        4300  Bead:       0 forces_component_raw{ase}  cell{ase}" pbc="T T T"
O        0.00000000       0.00000000       0.00000000       1.36327994       0.96676505      -0.15726146
H        0.00000000       0.00000000       0.00000000      -1.03837455      -0.03133187       0.09905465
H        0.00000000       0.00000000       0.00000000       0.23276797      -0.29616827       0.15511480
O        0.00000000       0.00000000       0.00000000      -2.57435370      -1.22076738      -0.19802755
H        0.00000000       0.00000000       0.00000000       0.63144326       0.10230604       0.33746034
H        0.00000000       0.00000000       0.00000000       0.86674154       0.07122618      -0.31443381
H        0.00000000       0.00000000       0.00000000       0.51849544       0.40797025       0.07809302
7
Lattice="529.1772105638412 0.0 0.0 0.0 529.1772105638412 0.0 0.0 0.0 529.1772105638412" Properties=species:S:1:pos:R:3:forces_component_raw:R:3 ipi_comment="Step:        4320  Bead:       0 forces_component_raw{ase}  cell{ase}" pbc="T T T"
O        0.00000000       0.00000000       0.00000000       1.04290629      -1.13047457      -0.10271081
H        0.00000000       0.00000000       0.00000000      -1.28587926       0.59651214       0.04206593
H        0.00000000       0.00000000       0.00000000       0.13689095       0.05641934      -0.14240173
O        0.00000000       0.00000000       0.00000000       0.11179454       0.62703824       0.67095471
H        0.00000000       0.00000000       0.00000000      -0.24598795       0.31130371       0.02864817
H        0.00000000       0.00000000       0.00000000       0.51794911      -0.84670353      -1.00749564
H        0.00000000       0.00000000       0.00000000      -0.27767372       0.38590443       0.51093960
7
Lattice="529.1772105638412 0.0 0.0 0.0 529.1772105638412 0.0 0.0 0.0 529.1772105638412" Properties=species:S:1:pos:R:3:forces_component_raw:R:3 ipi_comment="Step:        4340  Bead:       0 forces_component_raw{ase}  cell{ase}" pbc="T T T"
O        0.00000000       0.00000000       0.00000000      -0.07508975      -0.43051216       0.03350386
H        0.00000000       0.00000000       0.00000000      -0.88512260       0.34705120      -0.24668942
H        0.00000000       0.00000000       0.00000000       0.19649062       0.04847112      -0.03205839
O        0.00000000       0.00000000       0.00000000      -0.63627136       0.09806445       0.19686692
H        0.00000000       0.00000000       0.00000000       0.33613345      -0.42860296      -0.01202488
H        0.00000000       0.00000000       0.00000000       0.51204687       0.20691124       0.14056528
H        0.00000000       0.00000000       0.00000000       0.55181277       0.15861701      -0.08016348
7
Lattice="529.1772105638412 0.0 0.0 0.0 529.1772105638412 0.0 0.0 0.0 529.1772105638412" Properties=species:S:1:pos:R:3:forces_component_raw:R:3 ipi_comment="Step:        4360  Bead:       0 forces_component_raw{ase}  cell{ase}" pbc="T T T"
O        0.00000000       0.00000000       0.00000000      -1.39525485      -1.70649648       0.33613706
H        0.00000000       0.00000000       0.00000000       0.20373204       0.30603835      -0.00015497
H        0.00000000       0.00000000       0.00000000       0.23167890       0.49168301      -0.56199771
O        0.00000000       0.00000000       0.00000000       2.24408150       0.63097048      -0.18045704
H        0.00000000       0.00000000       0.00000000      -0.02589272       0.38679108       0.18180603
H        0.00000000       0.00000000       0.00000000      -0.62275469      -0.03692423       0.00695002
H        0.00000000       0.00000000       0.00000000      -0.63559020      -0.07206216       0.21771674
7
Lattice="529.1772105638412 0.0 0.0 0.0 529.1772105638412 0.0 0.0 0.0 529.1772105638412" Properties=species:S:1:pos:R:3:forces_component_raw:R:3 ipi_comment="Step:        4380  Bead:       0 forces_component_raw{ase}  cell{ase}" pbc="T T T"
O        0.00000000       0.00000000       0.00000000      -1.18894947       0.12872557       0.30267325
H        0.00000000       0.00000000       0.00000000       0.53632701      -1.23872674       0.62130863
H        0.00000000       0.00000000       0.00000000      -0.05928309       0.93705648      -0.87453324
O        0.00000000       0.00000000       0.00000000       1.19715691       0.06825992      -1.00379598
H        0.00000000       0.00000000       0.00000000       0.07991350      -0.25860804      -0.12241386
H        0.00000000       0.00000000       0.00000000      -0.94470191       0.25736976       0.87727308
H        0.00000000       0.00000000       0.00000000       0.37953717       0.10592308       0.19948816
7
Lattice="529.1772105638412 0.0 0.0 0.0 529.1772105638412 0.0 0.0 0.0 529.1772105638412" Properties=species:S:1:pos:R:3:forces_component_raw:R:3 ipi_comment="Step:        4400  Bead:       0 forces_component_raw{ase}  cell{ase}" pbc="T T T"
O        0.00000000       0.00000000       0.00000000      -3.01131154       0.46185926      -0.39678112
H        0.00000000       0.00000000       0.00000000       1.80906177      -1.19963289       0.57718003
H        0.00000000       0.00000000       0.00000000       0.77912575       0.35938379      -0.43252099
O        0.00000000       0.00000000       0.00000000       1.88961626       0.11860423      -0.40714887
H        0.00000000       0.00000000       0.00000000      -0.10016720       0.16723751       0.26915228
H        0.00000000       0.00000000       0.00000000      -0.81640417       0.15100175       0.10787869
H        0.00000000       0.00000000       0.00000000      -0.54992068      -0.05845366       0.28223991
7
Lattice="529.1772105638412 0.0 0.0 0.0 529.1772105638412 0.0 0.0 0.0 529.1772105638412" Properties=species:S:1:pos:R:3:forces_component_raw:R:3 ipi_comment="Step:        4420  Bead:       0 forces_component_raw{ase}  cell{ase}" pbc="T T T"
O        0.00000000       0.00000000       0.00000000      -0.46554309       0.52672011      -0.06500924
H        0.00000000       0.00000000       0.00000000       0.76044220      -1.15234137       1.11490739
H        0.00000000       0.00000000       0.00000000      -0.04775998       0.97129250      -0.90945089
O        0.00000000       0.00000000       0.00000000      -1.07410169      -0.59944320       0.84245306
H        0.00000000       0.00000000       0.00000000       1.11480212       0.27120847      -0.12761912
H        0.00000000       0.00000000       0.00000000      -0.28992665      -0.05198923       0.05425322
H        0.00000000       0.00000000       0.00000000       0.00208718       0.03455266      -0.90953446
7
Lattice="529.1772105638412 0.0 0.0 0.0 529.1772105638412 0.0 0.0 0.0 529.1772105638412" Properties=species:S:1:pos:R:3:forces_component_raw:R:3 ipi_comment="Step:        4440  Bead:       0 forces_component_raw{ase}  cell{ase}" pbc="T T T"
O        0.00000000       0.00000000       0.00000000      -0.69726914      -0.70112932       0.66327650
H        0.00000000       0.00000000       0.00000000       0.39095649       0.21636713      -0.24177319
H        0.00000000       0.00000000       0.00000000       1.10036159       0.80306447      -0.48033893
O        0.00000000       0.00000000       0.00000000      -0.62181485       0.24824676       1.03424072
H        0.00000000       0.00000000       0.00000000      -0.71986115      -0.03736722       0.42896780
H        0.00000000       0.00000000       0.00000000       0.84029722      -0.37714630      -0.40555719
H        0.00000000       0.00000000       0.00000000      -0.29267013      -0.15203536      -0.99881548
7
Lattice="529.1772105638412 0.0 0.0 0.0 529.1772105638412 0.0 0.0 0.0 529.1772105638412" Properties=species:S:1:pos:R:3:forces_component_raw:R:3 ipi_comment="Step:        4460  Bead:       0 forces_component_raw{ase}  cell{ase}" pbc="T T T"
O        0.00000000       0.00000000       0.00000000       1.07390428      -0.20583256       0.84528411
H        0.00000000       0.00000000       0.00000000      -0.71069944       0.01761264      -0.44244093
H        0.00000000       0.00000000       0.00000000      -0.31953341       0.21240139      -0.33147064
O        0.00000000       0.00000000       0.00000000      -0.53193319       0.74810505       2.77236939
H        0.00000000       0.00000000       0.00000000       0.42909855      -0.11880209      -0.47556383
H        0.00000000       0.00000000       0.00000000       0.42601448      -0.80125058      -1.05833686
H        0.00000000       0.00000000       0.00000000      -0.36685127       0.14776610      -1.30984128
7
Lattice="529.1772105638412 0.0 0.0 0.0 529.1772105638412 0.0 0.0 0.0 529.1772105638412" Properties=species:S:1:pos:R:3:forces_component_raw:R:3 ipi_comment="Step:        4480  Bead:       0 forces_component_raw{ase}  cell{ase}" pbc="T T T"
O        0.00000000       0.00000000       0.00000000       0.22285056       0.17565875      -0.02112602
H        0.00000000       0.00000000       0.00000000      -0.34070286       1.18346751      -0.63615751
H        0.00000000       0.00000000       0.00000000      -0.25960705      -1.49569929       0.17609531
O        0.00000000       0.00000000       0.00000000      -0.80525124       0.38388985      -0.13875264
H        0.00000000       0.00000000       0.00000000      -0.06033040       0.13359234       1.04670406
H        0.00000000       0.00000000       0.00000000       1.11342645      -0.14822656      -0.03974938
H        0.00000000       0.00000000       0.00000000       0.12961462      -0.23268260      -0.38701385
7
Lattice="529.1772105638412 0.0 0.0 0.0 529.1772105638412 0.0 0.0 0.0 529.1772105638412" Properties=species:S:1:pos:R:3:forces_component_raw:R:3 ipi_comment="Step:        4500  Bead:       0 forces_component_raw{ase}  cell{ase}" pbc="T T T"
O        0.00000000       0.00000000       0.00000000       1.24917090       0.03983763       1.40023208
H        0.00000000       0.00000000       0.00000000      -0.82866824       1.11176467      -0.91885042
H        0.00000000       0.00000000       0.00000000      -0.89918208      -1.57904947      -0.45015925
O        0.00000000       0.00000000       0.00000000       0.94343174       0.30355156       0.81810004
H        0.00000000       0.00000000       0.00000000       0.05284619      -0.00722016      -0.69478542
H        0.00000000       0.00000000       0.00000000      -0.24097642      -0.31498039      -0.64892280
H        0.00000000       0.00000000       0.00000000      -0.27662209       0.44609606       0.49438584
7
Lattice="529.1772105638412 0.0 0.0 0.0 529.1772105638412 0.0 0.0 0.0 529.1772105638412" Properties=species:S:1:pos:R:3:forces_component_raw:R:3 ipi_comment="Step:        4520  Bead:       0 forces_component_raw{ase}  cell{ase}" pbc="T T T"
O        0.00000000       0.00000000       0.00000000       0.31531537       0.65999806       1.16328299
H        0.00000000       0.00000000       0.00000000      -0.93020594       1.00491429      -0.65778649
H        0.00000000       0.00000000       0.00000000       0.14922448      -1.36583197      -0.51383257
O        0.00000000       0.00000000       0.00000000       0.81825292      -1.28170574      -1.89634300
H        0.00000000       0.00000000       0.00000000       0.23921666      -0.39099220      -0.18064363
H        0.00000000       0.00000000       0.00000000      -1.20658922       0.89310301       0.71901935
H        0.00000000       0.00000000       0.00000000       0.61478579       0.48051435       1.36630345
7
Lattice="529.1772105638412 0.0 0.0 0.0 529.1772105638412 0.0 0.0 0.0 529.1772105638412" Properties=species:S:1:pos:R:3:forces_component_raw:R:3 ipi_comment="Step:        4540  Bead:       0 forces_component_raw{ase}  cell{ase}" pbc="T T T"
O        0.00000000       0.00000000       0.00000000      -0.25753057       0.19314349       0.26766011
H        0.00000000       0.00000000       0.00000000       0.00062600       0.29358894       0.00755684
H        0.00000000       0.00000000       0.00000000       0.32018837      -0.44638270      -0.23438397
O        0.00000000       0.00000000       0.00000000       3.49963332      -2.07016826      -1.17726302
H        0.00000000       0.00000000       0.00000000      -0.39334905       0.21245676       0.31525102
H        0.00000000       0.00000000       0.00000000      -2.15836716       1.01369834      -0.17681950
H        0.00000000       0.00000000       0.00000000      -1.01120115       0.80366361       0.99799836
7
Lattice="529.1772105638412 0.0 0.0 0.0 529.1772105638412 0.0 0.0 0.0 529.1772105638412" Properties=species:S:1:pos:R:3:forces_component_raw:R:3 ipi_comment="Step:        4560  Bead:       0 forces_component_raw{ase}  cell{ase}" pbc="T T T"
O        0.00000000       0.00000000       0.00000000      -0.46580073       0.19342755       0.23070796
H        0.00000000       0.00000000       0.00000000       0.11191481      -0.27850086      -0.09404936
H        0.00000000       0.00000000       0.00000000       0.14314804       0.31712428      -0.01101446
O        0.00000000       0.00000000       0.00000000      -0.14475292      -1.22192884      -0.80734158
H        0.00000000       0.00000000       0.00000000       0.61878365      -0.27127728      -0.19647026
H        0.00000000       0.00000000       0.00000000      -1.02215827       1.13451994       0.43370688
H        0.00000000       0.00000000       0.00000000       0.75886583       0.12663522       0.44446075
7
Lattice="529.1772105638412 0.0 0.0 0.0 529.1772105638412 0.0 0.0 0.0 529.1772105638412" Properties=species:S:1:pos:R:3:forces_component_raw:R:3 ipi_comment="Step:        4580  Bead:       0 forces_component_raw{ase}  cell{ase}" pbc="T T T"
O        0.00000000       0.00000000       0.00000000      -0.37592354      -0.25419641      -0.96578640
H        0.00000000       0.00000000       0.00000000       0.82674694      -0.48996842       0.49115166
H        0.00000000       0.00000000       0.00000000       0.02595992       0.42412296       0.41410816
O        0.00000000       0.00000000       0.00000000       0.63772953       1.37956798       1.77961827
H        0.00000000       0.00000000       0.00000000      -0.36419454       0.20361181       0.13386868
H        0.00000000       0.00000000       0.00000000      -0.20900255      -0.64496708      -0.57148492
H        0.00000000       0.00000000       0.00000000      -0.54131574      -0.61817080      -1.28147555
7
Lattice="529.1772105638412 0.0 0.0 0.0 529.1772105638412 0.0 0.0 0.0 529.1772105638412" Properties=species:S:1:pos:R:3:forces_component_raw:R:3 ipi_comment="Step:        4600  Bead:       0 forces_component_raw{ase}  cell{ase}" pbc="T T T"
O        0.00000000       0.00000000       0.00000000      -0.60947961       0.29550827      -0.26436839
H        0.00000000       0.00000000       0.00000000       0.67365396      -0.54112280       0.25884244
H        0.00000000       0.00000000       0.00000000      -0.09628171       0.02567536       0.01127847
O        0.00000000       0.00000000       0.00000000      -0.80495793       2.88864709       1.82914949
H        0.00000000       0.00000000       0.00000000       0.27328718       0.05464229      -0.22238182
H        0.00000000       0.00000000       0.00000000       0.42995256      -0.25354022       0.54436243
H        0.00000000       0.00000000       0.00000000       0.13382545      -2.46981001      -2.15688277
7
Lattice="529.1772105638412 0.0 0.0 0.0 529.1772105638412 0.0 0.0 0.0 529.1772105638412" Properties=species:S:1:pos:R:3:forces_component_raw:R:3 ipi_comment="Step:        4620  Bead:       0 forces_component_raw{ase}  cell{ase}" pbc="T T T"
O        0.00000000       0.00000000       0.00000000      -0.01914012       0.49812752       0.02583943
H        0.00000000       0.00000000       0.00000000      -0.07055235      -0.31103975      -0.10757064
H        0.00000000       0.00000000       0.00000000       0.01670173       0.01166070       0.03394815
O        0.00000000       0.00000000       0.00000000       0.59988064       2.02991581       2.16802168
H        0.00000000       0.00000000       0.00000000      -0.17547834      -0.15698764       0.17503001
H        0.00000000       0.00000000       0.00000000      -0.08432444      -0.34631845      -0.30468524
H        0.00000000       0.00000000       0.00000000      -0.26708716      -1.72535801      -1.99058342
7
Lattice="529.1772105638412 0.0 0.0 0.0 529.1772105638412 0.0 0.0 0.0 529.1772105638412" Properties=species:S:1:pos:R:3:forces_component_raw:R:3 ipi_comment="Step:        4640  Bead:       0 forces_component_raw{ase}  cell{ase}" pbc="T T T"
O        0.00000000       0.00000000       0.00000000       0.67219913       0.33752915      -0.17419028
H        0.00000000       0.00000000       0.00000000      -1.07361078       0.26377434      -0.21165136
H        0.00000000       0.00000000       0.00000000       0.18565853      -0.28466895       0.25311801
O        0.00000000       0.00000000       0.00000000      -0.46021915      -1.04008675      -0.59148365
H        0.00000000       0.00000000       0.00000000       0.52936506       0.03749128       0.23524770
H        0.00000000       0.00000000       0.00000000      -0.27403063       1.12729979       0.25097585
H        0.00000000       0.00000000       0.00000000       0.42063773      -0.44133878       0.23798367
7
Lattice="529.1772105638412 0.0 0.0 0.0 529.1772105638412 0.0 0.0 0.0 529.1772105638412" Properties=species:S:1:pos:R:3:forces_component_raw:R:3 ipi_comment="Step:        4660  Bead:       0 forces_component_raw{ase}  cell{ase}" pbc="T T T"
O        0.00000000       0.00000000       0.00000000       1.21415651      -0.29980648      -0.16846204
H        0.00000000       0.00000000       0.00000000      -1.09657133       1.00171185       0.04449842
H        0.00000000       0.00000000       0.00000000      -0.26406717      -0.97868979       0.07872342
O        0.00000000       0.00000000       0.00000000       1.83136785      -2.24223710       0.26827821
H        0.00000000       0.00000000       0.00000000      -0.29890728       0.27362979      -0.12234002
H        0.00000000       0.00000000       0.00000000      -1.15708351       1.07005763      -0.71839982
H        0.00000000       0.00000000       0.00000000      -0.22889513       1.17533434       0.61770189
7
Lattice="529.1772105638412 0.0 0.0 0.0 529.1772105638412 0.0 0.0 0.0 529.1772105638412" Properties=species:S:1:pos:R:3:forces_component_raw:R:3 ipi_comment="Step:        4680  Bead:       0 forces_component_raw{ase}  cell{ase}" pbc="T T T"
O        0.00000000       0.00000000       0.00000000       0.92721832      -1.00395847      -0.46276367
H        0.00000000       0.00000000       0.00000000      -1.14892948       1.33203864       0.20519666
H        0.00000000       0.00000000       0.00000000      -0.18129571      -0.42995811      -0.01286814
O        0.00000000       0.00000000       0.00000000      -0.60183203      -1.17332816      -1.29999912
H        0.00000000       0.00000000       0.00000000       0.29960200      -0.35222271       0.08412758
H        0.00000000       0.00000000       0.00000000      -0.45379326       0.93586534       0.14118323
H        0.00000000       0.00000000       0.00000000       1.15903008       0.69156373       1.34512341
7
Lattice="529.1772105638412 0.0 0.0 0.0 529.1772105638412 0.0 0.0 0.0 529.1772105638412" Properties=species:S:1:pos:R:3:forces_component_raw:R:3 ipi_comment="Step:        4700  Bead:       0 forces_component_raw{ase}  cell{ase}" pbc="T T T"
O        0.00000000       0.00000000       0.00000000       0.97008127      -0.93726456      -0.08655611
H        0.00000000       0.00000000       0.00000000      -0.42630875       0.99358410       0.21103531
H        0.00000000       0.00000000       0.00000000      -0.34840527      -0.43993884      -0.06528041
O        0.00000000       0.00000000       0.00000000       0.57999087      -0.55707866      -0.20484462
H        0.00000000       0.00000000       0.00000000      -0.43790254       0.29988301      -0.06282040
H        0.00000000       0.00000000       0.00000000      -0.06957868      -0.73712880      -0.33702809
H        0.00000000       0.00000000       0.00000000      -0.26787689       1.37794376       0.54549432
7
Lattice="529.1772105638412 0.0 0.0 0.0 529.1772105638412 0.0 0.0 0.0 529.1772105638412" Properties=species:S:1:pos:R:3:forces_component_raw:R:3 ipi_comment="Step:        4720  Bead:       0 forces_component_raw{ase}  cell{ase}" pbc="T T T"
O        0.00000000       0.00000000       0.00000000       0.30859310       0.75591809       0.02815860
H        0.00000000       0.00000000       0.00000000       0.20518136      -0.36261419       0.13486816
H        0.00000000       0.00000000       0.00000000      -0.14485206      -0.19463655       0.13017431
O        0.00000000       0.00000000       0.00000000      -2.06627942       0.36759567      -1.96905137
H        0.00000000       0.00000000       0.00000000       0.65043640       0.07324824      -0.02718943
H        0.00000000       0.00000000       0.00000000       0.87296564      -0.85033584       1.09837890
H        0.00000000       0.00000000       0.00000000       0.17395504       0.21082485       0.60466069
7
Lattice="529.1772105638412 0.0 0.0 0.0 529.1772105638412 0.0 0.0 0.0 529.1772105638412" Properties=species:S:1:pos:R:3:forces_component_raw:R:3 ipi_comment="Step:        4740  Bead:       0 forces_component_raw{ase}  cell{ase}" pbc="T T T"
O        0.00000000       0.00000000       0.00000000      -1.03117776       0.93786514      -0.39937940
H        0.00000000       0.00000000       0.00000000       0.72753447      -0.79347879       0.47409582
H        0.00000000       0.00000000       0.00000000       0.53737450       0.08403066      -0.03061470
O        0.00000000       0.00000000       0.00000000      -0.41358122       2.33483458       0.22666135
H        0.00000000       0.00000000       0.00000000      -0.41904637      -0.11899557       0.00799345
H        0.00000000       0.00000000       0.00000000       0.94729024      -1.82199383       0.67697674
H        0.00000000       0.00000000       0.00000000      -0.34839389      -0.62226206      -0.95573324
7
Lattice="529.1772105638412 0.0 0.0 0.0 529.1772105638412 0.0 0.0 0.0 529.1772105638412" Properties=species:S:1:pos:R:3:forces_component_raw:R:3 ipi_comment="Step:        4760  Bead:       0 forces_component_raw{ase}  cell{ase}" pbc="T T T"
O        0.00000000       0.00000000       0.00000000      -0.85991216       0.28754520      -0.47308087
H        0.00000000       0.00000000       0.00000000       0.32797718      -0.73747569       0.88340450
H        0.00000000       0.00000000       0.00000000       0.07141139       0.24159609      -0.37835917
O        0.00000000       0.00000000       0.00000000      -1.07690144       2.21390152       0.18134022
H        0.00000000       0.00000000       0.00000000       0.67180103       0.20905560      -0.25149113
H        0.00000000       0.00000000       0.00000000       0.69700986      -0.91458726       0.84804565
H        0.00000000       0.00000000       0.00000000       0.16861436      -1.30003560      -0.80985916
7
Lattice="529.1772105638412 0.0 0.0 0.0 529.1772105638412 0.0 0.0 0.0 529.1772105638412" Properties=species:S:1:pos:R:3:forces_component_raw:R:3 ipi_comment="Step:        4780  Bead:       0 forces_component_raw{ase}  cell{ase}" pbc="T T T"
O        0.00000000       0.00000000       0.00000000      -1.82679713       0.26300371      -1.20607567
H        0.00000000       0.00000000       0.00000000       0.50802529      -0.53738457       0.69097340
H        0.00000000       0.00000000       0.00000000       0.45930863      -0.07247654      -0.01170480
O        0.00000000       0.00000000       0.00000000       2.02684331       0.97334498       1.65116489
H        0.00000000       0.00000000       0.00000000      -0.32911316       0.08439977       0.30479568
H        0.00000000       0.00000000       0.00000000      -0.42482436      -0.22560668      -0.42772749
H        0.00000000       0.00000000       0.00000000      -0.41344270      -0.48528081      -1.00142598
7
Lattice="529.1772105638412 0.0 0.0 0.0 529.1772105638412 0.0 0.0 0.0 529.1772105638412" Properties=species:S:1:pos:R:3:forces_component_raw:R:3 ipi_comment="Step:        4800  Bead:       0 forces_component_raw{ase}  cell{ase}" pbc="T T T"
O        0.00000000       0.00000000       0.00000000      -0.17225942      -0.40573120      -0.01250462
H        0.00000000       0.00000000       0.00000000      -0.45716232       0.15711142      -0.24164918
H        0.00000000       0.00000000       0.00000000      -0.08710474       0.11360619      -0.13473207
O        0.00000000       0.00000000       0.00000000       0.26736707      -0.53383374       0.31977835
H        0.00000000       0.00000000       0.00000000       0.42571527      -0.21903725       0.08486724
H        0.00000000       0.00000000       0.00000000      -0.50421625       1.38010121      -0.06085758
H        0.00000000       0.00000000       0.00000000       0.52766049      -0.49221665       0.04509792
7
Lattice="529.1772105638412 0.0 0.0 0.0 529.1772105638412 0.0 0.0 0.0 529.1772105638412" Properties=species:S:1:pos:R:3:forces_component_raw:R:3 ipi_comment="Step:        4820  Bead:       0 forces_component_raw{ase}  cell{ase}" pbc="T T T"
O        0.00000000       0.00000000       0.00000000      -0.91507465       0.01983127       0.42050850
H        0.00000000       0.00000000       0.00000000       0.24145079       0.01190696      -0.55122328
H        0.00000000       0.00000000       0.00000000       0.26271448      -0.13074128       0.10982651
O        0.00000000       0.00000000       0.00000000       2.23837758      -2.49174572       0.76432610
H        0.00000000       0.00000000       0.00000000       0.10239249       0.14059149      -0.04856787
H        0.00000000       0.00000000       0.00000000      -1.53994716       1.82745266      -0.76071710
H        0.00000000       0.00000000       0.00000000      -0.38991374       0.62270463       0.06584715
7
Lattice="529.1772105638412 0.0 0.0 0.0 529.1772105638412 0.0 0.0 0.0 529.1772105638412" Properties=species:S:1:pos:R:3:forces_component_raw:R:3 ipi_comment="Step:        4840  Bead:       0 forces_component_raw{ase}  cell{ase}" pbc="T T T"
O        0.00000000       0.00000000       0.00000000       2.28189064       0.32806167       0.65314859
H        0.00000000       0.00000000       0.00000000      -0.25730068       0.02586924       0.02895468
H        0.00000000       0.00000000       0.00000000      -0.52504987       0.09690999      -0.12375405
O        0.00000000       0.00000000       0.00000000       0.64936721      -2.66434241      -0.75572610
H        0.00000000       0.00000000       0.00000000      -0.68073231      -0.18319126      -0.24713190
H        0.00000000       0.00000000       0.00000000      -1.94814158       2.77904750       0.02662179
H        0.00000000       0.00000000       0.00000000       0.47996688      -0.38235474       0.41788682
7
Lattice="529.1772105638412 0.0 0.0 0.0 529.1772105638412 0.0 0.0 0.0 529.1772105638412" Properties=species:S:1:pos:R:3:forces_component_raw:R:3 ipi_comment="Step:        4860  Bead:       0 forces_component_raw{ase}  cell{ase}" pbc="T T T"
O        0.00000000       0.00000000       0.00000000       0.23022229       0.51295352      -0.13083510
H        0.00000000       0.00000000       0.00000000       0.50234300      -0.17056160      -0.00792977
H        0.00000000       0.00000000       0.00000000       0.04064264       0.01742314       0.40550804
O        0.00000000       0.00000000       0.00000000       0.70060760      -1.18591714       0.33016145
H        0.00000000       0.00000000       0.00000000       0.70296014      -0.48329628       0.25417113
H        0.00000000       0.00000000       0.00000000      -1.48868513       0.90835530      -0.66084391
H        0.00000000       0.00000000       0.00000000      -0.68809050       0.40104312      -0.19023186
7
Lattice="529.1772105638412 0.0 0.0 0.0 529.1772105638412 0.0 0.0 0.0 529.1772105638412" Properties=species:S:1:pos:R:3:forces_component_raw:R:3 ipi_comment="Step:        4880  Bead:       0 forces_component_raw{ase}  cell{ase}" pbc="T T T"
O        0.00000000       0.00000000       0.00000000       0.28214052      -0.20193023       1.16152287
H        0.00000000       0.00000000       0.00000000      -0.14604381       0.36430577       0.13728279
H        0.00000000       0.00000000       0.00000000       0.43673426      -0.25608033      -0.80750364
O        0.00000000       0.00000000       0.00000000      -1.48775864       0.47841692      -0.61270917
H        0.00000000       0.00000000       0.00000000      -0.29913926       0.43477154      -0.53995967
H        0.00000000       0.00000000       0.00000000       0.72830403      -0.00726074       0.79435253
H        0.00000000       0.00000000       0.00000000       0.48576278      -0.81222296      -0.13298565
7
Lattice="529.1772105638412 0.0 0.0 0.0 529.1772105638412 0.0 0.0 0.0 529.1772105638412" Properties=species:S:1:pos:R:3:forces_component_raw:R:3 ipi_comment="Step:        4900  Bead:       0 forces_component_raw{ase}  cell{ase}" pbc="T T T"
O        0.00000000       0.00000000       0.00000000      -1.78447462       0.28602496       0.68364591
H        0.00000000       0.00000000       0.00000000       0.06322992      -0.08597555      -0.51145643
H        0.00000000       0.00000000       0.00000000       1.05217481      -0.51659960      -0.46625066
O        0.00000000       0.00000000       0.00000000       1.06867290       2.27817560       1.65972877
H        0.00000000       0.00000000       0.00000000      -0.17641130      -0.10428216       0.11300038
H        0.00000000       0.00000000       0.00000000       0.26778999      -2.18327928      -0.94177681
H        0.00000000       0.00000000       0.00000000      -0.49098152       0.32593608      -0.53689134
7
Lattice="529.1772105638412 0.0 0.0 0.0 529.1772105638412 0.0 0.0 0.0 529.1772105638412" Properties=species:S:1:pos:R:3:forces_component_raw:R:3 ipi_comment="Step:        4920  Bead:       0 forces_component_raw{ase}  cell{ase}" pbc="T T T"
O        0.00000000       0.00000000       0.00000000      -0.56726992      -0.15033777       0.58260441
H        0.00000000       0.00000000       0.00000000      -0.38400641       0.10070907      -0.17866987
H        0.00000000       0.00000000       0.00000000       0.40589184      -0.13422538      -0.62283778
O        0.00000000       0.00000000       0.00000000      -2.47479964       2.48194457       0.32173020
H        0.00000000       0.00000000       0.00000000       0.78317106       0.38193923       0.16992521
H        0.00000000       0.00000000       0.00000000       1.85569549      -1.76529205       0.59671843
H        0.00000000       0.00000000       0.00000000       0.38131759      -0.91473782      -0.86947060
7
Lattice="529.1772105638412 0.0 0.0 0.0 529.1772105638412 0.0 0.0 0.0 529.1772105638412" Properties=species:S:1:pos:R:3:forces_component_raw:R:3 ipi_comment="Step:        4940  Bead:       0 forces_component_raw{ase}  cell{ase}" pbc="T T T"
O        0.00000000       0.00000000       0.00000000      -0.30077362      -0.01482829      -0.62589044
H        0.00000000       0.00000000       0.00000000       0.06514949      -0.06238231       0.02508378
H        0.00000000       0.00000000       0.00000000      -0.78110290      -0.07144038       0.49875292
O        0.00000000       0.00000000       0.00000000       0.65241063       2.16830898       1.79131925
H        0.00000000       0.00000000       0.00000000      -0.33729768      -0.27486223      -0.16541344
H        0.00000000       0.00000000       0.00000000       1.34047592      -1.98740340      -1.08008075
H        0.00000000       0.00000000       0.00000000      -0.63886178       0.24260733      -0.44377121
7
Lattice="529.1772105638412 0.0 0.0 0.0 529.1772105638412 0.0 0.0 0.0 529.1772105638412" Properties=species:S:1:pos:R:3:forces_component_raw:R:3 ipi_comment="Step:        4960  Bead:       0 forces_component_raw{ase}  cell{ase}" pbc="T T T"
O        0.00000000       0.00000000       0.00000000      -0.18960935       0.42797452      -1.17777920
H        0.00000000       0.00000000       0.00000000       0.19560607      -0.18329552       0.45735374
H        0.00000000       0.00000000       0.00000000      -0.35875103      -0.16821444       0.48938674
O        0.00000000       0.00000000       0.00000000      -1.88118077       0.23853463      -1.52473712
H        0.00000000       0.00000000       0.00000000       0.23403359      -0.07168429       0.18648413
H        0.00000000       0.00000000       0.00000000       1.19792629      -0.39957205       0.45336738
H        0.00000000       0.00000000       0.00000000       0.80197525       0.15625721       1.11592436
7
Lattice="529.1772105638412 0.0 0.0 0.0 529.1772105638412 0.0 0.0 0.0 529.1772105638412" Properties=species:S:1:pos:R:3:forces_component_raw:R:3 ipi_comment="Step:        4980  Bead:       0 forces_component_raw{ase}  cell{ase}" pbc="T T T"
O        0.00000000       0.00000000       0.00000000       1.03126359       0.71640539      -0.40534264
H        0.00000000       0.00000000       0.00000000       0.22835475      -0.28764194       0.59060443
H        0.00000000       0.00000000       0.00000000      -0.21651298      -0.11021130       0.13191116
O        0.00000000       0.00000000       0.00000000       0.55914605      -2.19086886      -2.02337409
H        0.00000000       0.00000000       0.00000000      -0.24455118      -0.13390805      -0.13187788
H        0.00000000       0.00000000       0.00000000      -0.97436476       0.45156434      -0.40544042
H        0.00000000       0.00000000       0.00000000      -0.38333547       1.55466080       2.24351955
7
Lattice="529.1772105638412 0.0 0.0 0.0 529.1772105638412 0.0 0.0 0.0 529.1772105638412" Properties=species:S:1:pos:R:3:forces_component_raw:R:3 ipi_comment="Step:        5000  Bead:       0 forces_component_raw{ase}  cell{ase}" pbc="T T T"
O        0.00000000       0.00000000       0.00000000      -0.09889156      -0.39813075       0.96928960
H        0.00000000       0.00000000       0.00000000       0.34083259       0.10083044      -0.03224128
H        0.00000000       0.00000000       0.00000000       0.69907719       0.37508255      -0.42497125
O        0.00000000       0.00000000       0.00000000      -1.49514115      -2.50624753      -2.94334746
H        0.00000000       0.00000000       0.00000000       0.27626762       0.39104378      -0.38684589
H        0.00000000       0.00000000       0.00000000      -0.74953622       1.23863960       0.51200742
H        0.00000000       0.00000000       0.00000000       1.02739144       0.79878187       2.30610848
7
Lattice="529.1772105638412 0.0 0.0 0.0 529.1772105638412 0.0 0.0 0.0 529.1772105638412" Properties=species:S:1:pos:R:3:forces_component_raw:R:3 ipi_comment="Step:        5020  Bead:       0 forces_component_raw{ase}  cell{ase}" pbc="T T T"
O        0.00000000       0.00000000       0.00000000       0.00621116      -0.18709950       0.05954877
H        0.00000000       0.00000000       0.00000000      -0.36845684      -0.01807436      -0.14112598
H        0.00000000       0.00000000       0.00000000       0.39856514       0.44412315      -0.28074950
O        0.00000000       0.00000000       0.00000000       1.44667924      -2.33024955      -1.86437154
H        0.00000000       0.00000000       0.00000000      -0.27962506      -0.38655704       0.66405344
H        0.00000000       0.00000000       0.00000000      -1.17794681       1.06590927      -0.22480702
H        0.00000000       0.00000000       0.00000000      -0.02542698       1.41194809       1.78745187
7
Lattice="529.1772105638412 0.0 0.0 0.0 529.1772105638412 0.0 0.0 0.0 529.1772105638412" Properties=species:S:1:pos:R:3:forces_component_raw:R:3 ipi_comment="Step:        5040  Bead:       0 forces_component_raw{ase}  cell{ase}" pbc="T T T"
O        0.00000000       0.00000000       0.00000000      -0.79458523      -0.60468626       0.03340216
H        0.00000000       0.00000000       0.00000000       0.15141732       0.56862342      -0.13606893
H        0.00000000       0.00000000       0.00000000      -0.05303264      -0.48001123       0.10368566
O        0.00000000       0.00000000       0.00000000      -0.14883703      -0.34372991      -0.06204955
H        0.00000000       0.00000000       0.00000000       0.38825530       0.41473085      -0.50954020
H        0.00000000       0.00000000       0.00000000      -0.18895909       0.57797849       0.35066310
H        0.00000000       0.00000000       0.00000000       0.64574146      -0.13290551       0.21990782
7
Lattice="529.1772105638412 0.0 0.0 0.0 529.1772105638412 0.0 0.0 0.0 529.1772105638412" Properties=species:S:1:pos:R:3:forces_component_raw:R:3 ipi_comment="Step:        5060  Bead:       0 forces_component_raw{ase}  cell{ase}" pbc="T T T"
O        0.00000000       0.00000000       0.00000000       0.86528123       0.44948024      -0.88722015
H        0.00000000       0.00000000       0.00000000      -0.51497764      -0.32472518       0.24082559
H        0.00000000       0.00000000       0.00000000      -1.04332853      -0.20807791       0.28793073
O        0.00000000       0.00000000       0.00000000       1.04729271       2.01888276       2.05178547
H        0.00000000       0.00000000       0.00000000      -0.17721702      -0.20637414       0.29260895
H        0.00000000       0.00000000       0.00000000       0.30372325      -0.56485081      -0.20953512
H        0.00000000       0.00000000       0.00000000      -0.48077408      -1.16433525      -1.77639556
7
Lattice="529.1772105638412 0.0 0.0 0.0 529.1772105638412 0.0 0.0 0.0 529.1772105638412" Properties=species:S:1:pos:R:3:forces_component_raw:R:3 ipi_comment="Step:        5080  Bead:       0 forces_component_raw{ase}  cell{ase}" pbc="T T T"
O        0.00000000       0.00000000       0.00000000      -0.41580534      -0.16299441      -0.42865896
H        0.00000000       0.00000000       0.00000000       0.20906135       0.79816336      -0.05742438
H        0.00000000       0.00000000       0.00000000      -0.27917099      -0.88616026       0.31681424
O        0.00000000       0.00000000       0.00000000      -1.19913996       2.86498547       1.78230763
H        0.00000000       0.00000000       0.00000000       0.36992028       0.22993796       0.04333261
H        0.00000000       0.00000000       0.00000000       1.18717575      -0.34107390       0.77547658
H        0.00000000       0.00000000       0.00000000       0.12795901      -2.50285817      -2.43184758
7
Lattice="529.1772105638412 0.0 0.0 0.0 529.1772105638412 0.0 0.0 0.0 529.1772105638412" Properties=species:S:1:pos:R:3:forces_component_raw:R:3 ipi_comment="Step:        5100  Bead:       0 forces_component_raw{ase}  cell{ase}" pbc="T T T"
O        0.00000000       0.00000000       0.00000000       1.83425379      -0.43880037       0.54726839
H        0.00000000       0.00000000       0.00000000      -0.66935468       0.28369507       0.26383406
H        0.00000000       0.00000000       0.00000000      -0.31007180       0.41711199      -0.09029281
O        0.00000000       0.00000000       0.00000000      -0.10454489       2.41285039       2.51058102
H        0.00000000       0.00000000       0.00000000      -0.19647829      -0.41667473      -0.86038608
H        0.00000000       0.00000000       0.00000000      -0.03078362      -0.69308204      -0.38607407
H        0.00000000       0.00000000       0.00000000      -0.52302051      -1.56510020      -1.98493076
7
Lattice="529.1772105638412 0.0 0.0 0.0 529.1772105638412 0.0 0.0 0.0 529.1772105638412" Properties=species:S:1:pos:R:3:forces_component_raw:R:3 ipi_comment="Step:        5120  Bead:       0 forces_component_raw{ase}  cell{ase}" pbc="T T T"
O        0.00000000       0.00000000       0.00000000       0.70417512      -1.21011937       0.26830810
H        0.00000000       0.00000000       0.00000000      -0.50435680       0.93246222      -0.02597916
H        0.00000000       0.00000000       0.00000000       0.95749355       0.66570288      -0.29007399
O        0.00000000       0.00000000       0.00000000      -1.75545442      -0.50041384      -1.11433506
H        0.00000000       0.00000000       0.00000000       0.17248605       0.29302636       0.73690677
H        0.00000000       0.00000000       0.00000000       0.43643361       0.25768596       0.46107698
H        0.00000000       0.00000000       0.00000000      -0.01077704      -0.43834418      -0.03590363
7
Lattice="529.1772105638412 0.0 0.0 0.0 529.1772105638412 0.0 0.0 0.0 529.1772105638412" Properties=species:S:1:pos:R:3:forces_component_raw:R:3 ipi_comment="Step:        5140  Bead:       0 forces_component_raw{ase}  cell{ase}" pbc="T T T"
O        0.00000000       0.00000000       0.00000000      -0.12213469      -2.57492066       1.20812059
H        0.00000000       0.00000000       0.00000000      -0.93811178       0.62954968       0.03133866
H        0.00000000       0.00000000       0.00000000       0.99183476       1.97962642      -1.00095368
O        0.00000000       0.00000000       0.00000000       0.78664941      -1.76694584      -0.21390250
H        0.00000000       0.00000000       0.00000000      -0.08578471      -0.06107407      -0.51311660
H        0.00000000       0.00000000       0.00000000      -0.67191672       0.75596893      -0.35716215
H        0.00000000       0.00000000       0.00000000       0.03946379       1.03779555       0.84567571
7
Lattice="529.1772105638412 0.0 0.0 0.0 529.1772105638412 0.0 0.0 0.0 529.1772105638412" Properties=species:S:1:pos:R:3:forces_component_raw:R:3 ipi_comment="Step:        5160  Bead:       0 forces_component_raw{ase}  cell{ase}" pbc="T T T"
O        0.00000000       0.00000000       0.00000000      -2.36540628      -0.70829415       0.07934559
H        0.00000000       0.00000000       0.00000000       0.58760423      -0.17138314       0.03501985
H        0.00000000       0.00000000       0.00000000       0.85828424       0.64842683      -0.33143148
O        0.00000000       0.00000000       0.00000000       0.99771667      -2.56271172      -1.01968050
H        0.00000000       0.00000000       0.00000000       0.02026816       0.01259277      -0.18743940
H        0.00000000       0.00000000       0.00000000      -0.78080571       1.73066640      -0.25723702
H        0.00000000       0.00000000       0.00000000       0.68233872       1.05070305       1.68142271
7
Lattice="529.1772105638412 0.0 0.0 0.0 529.1772105638412 0.0 0.0 0.0 529.1772105638412" Properties=species:S:1:pos:R:3:forces_component_raw:R:3 ipi_comment="Step:        5180  Bead:       0 forces_component_raw{ase}  cell{ase}" pbc="T T T"
O        0.00000000       0.00000000       0.00000000      -0.79602599       0.45470458      -0.36918849
H        0.00000000       0.00000000       0.00000000       0.17649381      -1.18731022       0.34802318
H        0.00000000       0.00000000       0.00000000       0.03359808       0.74186236      -0.28289357
O        0.00000000       0.00000000       0.00000000       1.23358369      -1.13103032      -0.91789055
H        0.00000000       0.00000000       0.00000000      -0.25847235      -0.06417565       0.48860985
H        0.00000000       0.00000000       0.00000000      -0.24519229       0.25253815      -0.16233160
H        0.00000000       0.00000000       0.00000000      -0.14398472       0.93341112       0.89567125
7
Lattice="529.1772105638412 0.0 0.0 0.0 529.1772105638412 0.0 0.0 0.0 529.1772105638412" Properties=species:S:1:pos:R:3:forces_component_raw:R:3 ipi_comment="Step:        5200  Bead:       0 forces_component_raw{ase}  cell{ase}" pbc="T T T"
O        0.00000000       0.00000000       0.00000000      -1.05859792       1.74532628      -0.81534851
H        0.00000000       0.00000000       0.00000000       0.67111331      -0.99014294       0.58146083
H        0.00000000       0.00000000       0.00000000      -0.44260258      -0.63499004       0.15677199
O        0.00000000       0.00000000       0.00000000       0.20321414       0.78165859       0.49903247
H        0.00000000       0.00000000       0.00000000       0.03346115      -0.35275498      -0.43160322
H        0.00000000       0.00000000       0.00000000       0.50102502      -0.57000876       0.11006350
H        0.00000000       0.00000000       0.00000000       0.09238696       0.02091169      -0.10037708
7
Lattice="529.1772105638412 0.0 0.0 0.0 529.1772105638412 0.0 0.0 0.0 529.1772105638412" Properties=species:S:1:pos:R:3:forces_component_raw:R:3 ipi_comment="Step:        5220  Bead:       0 forces_component_raw{ase}  cell{ase}" pbc="T T T"
O        0.00000000       0.00000000       0.00000000       1.03947854       1.24426747      -0.35888699
H        0.00000000       0.00000000       0.00000000      -0.03592438      -0.25413996       0.27071840
H        0.00000000       0.00000000       0.00000000      -1.11037946      -1.02227998       0.04729432
O        0.00000000       0.00000000       0.00000000      -0.40545702       1.32662487       0.46304321
H        0.00000000       0.00000000       0.00000000      -0.26832247       0.15875311      -0.08554934
H        0.00000000       0.00000000       0.00000000       0.98649597      -0.76655722       0.28206742
H        0.00000000       0.00000000       0.00000000      -0.20589124      -0.68666828      -0.61868698
7
Lattice="529.1772105638412 0.0 0.0 0.0 529.1772105638412 0.0 0.0 0.0 529.1772105638412" Properties=species:S:1:pos:R:3:forces_component_raw:R:3 ipi_comment="Step:        5240  Bead:       0 forces_component_raw{ase}  cell{ase}" pbc="T T T"
O        0.00000000       0.00000000       0.00000000       1.40216208       0.64599705       1.61695743
H        0.00000000       0.00000000       0.00000000      -0.21120900       0.65278232      -1.31004286
H        0.00000000       0.00000000       0.00000000      -0.72359300      -1.19226611      -0.28618643
O        0.00000000       0.00000000       0.00000000      -0.46166355       1.69618607       0.70809072
H        0.00000000       0.00000000       0.00000000      -0.09189111      -0.23770613       0.12730950
H        0.00000000       0.00000000       0.00000000       0.51390439      -1.28791940      -0.21710876
H        0.00000000       0.00000000       0.00000000      -0.42770970      -0.27707383      -0.63901979
7
Lattice="529.1772105638412 0.0 0.0 0.0 529.1772105638412 0.0 0.0 0.0 529.1772105638412" Properties=species:S:1:pos:R:3:forces_component_raw:R:3 ipi_comment="Step:        5260  Bead:       0 forces_component_raw{ase}  cell{ase}" pbc="T T T"
O        0.00000000       0.00000000       0.00000000      -0.07568420       0.78437746       1.85956097
H        0.00000000       0.00000000       0.00000000       0.85130310       0.52620846      -1.46768570
H        0.00000000       0.00000000       0.00000000      -0.66856086      -1.41095925      -0.08533275
O        0.00000000       0.00000000       0.00000000      -1.50901735       0.95324326      -0.23376562
H        0.00000000       0.00000000       0.00000000       0.62252903       0.07899802      -0.14285715
H        0.00000000       0.00000000       0.00000000       0.56654149      -0.56785160       0.21794641
H        0.00000000       0.00000000       0.00000000       0.21288867      -0.36401641      -0.14786613
7
Lattice="529.1772105638412 0.0 0.0 0.0 529.1772105638412 0.0 0.0 0.0 529.1772105638412" Properties=species:S:1:pos:R:3:forces_component_raw:R:3 ipi_comment="Step:        5280  Bead:       0 forces_component_raw{ase}  cell{ase}" pbc="T T T"
O        0.00000000       0.00000000       0.00000000       1.22075498       0.40544468       1.98895026
H        0.00000000       0.00000000       0.00000000       0.21280894       0.61564011      -2.22916103
H        0.00000000       0.00000000       0.00000000      -0.52117890      -1.10826350       0.14272854
O        0.00000000       0.00000000       0.00000000       0.15290466       0.01017710      -0.74408329
H        0.00000000       0.00000000       0.00000000      -0.99183351       0.16015929       0.50475919
H        0.00000000       0.00000000       0.00000000      -0.05413160      -0.38506553      -0.01598895
H        0.00000000       0.00000000       0.00000000      -0.01932471       0.30190778       0.35279504
7
Lattice="529.1772105638412 0.0 0.0 0.0 529.1772105638412 0.0 0.0 0.0 529.1772105638412" Properties=species:S:1:pos:R:3:forces_component_raw:R:3 ipi_comment="Step:        5300  Bead:       0 forces_component_raw{ase}  cell{ase}" pbc="T T T"
O        0.00000000       0.00000000       0.00000000      -0.42933399       0.66214335       1.65887881
H        0.00000000       0.00000000       0.00000000       0.34321293       0.30999565      -1.54651463
H        0.00000000       0.00000000       0.00000000      -0.79402650      -1.01470924       0.06130412
O        0.00000000       0.00000000       0.00000000      -0.32597604      -0.01637971      -0.53993994
H        0.00000000       0.00000000       0.00000000       0.37559244      -0.16076809      -0.64173418
H        0.00000000       0.00000000       0.00000000      -0.02346805      -0.05735409       0.12262271
H        0.00000000       0.00000000       0.00000000       0.85399932       0.27707219       0.88538289
7
Lattice="529.1772105638412 0.0 0.0 0.0 529.1772105638412 0.0 0.0 0.0 529.1772105638412" Properties=species:S:1:pos:R:3:forces_component_raw:R:3 ipi_comment="Step:        5320  Bead:       0 forces_component_raw{ase}  cell{ase}" pbc="T T T"
O        0.00000000       0.00000000       0.00000000       0.33312243       0.16180861       0.07221033
H        0.00000000       0.00000000       0.00000000      -0.35886243       0.09582740      -0.35169679
H        0.00000000       0.00000000       0.00000000      -0.27197459      -0.21229601      -0.05280054
O        0.00000000       0.00000000       0.00000000       0.05599165      -1.69391346      -0.83943814
H        0.00000000       0.00000000       0.00000000       0.12917030       0.19989173       0.49083585
H        0.00000000       0.00000000       0.00000000      -0.15288170       0.10828716      -0.32738096
H        0.00000000       0.00000000       0.00000000       0.26543438       1.34039450       1.00827027
7
Lattice="529.1772105638412 0.0 0.0 0.0 529.1772105638412 0.0 0.0 0.0 529.1772105638412" Properties=species:S:1:pos:R:3:forces_component_raw:R:3 ipi_comment="Step:        5340  Bead:       0 forces_component_raw{ase}  cell{ase}" pbc="T T T"
O        0.00000000       0.00000000       0.00000000      -0.13392222       0.03480364       0.03441110
H        0.00000000       0.00000000       0.00000000      -0.23168263      -0.22641733       0.23542142
H        0.00000000       0.00000000       0.00000000       0.30065149       0.35689718      -0.28991300
O        0.00000000       0.00000000       0.00000000      -0.48150092      -0.99011332      -0.95848322
H        0.00000000       0.00000000       0.00000000      -0.05584022      -0.20824847      -0.17282859
H        0.00000000       0.00000000       0.00000000       0.01659238       0.51015705       0.16150776
H        0.00000000       0.00000000       0.00000000       0.58570224       0.52292127       0.98988450
7
Lattice="529.1772105638412 0.0 0.0 0.0 529.1772105638412 0.0 0.0 0.0 529.1772105638412" Properties=species:S:1:pos:R:3:forces_component_raw:R:3 ipi_comment="Step:        5360  Bead:       0 forces_component_raw{ase}  cell{ase}" pbc="T T T"
O        0.00000000       0.00000000       0.00000000      -0.60209394       0.86198259       0.67545760
H        0.00000000       0.00000000       0.00000000       0.30056006      -1.35803640       0.68919736
H        0.00000000       0.00000000       0.00000000       1.08416152       0.22296897      -0.81468868
O        0.00000000       0.00000000       0.00000000       0.17591079      -0.52028251       0.21826996
H        0.00000000       0.00000000       0.00000000      -0.39773226       0.10425614      -0.46934244
H        0.00000000       0.00000000       0.00000000      -0.38327921       0.21755952      -0.33323336
H        0.00000000       0.00000000       0.00000000      -0.17752694       0.47155166       0.03433973
7
Lattice="529.1772105638412 0.0 0.0 0.0 529.1772105638412 0.0 0.0 0.0 529.1772105638412" Properties=species:S:1:pos:R:3:forces_component_raw:R:3 ipi_comment="Step:        5380  Bead:       0 forces_component_raw{ase}  cell{ase}" pbc="T T T"
O        0.00000000       0.00000000       0.00000000      -1.12076354       0.41995955       0.14206481
H        0.00000000       0.00000000       0.00000000      -0.32303783      -1.22011888       0.91114426
H        0.00000000       0.00000000       0.00000000       1.89521599       0.65041769      -1.41423142
O        0.00000000       0.00000000       0.00000000      -1.01247478       0.43088758      -0.55488759
H        0.00000000       0.00000000       0.00000000       0.00571382       0.08789960       0.69042134
H        0.00000000       0.00000000       0.00000000       0.36350352       0.05833924       0.38386926
H        0.00000000       0.00000000       0.00000000       0.19184275      -0.42738468      -0.15838057
7
Lattice="529.1772105638412 0.0 0.0 0.0 529.1772105638412 0.0 0.0 0.0 529.1772105638412" Properties=species:S:1:pos:R:3:forces_component_raw:R:3 ipi_comment="Step:        5400  Bead:       0 forces_component_raw{ase}  cell{ase}" pbc="T T T"
O        0.00000000       0.00000000       0.00000000      -1.12699402       0.44902796       1.60993755
H        0.00000000       0.00000000       0.00000000       0.48671192      -0.94101846       0.26002115
H        0.00000000       0.00000000       0.00000000       1.31795121       0.04052168      -1.19374991
O        0.00000000       0.00000000       0.00000000       0.68500412       0.36810803       1.57951081
H        0.00000000       0.00000000       0.00000000      -0.52685660       0.05347621      -1.02026415
H        0.00000000       0.00000000       0.00000000      -0.50696135       0.07342547      -0.35260925
H        0.00000000       0.00000000       0.00000000      -0.32885534      -0.04354090      -0.88284564
7
Lattice="529.1772105638412 0.0 0.0 0.0 529.1772105638412 0.0 0.0 0.0 529.1772105638412" Properties=species:S:1:pos:R:3:forces_component_raw:R:3 ipi_comment="Step:        5420  Bead:       0 forces_component_raw{ase}  cell{ase}" pbc="T T T"
O        0.00000000       0.00000000       0.00000000      -0.47493270       0.13951671      -0.85862875
H        0.00000000       0.00000000       0.00000000      -0.35510126      -0.30492041       0.26787242
H        0.00000000       0.00000000       0.00000000       0.23224358       0.29979914      -0.12361807
O        0.00000000       0.00000000       0.00000000       0.63053703      -0.39428231       0.36059338
H        0.00000000       0.00000000       0.00000000      -0.11082314       0.47378749       0.93936718
H        0.00000000       0.00000000       0.00000000       0.30521700       0.23594356       0.61088967
H        0.00000000       0.00000000       0.00000000      -0.22714049      -0.44984409      -1.19647599
7
Lattice="529.1772105638412 0.0 0.0 0.0 529.1772105638412 0.0 0.0 0.0 529.1772105638412" Properties=species:S:1:pos:R:3:forces_component_raw:R:3 ipi_comment="Step:        5440  Bead:       0 forces_component_raw{ase}  cell{ase}" pbc="T T T"
O        0.00000000       0.00000000       0.00000000       0.31845033       0.60665053      -0.70662373
H        0.00000000       0.00000000       0.00000000      -0.04228844       0.02056679      -0.04639792
H        0.00000000       0.00000000       0.00000000      -0.96586108      -0.34462851       0.64957565
O        0.00000000       0.00000000       0.00000000       0.28583521       0.10255989       1.49551785
H        0.00000000       0.00000000       0.00000000       0.53783053      -0.57841390      -0.87801707
H        0.00000000       0.00000000       0.00000000      -0.41836313       0.02373064      -0.60611749
H        0.00000000       0.00000000       0.00000000       0.28439677       0.16953462       0.09206286
7
Lattice="529.1772105638412 0.0 0.0 0.0 529.1772105638412 0.0 0.0 0.0 529.1772105638412" Properties=species:S:1:pos:R:3:forces_component_raw:R:3 ipi_comment="Step:        5460  Bead:       0 forces_component_raw{ase}  cell{ase}" pbc="T T T"
O        0.00000000       0.00000000       0.00000000       1.22483826       0.20835677      -0.34498608
H        0.00000000       0.00000000       0.00000000      -0.51658541       0.49915290      -0.85671771
H        0.00000000       0.00000000       0.00000000      -1.28960371      -0.50266802       0.56662327
O        0.00000000       0.00000000       0.00000000       0.75481427       0.34887773      -1.15190840
H        0.00000000       0.00000000       0.00000000      -0.50398821       0.51854575       1.05630231
H        0.00000000       0.00000000       0.00000000       0.55964518      -0.68318916       0.11413136
H        0.00000000       0.00000000       0.00000000      -0.22912046      -0.38907600       0.61655510
7
Lattice="529.1772105638412 0.0 0.0 0.0 529.1772105638412 0.0 0.0 0.0 529.1772105638412" Properties=species:S:1:pos:R:3:forces_component_raw:R:3 ipi_comment="Step:        5480  Bead:       0 forces_component_raw{ase}  cell{ase}" pbc="T T T"
O        0.00000000       0.00000000       0.00000000       0.07677156      -0.39885995       1.16249728
H        0.00000000       0.00000000       0.00000000       0.33914727       0.55927539      -1.38678813
H        0.00000000       0.00000000       0.00000000      -0.84800303      -0.17732354       0.53094190
O        0.00000000       0.00000000       0.00000000       0.39303911       0.80187935       0.99686104
H        0.00000000       0.00000000       0.00000000       0.26830399      -0.21659812      -1.08820153
H        0.00000000       0.00000000       0.00000000      -0.25975376      -0.44705817      -1.01186991
H        0.00000000       0.00000000       0.00000000       0.03049478      -0.12131498       0.79655934
7
Lattice="529.1772105638412 0.0 0.0 0.0 529.1772105638412 0.0 0.0 0.0 529.1772105638412" Properties=species:S:1:pos:R:3:forces_component_raw:R:3 ipi_comment="Step:        5500  Bead:       0 forces_component_raw{ase}  cell{ase}" pbc="T T T"
O        0.00000000       0.00000000       0.00000000       1.99363780      -0.60998690       0.80081433
H        0.00000000       0.00000000       0.00000000      -0.54062832       0.32926300      -0.99417854
H        0.00000000       0.00000000       0.00000000      -0.47604424      -0.05378349       0.04716650
O        0.00000000       0.00000000       0.00000000      -0.82621283       1.17598892      -1.10698796
H        0.00000000       0.00000000       0.00000000      -0.51708031       0.18139544       1.12777972
H        0.00000000       0.00000000       0.00000000       0.72133577      -0.68174595      -0.28998429
H        0.00000000       0.00000000       0.00000000      -0.35500798      -0.34113097       0.41539028
7
Lattice="529.1772105638412 0.0 0.0 0.0 529.1772105638412 0.0 0.0 0.0 529.1772105638412" Properties=species:S:1:pos:R:3:forces_component_raw:R:3 ipi_comment="Step:        5520  Bead:       0 forces_component_raw{ase}  cell{ase}" pbc="T T T"
O        0.00000000       0.00000000       0.00000000       1.11184192      -0.66514665       1.06718040
H        0.00000000       0.00000000       0.00000000       0.56967616       0.11957261      -0.78870356
H        0.00000000       0.00000000       0.00000000      -0.97801239      -0.15813200       0.65583390
O        0.00000000       0.00000000       0.00000000      -0.86811310       0.18037695       0.72002822
H        0.00000000       0.00000000       0.00000000       0.21545020       0.50168312      -1.29692626
H        0.00000000       0.00000000       0.00000000      -0.08144951       0.03536557      -0.77002704
H        0.00000000       0.00000000       0.00000000       0.03060697      -0.01371956       0.41261429
7
Lattice="529.1772105638412 0.0 0.0 0.0 529.1772105638412 0.0 0.0 0.0 529.1772105638412" Properties=species:S:1:pos:R:3:forces_component_raw:R:3 ipi_comment="Step:        5540  Bead:       0 forces_component_raw{ase}  cell{ase}" pbc="T T T"
O        0.00000000       0.00000000       0.00000000       0.83310151       0.92812836      -2.06056309
H        0.00000000       0.00000000       0.00000000      -0.23518373       0.07422428       0.76536209
H        0.00000000       0.00000000       0.00000000      -0.47864911      -0.50339717       0.44936171
O        0.00000000       0.00000000       0.00000000      -0.34888822       0.54234499      -0.82611478
H        0.00000000       0.00000000       0.00000000      -0.65146911      -0.49770475       1.04489541
H        0.00000000       0.00000000       0.00000000       0.34201270      -0.14590769       0.23957640
H        0.00000000       0.00000000       0.00000000       0.53907603      -0.39768803       0.38748208
7
Lattice="529.1772105638412 0.0 0.0 0.0 529.1772105638412 0.0 0.0 0.0 529.1772105638412" Properties=species:S:1:pos:R:3:forces_component_raw:R:3 ipi_comment="Step:        5560  Bead:       0 forces_component_raw{ase}  cell{ase}" pbc="T T T"
O        0.00000000       0.00000000       0.00000000      -0.61099541       0.28736973      -1.18758536
H        0.00000000       0.00000000       0.00000000       0.43722504      -0.06680559       1.10562551
H        0.00000000       0.00000000       0.00000000      -0.67833901       0.02852203       0.26792666
O        0.00000000       0.00000000       0.00000000       1.16519881      -0.52257276      -0.38752294
H        0.00000000       0.00000000       0.00000000       0.56523407       0.07506783      -1.09776390
H        0.00000000       0.00000000       0.00000000      -1.20112813       0.48292101       0.54521620
H        0.00000000       0.00000000       0.00000000       0.32280469      -0.28450221       0.75410384
7
Lattice="529.1772105638412 0.0 0.0 0.0 529.1772105638412 0.0 0.0 0.0 529.1772105638412" Properties=species:S:1:pos:R:3:forces_component_raw:R:3 ipi_comment="Step:        5580  Bead:       0 forces_component_raw{ase}  cell{ase}" pbc="T T T"
O        0.00000000       0.00000000       0.00000000      -1.09310711       0.17897749      -0.77647036
H        0.00000000       0.00000000       0.00000000       0.16361156       0.09106115       0.47800610
H        0.00000000       0.00000000       0.00000000       0.05236179       0.04090985      -0.12760681
O        0.00000000       0.00000000       0.00000000       1.51335609      -0.36876097      -1.46352601
H        0.00000000       0.00000000       0.00000000       0.06859158       0.11708623       1.08839298
H        0.00000000       0.00000000       0.00000000      -0.47582495      -0.13208547       0.81184220
H        0.00000000       0.00000000       0.00000000      -0.22898902       0.07281182      -0.01063800
7
Lattice="529.1772105638412 0.0 0.0 0.0 529.1772105638412 0.0 0.0 0.0 529.1772105638412" Properties=species:S:1:pos:R:3:forces_component_raw:R:3 ipi_comment="Step:        5600  Bead:       0 forces_component_raw{ase}  cell{ase}" pbc="T T T"
O        0.00000000       0.00000000       0.00000000      -0.70355415      -0.01995242       1.09591770
H        0.00000000       0.00000000       0.00000000       0.55464178      -0.20002119       0.45547730
H        0.00000000       0.00000000       0.00000000       0.31080541       0.27259204      -0.61749661
O        0.00000000       0.00000000       0.00000000       0.95596385       0.08508934       1.19859433
H        0.00000000       0.00000000       0.00000000      -0.49955109      -0.00463371      -1.17366612
H        0.00000000       0.00000000       0.00000000      -0.15155408      -0.01021744      -0.02790082
H        0.00000000       0.00000000       0.00000000      -0.46675179      -0.12285674      -0.93092591
7
Lattice="529.1772105638412 0.0 0.0 0.0 529.1772105638412 0.0 0.0 0.0 529.1772105638412" Properties=species:S:1:pos:R:3:forces_component_raw:R:3 ipi_comment="Step:        5620  Bead:       0 forces_component_raw{ase}  cell{ase}" pbc="T T T"
O        0.00000000       0.00000000       0.00000000      -1.15687955      -0.30646843       0.40229616
H        0.00000000       0.00000000       0.00000000       0.18375647       0.14672260      -0.00259990
H        0.00000000       0.00000000       0.00000000       1.40903259      -0.05845288      -0.81082076
O        0.00000000       0.00000000       0.00000000      -1.14764881       0.41680798       0.80820894
H        0.00000000       0.00000000       0.00000000       0.36253554      -0.19253950       0.96236658
H        0.00000000       0.00000000       0.00000000       0.72781301       0.12435716      -0.02476197
H        0.00000000       0.00000000       0.00000000      -0.37860939      -0.13042696      -1.33468914
7
Lattice="529.1772105638412 0.0 0.0 0.0 529.1772105638412 0.0 0.0 0.0 529.1772105638412" Properties=species:S:1:pos:R:3:forces_component_raw:R:3 ipi_comment="Step:        5640  Bead:       0 forces_component_raw{ase}  cell{ase}" pbc="T T T"
O        0.00000000       0.00000000       0.00000000       1.06715346      -0.93602503       0.58822942
H        0.00000000       0.00000000       0.00000000      -0.38554114       0.12326667       0.46196482
H        0.00000000       0.00000000       0.00000000       0.17426078       0.07842258      -0.86392200
O        0.00000000       0.00000000       0.00000000      -0.00634657      -0.30583435       1.04928148
H        0.00000000       0.00000000       0.00000000      -0.42393553       0.76438779      -0.58808661
H        0.00000000       0.00000000       0.00000000      -0.13147962       0.31568968      -0.82714367
H        0.00000000       0.00000000       0.00000000      -0.29411143      -0.03990725       0.17967665
7
Lattice="529.1772105638412 0.0 0.0 0.0 529.1772105638412 0.0 0.0 0.0 529.1772105638412" Properties=species:S:1:pos:R:3:forces_component_raw:R:3 ipi_comment="Step:        5660  Bead:       0 forces_component_raw{ase}  cell{ase}" pbc="T T T"
O        0.00000000       0.00000000       0.00000000      -1.46252108       0.60072541      -0.02017064
H        0.00000000       0.00000000       0.00000000       0.40076107       0.01657613      -0.04268909
H        0.00000000       0.00000000       0.00000000       0.61336136       0.04494927      -0.03989351
O        0.00000000       0.00000000       0.00000000      -1.00079990      -0.19401404      -1.41354752
H        0.00000000       0.00000000       0.00000000      -0.18226862      -0.67744982       0.13744745
H        0.00000000       0.00000000       0.00000000       0.54285538      -0.03042841       0.46951628
H        0.00000000       0.00000000       0.00000000       1.08861172       0.23964152       0.90933705
7
Lattice="529.1772105638412 0.0 0.0 0.0 529.1772105638412 0.0 0.0 0.0 529.1772105638412" Properties=species:S:1:pos:R:3:forces_component_raw:R:3 ipi_comment="Step:        5680  Bead:       0 forces_component_raw{ase}  cell{ase}" pbc="T T T"
O        0.00000000       0.00000000       0.00000000       0.80444288       0.14225023      -0.16672227
H        0.00000000       0.00000000       0.00000000      -0.20107125      -0.13252397       0.31819961
H        0.00000000       0.00000000       0.00000000      -1.41738820       0.08917347       0.09401351
O        0.00000000       0.00000000       0.00000000       1.50849963      -1.25817776      -2.13291073
H        0.00000000       0.00000000       0.00000000       0.05934912       0.66806489      -0.28831607
H        0.00000000       0.00000000       0.00000000      -0.86292744       0.02213583       0.28168726
H        0.00000000       0.00000000       0.00000000       0.10909534       0.46907735       1.89404869
7
Lattice="529.1772105638412 0.0 0.0 0.0 529.1772105638412 0.0 0.0 0.0 529.1772105638412" Properties=species:S:1:pos:R:3:forces_component_raw:R:3 ipi_comment="Step:        5700  Bead:       0 forces_component_raw{ase}  cell{ase}" pbc="T T T"
O        0.00000000       0.00000000       0.00000000       0.45632130       0.49830991      -1.81446815
H        0.00000000       0.00000000       0.00000000       0.52609444      -0.04926434       0.25691828
H        0.00000000       0.00000000       0.00000000      -1.50734091      -0.36819536       1.40440905
O        0.00000000       0.00000000       0.00000000      -0.95144952       0.33043981      -2.03172470
H        0.00000000       0.00000000       0.00000000       0.74006033      -0.23744044       0.32928550
H        0.00000000       0.00000000       0.00000000      -0.30960628       0.07465410       1.06486619
H        0.00000000       0.00000000       0.00000000       1.04592061      -0.24850370       0.79071379
7
Lattice="529.1772105638412 0.0 0.0 0.0 529.1772105638412 0.0 0.0 0.0 529.1772105638412" Properties=species:S:1:pos:R:3:forces_component_raw:R:3 ipi_comment="Step:        5720  Bead:       0 forces_component_raw{ase}  cell{ase}" pbc="T T T"
O        0.00000000       0.00000000       0.00000000       3.24605561      -0.43493781      -0.73261273
H        0.00000000       0.00000000       0.00000000      -0.30855036       0.10346911      -0.01389909
H        0.00000000       0.00000000       0.00000000      -1.54212427      -0.47871178       0.80255825
O        0.00000000       0.00000000       0.00000000       0.62213922      -0.06514324      -0.65696937
H        0.00000000       0.00000000       0.00000000      -1.27253223       0.57328600      -0.47806025
H        0.00000000       0.00000000       0.00000000      -1.01122952       0.43613756       0.79822815
H        0.00000000       0.00000000       0.00000000       0.26624155      -0.13409980       0.28075507
7
Lattice="529.1772105638412 0.0 0.0 0.0 529.1772105638412 0.0 0.0 0.0 529.1772105638412" Properties=species:S:1:pos:R:3:forces_component_raw:R:3 ipi_comment="Step:        5740  Bead:       0 forces_component_raw{ase}  cell{ase}" pbc="T T T"
O        0.00000000       0.00000000       0.00000000       0.67524696       0.65048540      -0.46827212
H        0.00000000       0.00000000       0.00000000       0.10366073       0.19759077      -0.53356522
H        0.00000000       0.00000000       0.00000000      -0.70483542      -0.81251961       0.83834762
O        0.00000000       0.00000000       0.00000000      -0.82442802       0.80527234       1.17922831
H        0.00000000       0.00000000       0.00000000       0.30902579      -0.44226456      -0.04915006
H        0.00000000       0.00000000       0.00000000       0.35017526       0.03544308      -0.26123595
H        0.00000000       0.00000000       0.00000000       0.09115475      -0.43400747      -0.70535278
7
Lattice="529.1772105638412 0.0 0.0 0.0 529.1772105638412 0.0 0.0 0.0 529.1772105638412" Properties=species:S:1:pos:R:3:forces_component_raw:R:3 ipi_comment="Step:        5760  Bead:       0 forces_component_raw{ase}  cell{ase}" pbc="T T T"
O        0.00000000       0.00000000       0.00000000       0.94236940       0.00366990       0.72927642
H        0.00000000       0.00000000       0.00000000      -0.12115102      -0.14408287      -0.58970034
H        0.00000000       0.00000000       0.00000000      -0.38082582      -0.29152876      -0.10550281
O        0.00000000       0.00000000       0.00000000      -0.01407859       0.46167702       1.05153322
H        0.00000000       0.00000000       0.00000000       0.08938852       0.45770300       0.37879834
H        0.00000000       0.00000000       0.00000000       0.40672305      -0.33608851      -0.87610913
H        0.00000000       0.00000000       0.00000000      -0.92242551      -0.15134975      -0.58829582
7
Lattice="529.1772105638412 0.0 0.0 0.0 529.1772105638412 0.0 0.0 0.0 529.1772105638412" Properties=species:S:1:pos:R:3:forces_component_raw:R:3 ipi_comment="Step:        5780  Bead:       0 forces_component_raw{ase}  cell{ase}" pbc="T T T"
O        0.00000000       0.00000000       0.00000000      -1.06108618      -0.81632328       1.13018859
H        0.00000000       0.00000000       0.00000000       0.22463611       0.15057015      -0.55028045
H        0.00000000       0.00000000       0.00000000       1.29544449       0.81099904      -0.27979085
O        0.00000000       0.00000000       0.00000000      -1.04194081       0.21838713      -0.10816023
H        0.00000000       0.00000000       0.00000000      -0.21398220      -0.50367588      -0.38992205
H        0.00000000       0.00000000       0.00000000       0.32402602       0.11857088       0.20594180
H        0.00000000       0.00000000       0.00000000       0.47290227       0.02147189      -0.00797689
7
Lattice="529.1772105638412 0.0 0.0 0.0 529.1772105638412 0.0 0.0 0.0 529.1772105638412" Properties=species:S:1:pos:R:3:forces_component_raw:R:3 ipi_comment="Step:        5800  Bead:       0 forces_component_raw{ase}  cell{ase}" pbc="T T T"
O        0.00000000       0.00000000       0.00000000      -1.48883236      -0.46993750      -0.04550334
H        0.00000000       0.00000000       0.00000000       0.14046860      -0.51128680       0.60390091
H        0.00000000       0.00000000       0.00000000       1.15136791       1.01584602      -0.60859841
O        0.00000000       0.00000000       0.00000000      -0.06468244      -0.64740288      -0.42127091
H        0.00000000       0.00000000       0.00000000       0.24248534       0.24132006       0.35699213
H        0.00000000       0.00000000       0.00000000       0.22615863      -0.08805961      -0.44446981
H        0.00000000       0.00000000       0.00000000      -0.20696566       0.45952058       0.55894929
7
Lattice="529.1772105638412 0.0 0.0 0.0 529.1772105638412 0.0 0.0 0.0 529.1772105638412" Properties=species:S:1:pos:R:3:forces_component_raw:R:3 ipi_comment="Step:        5820  Bead:       0 forces_component_raw{ase}  cell{ase}" pbc="T T T"
O        0.00000000       0.00000000       0.00000000      -1.84727741       0.96757573      -0.67718887
H        0.00000000       0.00000000       0.00000000       0.71093035      -1.69431091       1.38402474
H        0.00000000       0.00000000       0.00000000       0.94775099       0.90448070      -0.57857514
O        0.00000000       0.00000000       0.00000000      -0.71057832      -0.73741204       0.06203192
H        0.00000000       0.00000000       0.00000000      -0.04997110      -0.14740543      -0.50363207
H        0.00000000       0.00000000       0.00000000       0.26812375       0.33127660       0.17300814
H        0.00000000       0.00000000       0.00000000       0.68102205       0.37579551       0.14033136
7
Lattice="529.1772105638412 0.0 0.0 0.0 529.1772105638412 0.0 0.0 0.0 529.1772105638412" Properties=species:S:1:pos:R:3:forces_component_raw:R:3 ipi_comment="Step:        5840  Bead:       0 forces_component_raw{ase}  cell{ase}" pbc="T T T"
O        0.00000000       0.00000000       0.00000000      -1.16044390       1.23643708      -0.94003308
H        0.00000000       0.00000000       0.00000000       0.64881766      -1.43876434       0.86352289
H        0.00000000       0.00000000       0.00000000       0.71769452       0.26232719      -0.12435713
O        0.00000000       0.00000000       0.00000000      -0.21587464      -0.04422522      -1.10095358
H        0.00000000       0.00000000       0.00000000       0.15263969      -0.12231652       0.78438890
H        0.00000000       0.00000000       0.00000000       0.06500305      -0.18198854       0.03381634
H        0.00000000       0.00000000       0.00000000      -0.20783638       0.28853005       0.48361570
7
Lattice="529.1772105638412 0.0 0.0 0.0 529.1772105638412 0.0 0.0 0.0 529.1772105638412" Properties=species:S:1:pos:R:3:forces_component_raw:R:3 ipi_comment="Step:        5860  Bead:       0 forces_component_raw{ase}  cell{ase}" pbc="T T T"
O        0.00000000       0.00000000       0.00000000       0.61075932      -0.06432319      -0.09651975
H        0.00000000       0.00000000       0.00000000       0.00912686      -0.60053229       0.33618853
H        0.00000000       0.00000000       0.00000000      -0.44120616       0.27781218       0.00908504
O        0.00000000       0.00000000       0.00000000       0.57192421       0.34816644       0.75396431
H        0.00000000       0.00000000       0.00000000      -0.02922899       0.18125017      -0.82393003
H        0.00000000       0.00000000       0.00000000      -0.35187900       0.29035980       0.59201217
H        0.00000000       0.00000000       0.00000000      -0.36949629      -0.43273306      -0.77080029
7
Lattice="529.1772105638412 0.0 0.0 0.0 529.1772105638412 0.0 0.0 0.0 529.1772105638412" Properties=species:S:1:pos:R:3:forces_component_raw:R:3 ipi_comment="Step:        5880  Bead:       0 forces_component_raw{ase}  cell{ase}" pbc="T T T"
O        0.00000000       0.00000000       0.00000000      -0.07921879       0.76232016      -0.53107810
H        0.00000000       0.00000000       0.00000000       0.20816712       0.47082502      -0.08860545
H        0.00000000       0.00000000       0.00000000      -0.27603713      -0.87837488       0.28101754
O        0.00000000       0.00000000       0.00000000       1.36167717       0.34455407       0.61675823
H        0.00000000       0.00000000       0.00000000       0.01513137      -0.38540959       0.62738842
H        0.00000000       0.00000000       0.00000000      -0.03364579      -0.00790036      -0.00363570
H        0.00000000       0.00000000       0.00000000      -1.19607401      -0.30601442      -0.90184498
7
Lattice="529.1772105638412 0.0 0.0 0.0 529.1772105638412 0.0 0.0 0.0 529.1772105638412" Properties=species:S:1:pos:R:3:forces_component_raw:R:3 ipi_comment="Step:        5900  Bead:       0 forces_component_raw{ase}  cell{ase}" pbc="T T T"
O        0.00000000       0.00000000       0.00000000       0.94042665      -1.06981623       1.51130343
H        0.00000000       0.00000000       0.00000000      -0.45020717       0.88961816      -1.02368236
H        0.00000000       0.00000000       0.00000000      -0.78053141      -0.09038582      -0.35197070
O        0.00000000       0.00000000       0.00000000       1.49534726       0.66353488       1.21413183
H        0.00000000       0.00000000       0.00000000       0.48137117       0.15232778      -0.37813664
H        0.00000000       0.00000000       0.00000000      -0.31669739      -0.01489109      -0.05643046
H        0.00000000       0.00000000       0.00000000      -1.36970902      -0.53038764      -0.91521514
7
Lattice="529.1772105638412 0.0 0.0 0.0 529.1772105638412 0.0 0.0 0.0 529.1772105638412" Properties=species:S:1:pos:R:3:forces_component_raw:R:3 ipi_comment="Step:        5920  Bead:       0 forces_component_raw{ase}  cell{ase}" pbc="T T T"
O        0.00000000       0.00000000       0.00000000       0.67878437       0.50714511       1.13940346
H        0.00000000       0.00000000       0.00000000      -0.07525843       1.17929542      -0.78166515
H        0.00000000       0.00000000       0.00000000      -0.25985795      -1.37280536      -0.22274566
O        0.00000000       0.00000000       0.00000000       0.60895628       0.22426158       0.12366718
H        0.00000000       0.00000000       0.00000000      -0.31573293      -0.40470475      -0.16899714
H        0.00000000       0.00000000       0.00000000      -0.04700653       0.32221693       0.51224458
H        0.00000000       0.00000000       0.00000000      -0.58988494      -0.45540893      -0.60190725
7
Lattice="529.1772105638412 0.0 0.0 0.0 529.1772105638412 0.0 0.0 0.0 529.1772105638412" Properties=species:S:1:pos:R:3:forces_component_raw:R:3 ipi_comment="Step:        5940  Bead:       0 forces_component_raw{ase}  cell{ase}" pbc="T T T"
O        0.00000000       0.00000000       0.00000000       0.57338965      -0.24990818       0.25080386
H        0.00000000       0.00000000       0.00000000      -0.11887373       0.54119837      -0.41716933
H        0.00000000       0.00000000       0.00000000      -0.56822866      -0.58153850      -0.08175254
O        0.00000000       0.00000000       0.00000000       0.35247612      -0.83237589      -0.90256268
H        0.00000000       0.00000000       0.00000000       0.33999348       0.68598443       0.71359944
H        0.00000000       0.00000000       0.00000000      -0.10146944       0.31389022       0.43436280
H        0.00000000       0.00000000       0.00000000      -0.47728726       0.12274951       0.00271857
7
Lattice="529.1772105638412 0.0 0.0 0.0 529.1772105638412 0.0 0.0 0.0 529.1772105638412" Properties=species:S:1:pos:R:3:forces_component_raw:R:3 ipi_comment="Step:        5960  Bead:       0 forces_component_raw{ase}  cell{ase}" pbc="T T T"
O        0.00000000       0.00000000       0.00000000      -0.22431995       0.09915628       0.92171872
H        0.00000000       0.00000000       0.00000000      -0.18824518       0.36962125      -0.32977504
H        0.00000000       0.00000000       0.00000000      -0.03786130      -0.04779243      -0.08522307
O        0.00000000       0.00000000       0.00000000       0.82433605       0.18878377       0.31935331
H        0.00000000       0.00000000       0.00000000      -0.08804429      -0.76559568      -1.03834260
H        0.00000000       0.00000000       0.00000000      -0.36840975       0.43823058       0.38396406
H        0.00000000       0.00000000       0.00000000       0.08254441      -0.28240389      -0.17169541
7
Lattice="529.1772105638412 0.0 0.0 0.0 529.1772105638412 0.0 0.0 0.0 529.1772105638412" Properties=species:S:1:pos:R:3:forces_component_raw:R:3 ipi_comment="Step:        5980  Bead:       0 forces_component_raw{ase}  cell{ase}" pbc="T T T"
O        0.00000000       0.00000000       0.00000000      -1.29685033      -1.08298886       0.14835420
H        0.00000000       0.00000000       0.00000000      -0.02782641      -0.08348310       0.13530263
H        0.00000000       0.00000000       0.00000000       1.19440425       1.05814111      -0.57580149
O        0.00000000       0.00000000       0.00000000      -0.98454654      -0.57739943      -0.62803865
H        0.00000000       0.00000000       0.00000000       0.21899098       0.40362412       0.76351738
H        0.00000000       0.00000000       0.00000000       0.39119977      -0.12125230      -0.08931920
H        0.00000000       0.00000000       0.00000000       0.50462842       0.40335849       0.24598505
7
Lattice="529.1772105638412 0.0 0.0 0.0 529.1772105638412 0.0 0.0 0.0 529.1772105638412" Properties=species:S:1:pos:R:3:forces_component_raw:R:3 ipi_comment="Step:        6000  Bead:       0 forces_component_raw{ase}  cell{ase}" pbc="T T T"
O        0.00000000       0.00000000       0.00000000      -1.43304813      -0.66594637       0.32755879
H        0.00000000       0.00000000       0.00000000       0.67177588      -0.53047812       0.38737559
H        0.00000000       0.00000000       0.00000000       1.54310823       0.86286247      -0.66799200
O        0.00000000       0.00000000       0.00000000      -1.57620609       0.58743942       0.66974986
H        0.00000000       0.00000000       0.00000000      -0.18719029      -0.27165216      -0.41096127
H        0.00000000       0.00000000       0.00000000      -0.08011356      -0.64456499      -0.73375559
H        0.00000000       0.00000000       0.00000000       1.06167388       0.66233981       0.42802447
7
Lattice="529.1772105638412 0.0 0.0 0.0 529.1772105638412 0.0 0.0 0.0 529.1772105638412" Properties=species:S:1:pos:R:3:forces_component_raw:R:3 ipi_comment="Step:        6020  Bead:       0 forces_component_raw{ase}  cell{ase}" pbc="T T T"
O        0.00000000       0.00000000       0.00000000       0.22428083      -0.93331504       0.33243173
H        0.00000000       0.00000000       0.00000000      -0.10900643      -0.64943373       0.64009690
H        0.00000000       0.00000000       0.00000000       0.48696101       1.12747729      -0.95875985
O        0.00000000       0.00000000       0.00000000      -1.74988425       0.39923298       1.19789863
H        0.00000000       0.00000000       0.00000000      -0.09166924       0.23110414      -0.16902289
H        0.00000000       0.00000000       0.00000000       0.40920827      -0.93702907      -1.25107503
H        0.00000000       0.00000000       0.00000000       0.83010996       0.76196337       0.20843083
7
Lattice="529.1772105638412 0.0 0.0 0.0 529.1772105638412 0.0 0.0 0.0 529.1772105638412" Properties=species:S:1:pos:R:3:forces_component_raw:R:3 ipi_comment="Step:        6040  Bead:       0 forces_component_raw{ase}  cell{ase}" pbc="T T T"
O        0.00000000       0.00000000       0.00000000      -1.75058580       0.80382502      -0.60510886
H        0.00000000       0.00000000       0.00000000       0.68760055      -0.13972732       0.50532389
H        0.00000000       0.00000000       0.00000000       0.81421501      -0.07153136      -0.09780705
O        0.00000000       0.00000000       0.00000000      -0.33937055      -0.07954852       1.14764476
H        0.00000000       0.00000000       0.00000000      -0.13217363      -0.32175109       0.49866653
H        0.00000000       0.00000000       0.00000000       0.53095460      -0.70710945      -1.42086637
H        0.00000000       0.00000000       0.00000000       0.18935972       0.51584268      -0.02785291
7
Lattice="529.1772105638412 0.0 0.0 0.0 529.1772105638412 0.0 0.0 0.0 529.1772105638412" Properties=species:S:1:pos:R:3:forces_component_raw:R:3 ipi_comment="Step:        6060  Bead:       0 forces_component_raw{ase}  cell{ase}" pbc="T T T"
O        0.00000000       0.00000000       0.00000000       0.46830064       0.94527972      -0.25770333
H        0.00000000       0.00000000       0.00000000       0.04100011      -0.53833401       0.61545420
H        0.00000000       0.00000000       0.00000000      -1.09311354      -0.26043314       0.14142633
O        0.00000000       0.00000000       0.00000000       1.01141787       0.18274477       1.18009997
H        0.00000000       0.00000000       0.00000000      -0.17788693       0.25209099      -0.61613995
H        0.00000000       0.00000000       0.00000000      -0.01909229      -0.39454979      -0.96500409
H        0.00000000       0.00000000       0.00000000      -0.23062575      -0.18679839      -0.09813306
7
Lattice="529.1772105638412 0.0 0.0 0.0 529.1772105638412 0.0 0.0 0.0 529.1772105638412" Properties=species:S:1:pos:R:3:forces_component_raw:R:3 ipi_comment="Step:        6080  Bead:       0 forces_component_raw{ase}  cell{ase}" pbc="T T T"
O        0.00000000       0.00000000       0.00000000       0.06768988       1.03396023      -1.10448456
H        0.00000000       0.00000000       0.00000000       0.21682969       0.15039068      -0.28832021
H        0.00000000       0.00000000       0.00000000      -0.68241471      -0.92993236       1.29805756
O        0.00000000       0.00000000       0.00000000       0.83522582       0.95355714      -0.04952843
H        0.00000000       0.00000000       0.00000000       0.46931979      -0.38028035       0.31499332
H        0.00000000       0.00000000       0.00000000      -0.09593794      -0.25952211      -0.21191469
H        0.00000000       0.00000000       0.00000000      -0.81071258      -0.56817329       0.04119702
7
Lattice="529.1772105638412 0.0 0.0 0.0 529.1772105638412 0.0 0.0 0.0 529.1772105638412" Properties=species:S:1:pos:R:3:forces_component_raw:R:3 ipi_comment="Step:        6100  Bead:       0 forces_component_raw{ase}  cell{ase}" pbc="T T T"
O        0.00000000       0.00000000       0.00000000       2.56663585      -0.72036380      -0.37609392
H        0.00000000       0.00000000       0.00000000      -0.45281583       0.21927916      -0.77287722
H        0.00000000       0.00000000       0.00000000      -0.79570437      -0.36626121       0.87289220
O        0.00000000       0.00000000       0.00000000       0.36304918       0.23586038      -0.22640568
H        0.00000000       0.00000000       0.00000000      -0.96228552       0.59370148       0.07350361
H        0.00000000       0.00000000       0.00000000      -0.02215096       0.54942900       0.52314717
H        0.00000000       0.00000000       0.00000000      -0.69672823      -0.51164484      -0.09416607
7
Lattice="529.1772105638412 0.0 0.0 0.0 529.1772105638412 0.0 0.0 0.0 529.1772105638412" Properties=species:S:1:pos:R:3:forces_component_raw:R:3 ipi_comment="Step:        6120  Bead:       0 forces_component_raw{ase}  cell{ase}" pbc="T T T"
O        0.00000000       0.00000000       0.00000000       1.55462695      -0.15544561       0.25623187
H        0.00000000       0.00000000       0.00000000      -1.07767129       0.40324667      -0.96885169
H        0.00000000       0.00000000       0.00000000      -0.21101284      -0.39039326       0.51341862
O        0.00000000       0.00000000       0.00000000      -0.17851332      -0.31745339      -1.16206789
H        0.00000000       0.00000000       0.00000000       0.57309973      -0.16243522       0.02981140
H        0.00000000       0.00000000       0.00000000      -0.08333403       0.97118813       1.28486705
H        0.00000000       0.00000000       0.00000000      -0.57719517      -0.34870747       0.04659081
7
Lattice="529.1772105638412 0.0 0.0 0.0 529.1772105638412 0.0 0.0 0.0 529.1772105638412" Properties=species:S:1:pos:R:3:forces_component_raw:R:3 ipi_comment="Step:        6140  Bead:       0 forces_component_raw{ase}  cell{ase}" pbc="T T T"
O        0.00000000       0.00000000       0.00000000       0.77898264      -0.60305619       1.44712866
H        0.00000000       0.00000000       0.00000000      -1.09685314       0.48115167      -0.81691414
H        0.00000000       0.00000000       0.00000000       0.14875591       0.26699403      -0.30969688
O        0.00000000       0.00000000       0.00000000       1.00485659      -0.13891113      -0.51710647
H        0.00000000       0.00000000       0.00000000      -0.25940371      -0.00793654      -0.43273530
H        0.00000000       0.00000000       0.00000000       0.01015261       0.60790903       0.84143293
H        0.00000000       0.00000000       0.00000000      -0.58649093      -0.60615093      -0.21210891
7
Lattice="529.1772105638412 0.0 0.0 0.0 529.1772105638412 0.0 0.0 0.0 529.1772105638412" Properties=species:S:1:pos:R:3:forces_component_raw:R:3 ipi_comment="Step:        6160  Bead:       0 forces_component_raw{ase}  cell{ase}" pbc="T T T"
O        0.00000000       0.00000000       0.00000000      -0.30664632       0.17181566       0.19503152
H        0.00000000       0.00000000       0.00000000      -0.40141630       0.20406035      -0.07414019
H        0.00000000       0.00000000       0.00000000       0.18371879      -0.03543672      -0.09500104
O        0.00000000       0.00000000       0.00000000       0.94418812      -0.55035693      -0.27510980
H        0.00000000       0.00000000       0.00000000       0.00403020       0.15517817       0.18734391
H        0.00000000       0.00000000       0.00000000      -0.01189846       0.02712962      -0.00809467
H        0.00000000       0.00000000       0.00000000      -0.41197592       0.02760983       0.06997022
7
Lattice="529.1772105638412 0.0 0.0 0.0 529.1772105638412 0.0 0.0 0.0 529.1772105638412" Properties=species:S:1:pos:R:3:forces_component_raw:R:3 ipi_comment="Step:        6180  Bead:       0 forces_component_raw{ase}  cell{ase}" pbc="T T T"
O        0.00000000       0.00000000       0.00000000      -0.55769843       0.51616693      -0.25347856
H        0.00000000       0.00000000       0.00000000       0.49073216      -0.17474313       0.31742281
H        0.00000000       0.00000000       0.00000000      -0.04779094      -0.18388417       0.09278068
O        0.00000000       0.00000000       0.00000000      -0.71627236       0.07616657       0.95917571
H        0.00000000       0.00000000       0.00000000       0.49696660      -0.36632648      -0.44030616
H        0.00000000       0.00000000       0.00000000      -0.15599513      -0.31395918      -0.79993808
H        0.00000000       0.00000000       0.00000000       0.49005810       0.44657964       0.12434350
7
Lattice="529.1772105638412 0.0 0.0 0.0 529.1772105638412 0.0 0.0 0.0 529.1772105638412" Properties=species:S:1:pos:R:3:forces_component_raw:R:3 ipi_comment="Step:        6200  Bead:       0 forces_component_raw{ase}  cell{ase}" pbc="T T T"
O        0.00000000       0.00000000       0.00000000      -0.86846394       0.34304920      -1.64405179
H        0.00000000       0.00000000       0.00000000       1.15944922      -0.12362598       1.04028225
H        0.00000000       0.00000000       0.00000000      -0.13997749      -0.26406652       0.28922141
O        0.00000000       0.00000000       0.00000000      -0.92126501      -0.35637549       0.76050288
H        0.00000000       0.00000000       0.00000000      -0.18571013       0.09964485       0.49042916
H        0.00000000       0.00000000       0.00000000      -0.09795731      -0.48437902      -1.19885993
H        0.00000000       0.00000000       0.00000000       1.05392468       0.78575295       0.26247642
7
Lattice="529.1772105638412 0.0 0.0 0.0 529.1772105638412 0.0 0.0 0.0 529.1772105638412" Properties=species:S:1:pos:R:3:forces_component_raw:R:3 ipi_comment="Step:        6220  Bead:       0 forces_component_raw{ase}  cell{ase}" pbc="T T T"
O        0.00000000       0.00000000       0.00000000      -2.10207034      -0.31668598      -1.31598127
H        0.00000000       0.00000000       0.00000000       2.17787409       0.03908087       1.27597714
H        0.00000000       0.00000000       0.00000000       0.09694737       0.04798983       0.22550875
O        0.00000000       0.00000000       0.00000000      -1.46623206      -0.13874161       1.10338092
H        0.00000000       0.00000000       0.00000000      -0.10918904       0.32444340      -0.13592809
H        0.00000000       0.00000000       0.00000000       0.15309975      -0.44768986      -1.30004120
H        0.00000000       0.00000000       0.00000000       1.24957061       0.49160320       0.14708374
7
Lattice="529.1772105638412 0.0 0.0 0.0 529.1772105638412 0.0 0.0 0.0 529.1772105638412" Properties=species:S:1:pos:R:3:forces_component_raw:R:3 ipi_comment="Step:        6240  Bead:       0 forces_component_raw{ase}  cell{ase}" pbc="T T T"
O        0.00000000       0.00000000       0.00000000      -0.47277987       0.13275272       0.17701571
H        0.00000000       0.00000000       0.00000000       0.34505349      -0.13543756       0.65013540
H        0.00000000       0.00000000       0.00000000      -0.24991766       0.13964945      -0.73943496
O        0.00000000       0.00000000       0.00000000       0.04184595       0.27052498       0.29979867
H        0.00000000       0.00000000       0.00000000       0.22400543      -0.10886255       0.11821777
H        0.00000000       0.00000000       0.00000000      -0.23400658      -0.36051011      -0.82705742
H        0.00000000       0.00000000       0.00000000       0.34579933       0.06188309       0.32132480
7
Lattice="529.1772105638412 0.0 0.0 0.0 529.1772105638412 0.0 0.0 0.0 529.1772105638412" Properties=species:S:1:pos:R:3:forces_component_raw:R:3 ipi_comment="Step:        6260  Bead:       0 forces_component_raw{ase}  cell{ase}" pbc="T T T"
O        0.00000000       0.00000000       0.00000000      -0.40965539      -0.13951355       1.43254745
H        0.00000000       0.00000000       0.00000000      -0.12830889      -0.04826311      -0.16758072
H        0.00000000       0.00000000       0.00000000       0.18202330       0.39505488      -1.11834991
O        0.00000000       0.00000000       0.00000000       0.22325775       0.08050773      -0.07914895
H        0.00000000       0.00000000       0.00000000       0.10655886      -0.19325778      -0.00856644
H        0.00000000       0.00000000       0.00000000       0.05613244      -0.01327720       0.07833010
H        0.00000000       0.00000000       0.00000000      -0.03000808      -0.08125093      -0.13723147
7
Lattice="529.1772105638412 0.0 0.0 0.0 529.1772105638412 0.0 0.0 0.0 529.1772105638412" Properties=species:S:1:pos:R:3:forces_component_raw:R:3 ipi_comment="Step:        6280  Bead:       0 forces_component_raw{ase}  cell{ase}" pbc="T T T"
O        0.00000000       0.00000000       0.00000000       1.44421101      -0.44013846       2.01046515
H        0.00000000       0.00000000       0.00000000      -1.10651732      -0.20900543      -0.39831823
H        0.00000000       0.00000000       0.00000000      -0.09166773       0.41972128      -1.74747456
O        0.00000000       0.00000000       0.00000000       0.80150914      -0.01431978      -0.54517883
H        0.00000000       0.00000000       0.00000000      -0.35413593       0.28013924       0.23880628
H        0.00000000       0.00000000       0.00000000       0.04742295      -0.07199982       0.84934277
H        0.00000000       0.00000000       0.00000000      -0.74082220       0.03560292      -0.40764237
7
Lattice="529.1772105638412 0.0 0.0 0.0 529.1772105638412 0.0 0.0 0.0 529.1772105638412" Properties=species:S:1:pos:R:3:forces_component_raw:R:3 ipi_comment="Step:        6300  Bead:       0 forces_component_raw{ase}  cell{ase}" pbc="T T T"
O        0.00000000       0.00000000       0.00000000       0.42838681       0.28717837       0.51885873
H        0.00000000       0.00000000       0.00000000      -0.87961000      -0.22126244      -0.31654480
H        0.00000000       0.00000000       0.00000000       0.11348861       0.01179554       0.00059330
O        0.00000000       0.00000000       0.00000000       1.32617808       0.23682159      -0.49815315
H        0.00000000       0.00000000       0.00000000       0.33375922      -0.14555983      -0.20057504
H        0.00000000       0.00000000       0.00000000      -0.04385003      -0.31796020       1.10333038
H        0.00000000       0.00000000       0.00000000      -1.27835274       0.14898700      -0.60750926
7
Lattice="529.1772105638412 0.0 0.0 0.0 529.1772105638412 0.0 0.0 0.0 529.1772105638412" Properties=species:S:1:pos:R:3:forces_component_raw:R:3 ipi_comment="Step:        6320  Bead:       0 forces_component_raw{ase}  cell{ase}" pbc="T T T"
O        0.00000000       0.00000000       0.00000000       0.86496401       0.20271772      -0.70431835
H        0.00000000       0.00000000       0.00000000      -0.89941669      -0.25797480      -0.01450899
H        0.00000000       0.00000000       0.00000000       0.14032272      -0.01755540       0.56296462
O        0.00000000       0.00000000       0.00000000       1.61751461       0.25542033      -0.38892725
H        0.00000000       0.00000000       0.00000000      -0.23623006       0.01077735       0.16493629
H        0.00000000       0.00000000       0.00000000      -0.27141675      -0.30997336       0.67961079
H        0.00000000       0.00000000       0.00000000      -1.21573794       0.11658815      -0.29975724
7
Lattice="529.1772105638412 0.0 0.0 0.0 529.1772105638412 0.0 0.0 0.0 529.1772105638412" Properties=species:S:1:pos:R:3:forces_component_raw:R:3 ipi_comment="Step:        6340  Bead:       0 forces_component_raw{ase}  cell{ase}" pbc="T T T"
O        0.00000000       0.00000000       0.00000000      -0.17041752      -0.06665824      -1.12140298
H        0.00000000       0.00000000       0.00000000      -0.11765695      -0.11541280      -0.20546609
H        0.00000000       0.00000000       0.00000000       0.48246232       0.17602436       1.15618611
O        0.00000000       0.00000000       0.00000000      -1.16966236      -0.32373178       1.36615634
H        0.00000000       0.00000000       0.00000000       0.18245792      -0.22897251      -0.18576618
H        0.00000000       0.00000000       0.00000000       0.52252370       0.40951419      -0.74206937
H        0.00000000       0.00000000       0.00000000       0.27029297       0.14923675      -0.26763791
7
Lattice="529.1772105638412 0.0 0.0 0.0 529.1772105638412 0.0 0.0 0.0 529.1772105638412" Properties=species:S:1:pos:R:3:forces_component_raw:R:3 ipi_comment="Step:        6360  Bead:       0 forces_component_raw{ase}  cell{ase}" pbc="T T T"
O        0.00000000       0.00000000       0.00000000      -0.18591604      -0.53155130      -1.05467177
H        0.00000000       0.00000000       0.00000000       0.54849178       0.52270568       0.11061332
H        0.00000000       0.00000000       0.00000000      -0.16016448      -0.00386962       0.96281135
O        0.00000000       0.00000000       0.00000000      -0.58699978      -1.02382112       0.46928698
H        0.00000000       0.00000000       0.00000000      -0.06006396       0.25285357      -0.01181051
H        0.00000000       0.00000000       0.00000000      -0.32706523       1.35901010      -1.40643788
H        0.00000000       0.00000000       0.00000000       0.77171779      -0.57532728       0.93020851
7
Lattice="529.1772105638412 0.0 0.0 0.0 529.1772105638412 0.0 0.0 0.0 529.1772105638412" Properties=species:S:1:pos:R:3:forces_component_raw:R:3 ipi_comment="Step:        6380  Bead:       0 forces_component_raw{ase}  cell{ase}" pbc="T T T"
O        0.00000000       0.00000000       0.00000000      -0.60849452      -0.87654758      -0.20205936
H        0.00000000       0.00000000       0.00000000       0.71023756       0.89264345      -0.17778592
H        0.00000000       0.00000000       0.00000000      -0.16397378       0.17260829       0.41870925
O        0.00000000       0.00000000       0.00000000      -2.59253741      -1.14182353       0.58889455
H        0.00000000       0.00000000       0.00000000       0.07475157      -0.08373173       0.39245626
H        0.00000000       0.00000000       0.00000000       0.80839718       1.48348427      -1.51890040
H        0.00000000       0.00000000       0.00000000       1.77161956      -0.44663307       0.49868566
7
Lattice="529.1772105638412 0.0 0.0 0.0 529.1772105638412 0.0 0.0 0.0 529.1772105638412" Properties=species:S:1:pos:R:3:forces_component_raw:R:3 ipi_comment="Step:        6400  Bead:       0 forces_component_raw{ase}  cell{ase}" pbc="T T T"
O        0.00000000       0.00000000       0.00000000       0.17260048      -0.05691272      -0.00512499
H        0.00000000       0.00000000       0.00000000       0.00130224       0.02705097       0.07751510
H        0.00000000       0.00000000       0.00000000      -0.17538667      -0.08624044       0.06130904
O        0.00000000       0.00000000       0.00000000      -1.08283139      -1.02664185       0.84369737
H        0.00000000       0.00000000       0.00000000      -0.19170195       0.40644017      -0.08889795
H        0.00000000       0.00000000       0.00000000       0.18664730       1.32531297      -1.13117814
H        0.00000000       0.00000000       0.00000000       1.08937001      -0.58900905       0.24267957
7
Lattice="529.1772105638412 0.0 0.0 0.0 529.1772105638412 0.0 0.0 0.0 529.1772105638412" Properties=species:S:1:pos:R:3:forces_component_raw:R:3 ipi_comment="Step:        6420  Bead:       0 forces_component_raw{ase}  cell{ase}" pbc="T T T"
O        0.00000000       0.00000000       0.00000000       0.28802416       0.55747026       0.11862113
H        0.00000000       0.00000000       0.00000000      -0.40135941      -0.45554689       0.10597734
H        0.00000000       0.00000000       0.00000000       0.04235277      -0.04686618      -0.27727029
O        0.00000000       0.00000000       0.00000000       0.23053452      -0.32479847       0.34111235
H        0.00000000       0.00000000       0.00000000       0.17013840      -0.27669236       0.12996352
H        0.00000000       0.00000000       0.00000000      -0.09149268       0.66784257      -0.56283224
H        0.00000000       0.00000000       0.00000000      -0.23819776      -0.12140900       0.14442825
7
Lattice="529.1772105638412 0.0 0.0 0.0 529.1772105638412 0.0 0.0 0.0 529.1772105638412" Properties=species:S:1:pos:R:3:forces_component_raw:R:3 ipi_comment="Step:        6440  Bead:       0 forces_component_raw{ase}  cell{ase}" pbc="T T T"
O        0.00000000       0.00000000       0.00000000       0.07872656      -0.74333096      -0.77172518
H        0.00000000       0.00000000       0.00000000      -0.19042298       0.33884019       0.40728402
H        0.00000000       0.00000000       0.00000000       0.02780491       0.13890374       0.24774332
O        0.00000000       0.00000000       0.00000000       0.32090098      -0.37844405       0.62610024
H        0.00000000       0.00000000       0.00000000       0.22621802       0.24277821      -0.21842793
H        0.00000000       0.00000000       0.00000000       0.29050919      -0.35668787       0.18089581
H        0.00000000       0.00000000       0.00000000      -0.75373674       0.75794065      -0.47187021
7
Lattice="529.1772105638412 0.0 0.0 0.0 529.1772105638412 0.0 0.0 0.0 529.1772105638412" Properties=species:S:1:pos:R:3:forces_component_raw:R:3 ipi_comment="Step:        6460  Bead:       0 forces_component_raw{ase}  cell{ase}" pbc="T T T"
O        0.00000000       0.00000000       0.00000000      -0.57636106      -0.70864141       0.19703367
H        0.00000000       0.00000000       0.00000000       0.00278033      -0.04149571      -0.18602863
H        0.00000000       0.00000000       0.00000000       0.37252343       1.05173302       0.30769646
O        0.00000000       0.00000000       0.00000000       2.44297958       1.02843738      -0.98922706
H        0.00000000       0.00000000       0.00000000      -0.21805735      -0.49766317       0.04216835
H        0.00000000       0.00000000       0.00000000      -0.71795261      -1.19538391       0.62055588
H        0.00000000       0.00000000       0.00000000      -1.30591226       0.36301380       0.00780138
7
Lattice="529.1772105638412 0.0 0.0 0.0 529.1772105638412 0.0 0.0 0.0 529.1772105638412" Properties=species:S:1:pos:R:3:forces_component_raw:R:3 ipi_comment="Step:        6480  Bead:       0 forces_component_raw{ase}  cell{ase}" pbc="T T T"
O        0.00000000       0.00000000       0.00000000       0.14819467      -0.98648817      -1.00946224
H        0.00000000       0.00000000       0.00000000      -0.16616738      -0.03359988       0.30595160
H        0.00000000       0.00000000       0.00000000       0.03697436       0.90338659       0.77999550
O        0.00000000       0.00000000       0.00000000       0.76142478      -0.05370867       0.26306066
H        0.00000000       0.00000000       0.00000000       0.09662446       0.32795459      -0.46982813
H        0.00000000       0.00000000       0.00000000      -0.16885662      -1.50705445       0.59090543
H        0.00000000       0.00000000       0.00000000      -0.70819426       1.34950996      -0.46062291
7
Lattice="529.1772105638412 0.0 0.0 0.0 529.1772105638412 0.0 0.0 0.0 529.1772105638412" Properties=species:S:1:pos:R:3:forces_component_raw:R:3 ipi_comment="Step:        6500  Bead:       0 forces_component_raw{ase}  cell{ase}" pbc="T T T"
O        0.00000000       0.00000000       0.00000000      -0.08731928      -0.88494075      -0.05981252
H        0.00000000       0.00000000       0.00000000       0.39187616       0.43461368      -0.60317254
H        0.00000000       0.00000000       0.00000000      -0.15671240       0.62753701       0.43993920
O        0.00000000       0.00000000       0.00000000       1.57433188      -0.36121133      -0.50131166
H        0.00000000       0.00000000       0.00000000       0.20212850      -0.24074891       0.25525919
H        0.00000000       0.00000000       0.00000000      -0.74814069      -0.72410727       0.44021452
H        0.00000000       0.00000000       0.00000000      -1.17616415       1.14885760       0.02888364
7
Lattice="529.1772105638412 0.0 0.0 0.0 529.1772105638412 0.0 0.0 0.0 529.1772105638412" Properties=species:S:1:pos:R:3:forces_component_raw:R:3 ipi_comment="Step:        6520  Bead:       0 forces_component_raw{ase}  cell{ase}" pbc="T T T"
O        0.00000000       0.00000000       0.00000000       0.30177343      -0.73633540      -0.17879576
H        0.00000000       0.00000000       0.00000000       0.24312523       0.92905641      -0.11113111
H        0.00000000       0.00000000       0.00000000      -0.21806347      -0.44561416       0.16808170
O        0.00000000       0.00000000       0.00000000       0.38071555      -0.35592246       0.20880193
H        0.00000000       0.00000000       0.00000000      -0.19905737       0.50845003      -0.18425196
H        0.00000000       0.00000000       0.00000000      -0.32992852      -0.66604996       0.28672111
H        0.00000000       0.00000000       0.00000000      -0.17856480       0.76641548      -0.18942596
7
Lattice="529.1772105638412 0.0 0.0 0.0 529.1772105638412 0.0 0.0 0.0 529.1772105638412" Properties=species:S:1:pos:R:3:forces_component_raw:R:3 ipi_comment="Step:        6540  Bead:       0 forces_component_raw{ase}  cell{ase}" pbc="T T T"
O        0.00000000       0.00000000       0.00000000      -0.32963428      -0.54430008       0.97935313
H        0.00000000       0.00000000       0.00000000       0.40739668       0.51903606      -0.68151033
H        0.00000000       0.00000000       0.00000000      -0.02346846      -0.02442157      -0.40961197
O        0.00000000       0.00000000       0.00000000       0.38641283       0.70600534      -0.26783836
H        0.00000000       0.00000000       0.00000000       0.08901295      -0.23422989      -0.02962559
H        0.00000000       0.00000000       0.00000000      -0.24875347      -0.24965116      -0.02274168
H        0.00000000       0.00000000       0.00000000      -0.28096616      -0.17243886       0.43197465
7
Lattice="529.1772105638412 0.0 0.0 0.0 529.1772105638412 0.0 0.0 0.0 529.1772105638412" Properties=species:S:1:pos:R:3:forces_component_raw:R:3 ipi_comment="Step:        6560  Bead:       0 forces_component_raw{ase}  cell{ase}" pbc="T T T"
O        0.00000000       0.00000000       0.00000000      -0.02861300       0.47181347      -0.02462482
H        0.00000000       0.00000000       0.00000000       0.15552594       0.21592933       0.53543151
H        0.00000000       0.00000000       0.00000000      -0.47685054      -0.81300897      -0.39337957
O        0.00000000       0.00000000       0.00000000      -0.67039871       0.99966043       0.03523564
H        0.00000000       0.00000000       0.00000000       0.22397073       0.17948076       0.16792156
H        0.00000000       0.00000000       0.00000000       0.44780058      -0.04839408      -0.22544102
H        0.00000000       0.00000000       0.00000000       0.34856501      -1.00548101      -0.09514315
7
Lattice="529.1772105638412 0.0 0.0 0.0 529.1772105638412 0.0 0.0 0.0 529.1772105638412" Properties=species:S:1:pos:R:3:forces_component_raw:R:3 ipi_comment="Step:        6580  Bead:       0 forces_component_raw{ase}  cell{ase}" pbc="T T T"
O        0.00000000       0.00000000       0.00000000      -0.19395332       0.68378723       1.60511971
H        0.00000000       0.00000000       0.00000000      -0.15412685      -0.21837682      -0.29786089
H        0.00000000       0.00000000       0.00000000      -0.02228141       0.00166622      -0.57355404
O        0.00000000       0.00000000       0.00000000       0.35891187       0.54407174      -0.35130665
H        0.00000000       0.00000000       0.00000000      -0.18001883      -0.20416974      -0.04343291
H        0.00000000       0.00000000       0.00000000       0.20858569       0.66977638       0.25989914
H        0.00000000       0.00000000       0.00000000      -0.01711705      -1.47675503      -0.59886450
7
Lattice="529.1772105638412 0.0 0.0 0.0 529.1772105638412 0.0 0.0 0.0 529.1772105638412" Properties=species:S:1:pos:R:3:forces_component_raw:R:3 ipi_comment="Step:        6600  Bead:       0 forces_component_raw{ase}  cell{ase}" pbc="T T T"
O        0.00000000       0.00000000       0.00000000      -0.39458817       0.16537201      -0.15433657
H        0.00000000       0.00000000       0.00000000       0.06394568       0.21013683       0.57812953
H        0.00000000       0.00000000       0.00000000      -0.14797947      -0.01576462       0.37851453
O        0.00000000       0.00000000       0.00000000      -0.92689699       0.08664310       0.30012605
H        0.00000000       0.00000000       0.00000000       0.02885181       0.13072583      -0.10272967
H        0.00000000       0.00000000       0.00000000       0.64917117       0.37222537       0.06428586
H        0.00000000       0.00000000       0.00000000       0.72749597      -0.94933850      -1.06398976
7
Lattice="529.1772105638412 0.0 0.0 0.0 529.1772105638412 0.0 0.0 0.0 529.1772105638412" Properties=species:S:1:pos:R:3:forces_component_raw:R:3 ipi_comment="Step:        6620  Bead:       0 forces_component_raw{ase}  cell{ase}" pbc="T T T"
O        0.00000000       0.00000000       0.00000000      -0.48907447       0.49452508      -0.00540541
H        0.00000000       0.00000000       0.00000000      -0.42832503      -0.03252528      -0.08631884
H        0.00000000       0.00000000       0.00000000       0.66825521      -0.02263680       0.12046747
O        0.00000000       0.00000000       0.00000000      -0.32587406       0.03837955      -0.28116089
H        0.00000000       0.00000000       0.00000000      -0.00480204      -0.60872406       0.39347360
H        0.00000000       0.00000000       0.00000000       0.78741682       0.94015843       0.02242175
H        0.00000000       0.00000000       0.00000000      -0.20759642      -0.80917680      -0.16347757
7
Lattice="529.1772105638412 0.0 0.0 0.0 529.1772105638412 0.0 0.0 0.0 529.1772105638412" Properties=species:S:1:pos:R:3:forces_component_raw:R:3 ipi_comment="Step:        6640  Bead:       0 forces_component_raw{ase}  cell{ase}" pbc="T T T"
O        0.00000000       0.00000000       0.00000000       0.83402634       0.14424709      -1.86175561
H        0.00000000       0.00000000       0.00000000      -0.25444496      -0.24001269       0.19214998
H        0.00000000       0.00000000       0.00000000      -0.02548939      -0.40214303       1.41638851
O        0.00000000       0.00000000       0.00000000      -0.84622085      -0.88976228       1.10172272
H        0.00000000       0.00000000       0.00000000      -0.42084006       0.52558720      -0.38544649
H        0.00000000       0.00000000       0.00000000       0.61918926      -0.01446420      -0.31302595
H        0.00000000       0.00000000       0.00000000       0.09377962       0.87654782      -0.15003327
7
Lattice="529.1772105638412 0.0 0.0 0.0 529.1772105638412 0.0 0.0 0.0 529.1772105638412" Properties=species:S:1:pos:R:3:forces_component_raw:R:3 ipi_comment="Step:        6660  Bead:       0 forces_component_raw{ase}  cell{ase}" pbc="T T T"
O        0.00000000       0.00000000       0.00000000      -1.23854518       0.51820415      -0.66898751
H        0.00000000       0.00000000       0.00000000       0.67278338      -0.01658671      -0.12111604
H        0.00000000       0.00000000       0.00000000       0.39806101      -0.60476041       0.53839171
O        0.00000000       0.00000000       0.00000000       0.06384344      -1.75376177       0.26235473
H        0.00000000       0.00000000       0.00000000       0.57556570      -0.41498125       0.00766759
H        0.00000000       0.00000000       0.00000000       0.13413805       0.31925806      -0.24658758
H        0.00000000       0.00000000       0.00000000      -0.60584659       1.95262790       0.22827706
7
Lattice="529.1772105638412 0.0 0.0 0.0 529.1772105638412 0.0 0.0 0.0 529.1772105638412" Properties=species:S:1:pos:R:3:forces_component_raw:R:3 ipi_comment="Step:        6680  Bead:       0 forces_component_raw{ase}  cell{ase}" pbc="T T T"
O        0.00000000       0.00000000       0.00000000       0.47459307       0.32439232       0.07119906
H        0.00000000       0.00000000       0.00000000      -0.20180634      -0.00826836      -0.23739901
H        0.00000000       0.00000000       0.00000000      -0.15172005      -0.43799889       0.56480885
O        0.00000000       0.00000000       0.00000000       0.75801802      -0.97748852      -0.41607553
H        0.00000000       0.00000000       0.00000000      -0.35144761       0.21421662      -0.13035183
H        0.00000000       0.00000000       0.00000000      -0.63168121      -0.94170714       0.35075489
H        0.00000000       0.00000000       0.00000000       0.10404435       1.82685411      -0.20293641
7
Lattice="529.1772105638412 0.0 0.0 0.0 529.1772105638412 0.0 0.0 0.0 529.1772105638412" Properties=species:S:1:pos:R:3:forces_component_raw:R:3 ipi_comment="Step:        6700  Bead:       0 forces_component_raw{ase}  cell{ase}" pbc="T T T"
O        0.00000000       0.00000000       0.00000000       0.72084814       0.15174094       0.21607769
H        0.00000000       0.00000000       0.00000000      -0.73683763       0.53457826       0.01772705
H        0.00000000       0.00000000       0.00000000      -0.20062864      -0.29519901       0.18863288
O        0.00000000       0.00000000       0.00000000       1.21311355      -1.23486650      -1.47039271
H        0.00000000       0.00000000       0.00000000       0.04180092       0.06672360       0.14050689
H        0.00000000       0.00000000       0.00000000      -0.81759113      -0.18682510       0.61033249
H        0.00000000       0.00000000       0.00000000      -0.22070533       0.96384788       0.29711562
7
Lattice="529.1772105638412 0.0 0.0 0.0 529.1772105638412 0.0 0.0 0.0 529.1772105638412" Properties=species:S:1:pos:R:3:forces_component_raw:R:3 ipi_comment="Step:        6720  Bead:       0 forces_component_raw{ase}  cell{ase}" pbc="T T T"
O        0.00000000       0.00000000       0.00000000      -0.00702435      -0.62506509       0.90799749
H        0.00000000       0.00000000       0.00000000      -0.57087577       1.14409948      -0.00511844
H        0.00000000       0.00000000       0.00000000       0.27085310       0.15630099      -0.35114980
O        0.00000000       0.00000000       0.00000000       0.30447480      -0.25416327      -0.36875215
H        0.00000000       0.00000000       0.00000000       0.19131464      -0.20311427      -0.08634139
H        0.00000000       0.00000000       0.00000000      -0.69335246      -0.82882810       0.24374190
H        0.00000000       0.00000000       0.00000000       0.50461012       0.61077023      -0.34037784
7
Lattice="529.1772105638412 0.0 0.0 0.0 529.1772105638412 0.0 0.0 0.0 529.1772105638412" Properties=species:S:1:pos:R:3:forces_component_raw:R:3 ipi_comment="Step:        6740  Bead:       0 forces_component_raw{ase}  cell{ase}" pbc="T T T"
O        0.00000000       0.00000000       0.00000000      -0.17164481      -0.91514552       0.75959778
H        0.00000000       0.00000000       0.00000000      -0.03932907       1.35603094      -0.38271678
H        0.00000000       0.00000000       0.00000000       0.31455615      -0.22982028      -0.21923214
O        0.00000000       0.00000000       0.00000000       0.81151778      -0.13173141      -0.78144562
H        0.00000000       0.00000000       0.00000000      -0.25398183       0.05869095       0.08726899
H        0.00000000       0.00000000       0.00000000      -0.39869967       0.19857216       0.48689842
H        0.00000000       0.00000000       0.00000000      -0.26241869      -0.33659685       0.04962938
7
Lattice="529.1772105638412 0.0 0.0 0.0 529.1772105638412 0.0 0.0 0.0 529.1772105638412" Properties=species:S:1:pos:R:3:forces_component_raw:R:3 ipi_comment="Step:        6760  Bead:       0 forces_component_raw{ase}  cell{ase}" pbc="T T T"
O        0.00000000       0.00000000       0.00000000       0.29681939      -1.69401300      -0.17915389
H        0.00000000       0.00000000       0.00000000      -0.32084873       1.04492235      -0.03677237
H        0.00000000       0.00000000       0.00000000      -0.06770119       0.42037046       0.08955990
O        0.00000000       0.00000000       0.00000000       0.12647454       1.85698152       1.65409077
H        0.00000000       0.00000000       0.00000000       0.21036188      -0.11955248      -0.22521468
H        0.00000000       0.00000000       0.00000000       0.14169821      -0.37976793      -0.54375851
H        0.00000000       0.00000000       0.00000000      -0.38680413      -1.12894082      -0.75875127
7
Lattice="529.1772105638412 0.0 0.0 0.0 529.1772105638412 0.0 0.0 0.0 529.1772105638412" Properties=species:S:1:pos:R:3:forces_component_raw:R:3 ipi_comment="Step:        6780  Bead:       0 forces_component_raw{ase}  cell{ase}" pbc="T T T"
O        0.00000000       0.00000000       0.00000000       0.21949069      -1.25265551      -0.40149140
H        0.00000000       0.00000000       0.00000000       0.39840371       0.66851539      -0.48893842
H        0.00000000       0.00000000       0.00000000      -0.57347727      -0.23334989       0.20698670
O        0.00000000       0.00000000       0.00000000       0.84901989       0.87680054       0.14128408
H        0.00000000       0.00000000       0.00000000       0.08158375       0.32074606       0.23987342
H        0.00000000       0.00000000       0.00000000       0.47193974       0.35267770      -0.00231147
H        0.00000000       0.00000000       0.00000000      -1.44696069      -0.73273426       0.30459711
7
Lattice="529.1772105638412 0.0 0.0 0.0 529.1772105638412 0.0 0.0 0.0 529.1772105638412" Properties=species:S:1:pos:R:3:forces_component_raw:R:3 ipi_comment="Step:        6800  Bead:       0 forces_component_raw{ase}  cell{ase}" pbc="T T T"
O        0.00000000       0.00000000       0.00000000       0.80984587       0.25612623       0.00958431
H        0.00000000       0.00000000       0.00000000      -0.03833622      -0.10219833      -0.02905633
H        0.00000000       0.00000000       0.00000000      -0.74751145      -0.20495027      -0.21789320
O        0.00000000       0.00000000       0.00000000      -0.20498052       1.24133659       1.59078670
H        0.00000000       0.00000000       0.00000000       0.31699491      -0.46168044      -0.08330272
H        0.00000000       0.00000000       0.00000000       0.11108395      -0.28197092      -0.61352223
H        0.00000000       0.00000000       0.00000000      -0.24709642      -0.44666275      -0.65659648
7
Lattice="529.1772105638412 0.0 0.0 0.0 529.1772105638412 0.0 0.0 0.0 529.1772105638412" Properties=species:S:1:pos:R:3:forces_component_raw:R:3 ipi_comment="Step:        6820  Bead:       0 forces_component_raw{ase}  cell{ase}" pbc="T T T"
O        0.00000000       0.00000000       0.00000000       2.08274270       0.06471747       0.05854547
H        0.00000000       0.00000000       0.00000000      -0.56362778      -0.63566476      -0.04372525
H        0.00000000       0.00000000       0.00000000      -1.17960549       0.28017217      -0.33527452
O        0.00000000       0.00000000       0.00000000       0.15325481      -0.40731040      -0.51341868
H        0.00000000       0.00000000       0.00000000      -0.17849714       0.53999537       0.34790355
H        0.00000000       0.00000000       0.00000000       0.09200463       0.35208285       0.43119022
H        0.00000000       0.00000000       0.00000000      -0.40627197      -0.19399279       0.05477916
7
Lattice="529.1772105638412 0.0 0.0 0.0 529.1772105638412 0.0 0.0 0.0 529.1772105638412" Properties=species:S:1:pos:R:3:forces_component_raw:R:3 ipi_comment="Step:        6840  Bead:       0 forces_component_raw{ase}  cell{ase}" pbc="T T T"
O        0.00000000       0.00000000       0.00000000       1.13097525       0.96689230       0.71528351
H        0.00000000       0.00000000       0.00000000      -0.17375147      -0.64663667      -0.17052695
H        0.00000000       0.00000000       0.00000000      -1.12710274       0.14800982      -0.06001186
O        0.00000000       0.00000000       0.00000000      -0.30560339      -0.42844752       0.40096158
H        0.00000000       0.00000000       0.00000000      -0.03575426      -0.17212929      -0.07069728
H        0.00000000       0.00000000       0.00000000      -0.13889360      -0.01975045      -0.58439464
H        0.00000000       0.00000000       0.00000000       0.65013027       0.15206179      -0.23061448
7
Lattice="529.1772105638412 0.0 0.0 0.0 529.1772105638412 0.0 0.0 0.0 529.1772105638412" Properties=species:S:1:pos:R:3:forces_component_raw:R:3 ipi_comment="Step:        6860  Bead:       0 forces_component_raw{ase}  cell{ase}" pbc="T T T"
O        0.00000000       0.00000000       0.00000000       0.02474066       0.53789795       0.23806569
H        0.00000000       0.00000000       0.00000000      -0.65149784      -0.55632764      -0.38843048
H        0.00000000       0.00000000       0.00000000       0.34418246       0.20957908       0.14299165
O        0.00000000       0.00000000       0.00000000      -0.21630159      -0.02693975      -1.86094547
H        0.00000000       0.00000000       0.00000000       0.24380264      -0.25586894      -0.05073325
H        0.00000000       0.00000000       0.00000000      -0.09083295       0.08467053       0.55808717
H        0.00000000       0.00000000       0.00000000       0.34590668       0.00698874       1.36096478
7
Lattice="529.1772105638412 0.0 0.0 0.0 529.1772105638412 0.0 0.0 0.0 529.1772105638412" Properties=species:S:1:pos:R:3:forces_component_raw:R:3 ipi_comment="Step:        6880  Bead:       0 forces_component_raw{ase}  cell{ase}" pbc="T T T"
O        0.00000000       0.00000000       0.00000000      -0.44151986       0.76477868       0.34922457
H        0.00000000       0.00000000       0.00000000      -0.60962105      -0.44280440      -0.47547144
H        0.00000000       0.00000000       0.00000000       0.64551878       0.01952618       0.15258117
O        0.00000000       0.00000000       0.00000000       0.17191437      -0.33011177      -0.40618807
H        0.00000000       0.00000000       0.00000000      -0.09817684      -0.15506443       0.29176688
H        0.00000000       0.00000000       0.00000000      -0.67772555      -0.01393449      -0.59488881
H        0.00000000       0.00000000       0.00000000       1.00960994       0.15761012       0.68297577
7
Lattice="529.1772105638412 0.0 0.0 0.0 529.1772105638412 0.0 0.0 0.0 529.1772105638412" Properties=species:S:1:pos:R:3:forces_component_raw:R:3 ipi_comment="Step:        6900  Bead:       0 forces_component_raw{ase}  cell{ase}" pbc="T T T"
O        0.00000000       0.00000000       0.00000000      -0.06003841       0.26956207       0.22277045
H        0.00000000       0.00000000       0.00000000      -0.02498925      -0.29522872      -0.20454714
H        0.00000000       0.00000000       0.00000000      -0.01093465      -0.05452263       0.01366292
O        0.00000000       0.00000000       0.00000000       1.41571760      -0.62588602      -0.48594889
H        0.00000000       0.00000000       0.00000000      -0.04536587       0.41651794      -0.11921066
H        0.00000000       0.00000000       0.00000000      -1.07521057       0.10934354       0.34180564
H        0.00000000       0.00000000       0.00000000      -0.19917905       0.18021378       0.23146775
7
Lattice="529.1772105638412 0.0 0.0 0.0 529.1772105638412 0.0 0.0 0.0 529.1772105638412" Properties=species:S:1:pos:R:3:forces_component_raw:R:3 ipi_comment="Step:        6920  Bead:       0 forces_component_raw{ase}  cell{ase}" pbc="T T T"
O        0.00000000       0.00000000       0.00000000      -0.07252193      -0.71495521      -0.56715852
H        0.00000000       0.00000000       0.00000000       0.36963862       0.51821840       0.54311353
H        0.00000000       0.00000000       0.00000000       0.05435652      -0.14284848      -0.13434669
O        0.00000000       0.00000000       0.00000000      -0.17230886       1.01635874       0.88033492
H        0.00000000       0.00000000       0.00000000      -0.02494054      -0.32046914      -0.25713161
H        0.00000000       0.00000000       0.00000000      -0.80204439       0.02926727      -0.50802893
H        0.00000000       0.00000000       0.00000000       0.64782047      -0.38557160       0.04321730
7
Lattice="529.1772105638412 0.0 0.0 0.0 529.1772105638412 0.0 0.0 0.0 529.1772105638412" Properties=species:S:1:pos:R:3:forces_component_raw:R:3 ipi_comment="Step:        6940  Bead:       0 forces_component_raw{ase}  cell{ase}" pbc="T T T"
O        0.00000000       0.00000000       0.00000000       0.30095846      -0.52800584      -0.47718209
H        0.00000000       0.00000000       0.00000000       0.10609370       0.23404028       0.27366644
H        0.00000000       0.00000000       0.00000000      -0.05399919      -0.16242492      -0.15049621
O        0.00000000       0.00000000       0.00000000       0.28403872      -0.60378432      -0.96286786
H        0.00000000       0.00000000       0.00000000      -0.06904346       0.34722430       0.30396751
H        0.00000000       0.00000000       0.00000000      -0.33880723       0.48510164       0.48488686
H        0.00000000       0.00000000       0.00000000      -0.22924104       0.22784896       0.52802515
7
Lattice="529.1772105638412 0.0 0.0 0.0 529.1772105638412 0.0 0.0 0.0 529.1772105638412" Properties=species:S:1:pos:R:3:forces_component_raw:R:3 ipi_comment="Step:        6960  Bead:       0 forces_component_raw{ase}  cell{ase}" pbc="T T T"
O        0.00000000       0.00000000       0.00000000      -0.00245252       0.30554897       0.25872976
H        0.00000000       0.00000000       0.00000000      -0.07620251      -0.11438574      -0.06721076
H        0.00000000       0.00000000       0.00000000      -0.15572366       0.03803602      -0.00063418
O        0.00000000       0.00000000       0.00000000      -0.07779901       0.60055494       0.35165322
H        0.00000000       0.00000000       0.00000000       0.21310419      -0.29514405      -0.24817458
H        0.00000000       0.00000000       0.00000000      -0.07055908      -0.27893096      -0.36044750
H        0.00000000       0.00000000       0.00000000       0.16963270      -0.25567934       0.06608394
7
Lattice="529.1772105638412 0.0 0.0 0.0 529.1772105638412 0.0 0.0 0.0 529.1772105638412" Properties=species:S:1:pos:R:3:forces_component_raw:R:3 ipi_comment="Step:        6980  Bead:       0 forces_component_raw{ase}  cell{ase}" pbc="T T T"
O        0.00000000       0.00000000       0.00000000       0.39586032       0.65469766       0.20042871
H        0.00000000       0.00000000       0.00000000      -0.19268948      -0.02702428      -0.07389389
H        0.00000000       0.00000000       0.00000000      -0.39705703       0.13525894       0.15002967
O        0.00000000       0.00000000       0.00000000       0.53507674      -0.82697904      -0.48571882
H        0.00000000       0.00000000       0.00000000      -0.13967837      -0.15690611       0.22146501
H        0.00000000       0.00000000       0.00000000       0.04833785      -0.06055173      -0.00203773
H        0.00000000       0.00000000       0.00000000      -0.24985009       0.28150463      -0.01027298
7
Lattice="529.1772105638412 0.0 0.0 0.0 529.1772105638412 0.0 0.0 0.0 529.1772105638412" Properties=species:S:1:pos:R:3:forces_component_raw:R:3 ipi_comment="Step:        7000  Bead:       0 forces_component_raw{ase}  cell{ase}" pbc="T T T"
O        0.00000000       0.00000000       0.00000000      -0.17333141      -0.58309424      -0.42529041
H        0.00000000       0.00000000       0.00000000       0.20326710       0.16685736       0.09876857
H        0.00000000       0.00000000       0.00000000      -0.26163864       0.26070952       0.29917121
O        0.00000000       0.00000000       0.00000000       0.19977653      -0.05431059       0.73046029
H        0.00000000       0.00000000       0.00000000       0.23167867       0.29041874       0.05810565
H        0.00000000       0.00000000       0.00000000      -0.01966450      -0.10456206      -0.22534022
H        0.00000000       0.00000000       0.00000000      -0.18008782       0.02398118      -0.53587508
7
Lattice="529.1772105638412 0.0 0.0 0.0 529.1772105638412 0.0 0.0 0.0 529.1772105638412" Properties=species:S:1:pos:R:3:forces_component_raw:R:3 ipi_comment="Step:        7020  Bead:       0 forces_component_raw{ase}  cell{ase}" pbc="T T T"
O        0.00000000       0.00000000       0.00000000      -0.67588222      -0.05006401       0.13934982
H        0.00000000       0.00000000       0.00000000       0.85205752       0.43893522       0.02858680
H        0.00000000       0.00000000       0.00000000       0.00706136      -0.34236249      -0.36085877
O        0.00000000       0.00000000       0.00000000       0.00384620       0.19094965       1.10623789
H        0.00000000       0.00000000       0.00000000      -0.14982495      -0.30340836      -0.18422534
H        0.00000000       0.00000000       0.00000000       0.11280344      -0.15413967       0.06778628
H        0.00000000       0.00000000       0.00000000      -0.15006147       0.22008964      -0.79687673
7
Lattice="529.1772105638412 0.0 0.0 0.0 529.1772105638412 0.0 0.0 0.0 529.1772105638412" Properties=species:S:1:pos:R:3:forces_component_raw:R:3 ipi_comment="Step:        7040  Bead:       0 forces_component_raw{ase}  cell{ase}" pbc="T T T"
O        0.00000000       0.00000000       0.00000000      -0.76671028       0.01100414       0.14782903
H        0.00000000       0.00000000       0.00000000       0.36908671       0.23359010       0.45110172
H        0.00000000       0.00000000       0.00000000       0.58075827       0.03389099      -0.55601251
O        0.00000000       0.00000000       0.00000000      -0.05077004       0.27562547      -0.05640812
H        0.00000000       0.00000000       0.00000000      -0.24208304      -0.29098931      -0.02246549
H        0.00000000       0.00000000       0.00000000       0.02461760      -0.30863532       0.47507018
H        0.00000000       0.00000000       0.00000000       0.08510085       0.04551390      -0.43911475
7
Lattice="529.1772105638412 0.0 0.0 0.0 529.1772105638412 0.0 0.0 0.0 529.1772105638412" Properties=species:S:1:pos:R:3:forces_component_raw:R:3 ipi_comment="Step:        7060  Bead:       0 forces_component_raw{ase}  cell{ase}" pbc="T T T"
O        0.00000000       0.00000000       0.00000000      -1.36967528      -0.57926422       1.47914648
H        0.00000000       0.00000000       0.00000000       0.58720327       0.14742950      -0.18762156
H        0.00000000       0.00000000       0.00000000       0.36244249       0.26233167      -0.91322929
O        0.00000000       0.00000000       0.00000000       0.78518224       0.84802646      -0.73097843
H        0.00000000       0.00000000       0.00000000       0.37135774       0.58775395      -0.16408639
H        0.00000000       0.00000000       0.00000000      -0.63821328      -0.89276219       0.55490917
H        0.00000000       0.00000000       0.00000000      -0.09829712      -0.37351507      -0.03814012
7
Lattice="529.1772105638412 0.0 0.0 0.0 529.1772105638412 0.0 0.0 0.0 529.1772105638412" Properties=species:S:1:pos:R:3:forces_component_raw:R:3 ipi_comment="Step:        7080  Bead:       0 forces_component_raw{ase}  cell{ase}" pbc="T T T"
O        0.00000000       0.00000000       0.00000000       0.75764972       0.80910218       0.27156812
H        0.00000000       0.00000000       0.00000000      -0.75739324      -0.43624818       0.07247376
H        0.00000000       0.00000000       0.00000000       0.15739530       0.01645297      -0.12971383
O        0.00000000       0.00000000       0.00000000       0.69582647      -0.04683855      -0.11377990
H        0.00000000       0.00000000       0.00000000      -0.48040748      -0.01341977       0.18560301
H        0.00000000       0.00000000       0.00000000      -0.35378206      -0.28858846       0.66886056
H        0.00000000       0.00000000       0.00000000      -0.01928872      -0.04046017      -0.95501161
7
Lattice="529.1772105638412 0.0 0.0 0.0 529.1772105638412 0.0 0.0 0.0 529.1772105638412" Properties=species:S:1:pos:R:3:forces_component_raw:R:3 ipi_comment="Step:        7100  Bead:       0 forces_component_raw{ase}  cell{ase}" pbc="T T T"
O        0.00000000       0.00000000       0.00000000       1.95314432       1.87257052      -1.12775994
H        0.00000000       0.00000000       0.00000000      -1.59810329      -1.81894756      -0.08008379
H        0.00000000       0.00000000       0.00000000      -0.43799791      -0.19243163       1.07512164
O        0.00000000       0.00000000       0.00000000      -0.54248661       1.29567492       1.83077121
H        0.00000000       0.00000000       0.00000000       0.56618923      -0.78920126      -0.45974445
H        0.00000000       0.00000000       0.00000000       0.06371952      -0.19412762      -0.19197562
H        0.00000000       0.00000000       0.00000000      -0.00446540      -0.17353720      -1.04632902
7
Lattice="529.1772105638412 0.0 0.0 0.0 529.1772105638412 0.0 0.0 0.0 529.1772105638412" Properties=species:S:1:pos:R:3:forces_component_raw:R:3 ipi_comment="Step:        7120  Bead:       0 forces_component_raw{ase}  cell{ase}" pbc="T T T"
O        0.00000000       0.00000000       0.00000000       2.02224303      -0.03496373      -1.94596494
H        0.00000000       0.00000000       0.00000000      -1.31972051      -1.32807780       0.59898430
H        0.00000000       0.00000000       0.00000000      -0.20005180       0.27449682       0.78888726
O        0.00000000       0.00000000       0.00000000      -0.12685379      -0.54295415      -0.10658927
H        0.00000000       0.00000000       0.00000000      -0.48246223       0.88393927       0.41443685
H        0.00000000       0.00000000       0.00000000       0.06466198       0.29116094       0.17042989
H        0.00000000       0.00000000       0.00000000       0.04218324       0.45639864       0.07981581
7
Lattice="529.1772105638412 0.0 0.0 0.0 529.1772105638412 0.0 0.0 0.0 529.1772105638412" Properties=species:S:1:pos:R:3:forces_component_raw:R:3 ipi_comment="Step:        7140  Bead:       0 forces_component_raw{ase}  cell{ase}" pbc="T T T"
O        0.00000000       0.00000000       0.00000000       0.36577937       1.20900417       0.17315611
H        0.00000000       0.00000000       0.00000000      -0.38150293      -0.73246807      -0.13768643
H        0.00000000       0.00000000       0.00000000      -0.14726597      -0.24784991       0.06752145
O        0.00000000       0.00000000       0.00000000      -0.57199216       0.01083094      -0.67346943
H        0.00000000       0.00000000       0.00000000       0.40103200      -0.56505799      -0.50497234
H        0.00000000       0.00000000       0.00000000       0.13966627       0.39014208      -0.62934625
H        0.00000000       0.00000000       0.00000000       0.19428337      -0.06460118       1.70479703
7
Lattice="529.1772105638412 0.0 0.0 0.0 529.1772105638412 0.0 0.0 0.0 529.1772105638412" Properties=species:S:1:pos:R:3:forces_component_raw:R:3 ipi_comment="Step:        7160  Bead:       0 forces_component_raw{ase}  cell{ase}" pbc="T T T"
O        0.00000000       0.00000000       0.00000000      -0.95739120      -0.27033144       1.19999385
H        0.00000000       0.00000000       0.00000000       0.43234527       0.62851614       0.34766913
H        0.00000000       0.00000000       0.00000000       0.50270885       0.25873604      -1.37571204
O        0.00000000       0.00000000       0.00000000      -0.20851220      -1.75033451      -1.74274338
H        0.00000000       0.00000000       0.00000000      -0.29960167      -0.10643319       0.20406979
H        0.00000000       0.00000000       0.00000000       0.10558177       0.68981135      -0.03428626
H        0.00000000       0.00000000       0.00000000       0.42486915       0.55003554       1.40100921
7
Lattice="529.1772105638412 0.0 0.0 0.0 529.1772105638412 0.0 0.0 0.0 529.1772105638412" Properties=species:S:1:pos:R:3:forces_component_raw:R:3 ipi_comment="Step:        7180  Bead:       0 forces_component_raw{ase}  cell{ase}" pbc="T T T"
O        0.00000000       0.00000000       0.00000000      -1.32594288      -0.40768790       2.29559899
H        0.00000000       0.00000000       0.00000000       0.97928858       0.56406707      -0.68364364
H        0.00000000       0.00000000       0.00000000       0.10438585      -0.24425095      -1.48861337
O        0.00000000       0.00000000       0.00000000      -0.04167974      -0.59291995      -0.55854321
H        0.00000000       0.00000000       0.00000000       0.13409889       0.43470675      -0.01607186
H        0.00000000       0.00000000       0.00000000      -0.11079728       0.22454391      -0.48648143
H        0.00000000       0.00000000       0.00000000       0.26064673       0.02154095       0.93775428
7
Lattice="529.1772105638412 0.0 0.0 0.0 529.1772105638412 0.0 0.0 0.0 529.1772105638412" Properties=species:S:1:pos:R:3:forces_component_raw:R:3 ipi_comment="Step:        7200  Bead:       0 forces_component_raw{ase}  cell{ase}" pbc="T T T"
O        0.00000000       0.00000000       0.00000000      -0.28540281      -0.31905589       0.13228282
H        0.00000000       0.00000000       0.00000000       0.08909860       0.30806938       0.28246543
H        0.00000000       0.00000000       0.00000000       0.33112836       0.08650076      -0.45229158
O        0.00000000       0.00000000       0.00000000      -0.06765781      -0.20109814      -0.47676402
H        0.00000000       0.00000000       0.00000000      -0.23164517      -0.05267615       0.02284772
H        0.00000000       0.00000000       0.00000000      -0.04771118       0.01584178       0.02398014
H        0.00000000       0.00000000       0.00000000       0.21218997       0.16241825       0.46747953
7
Lattice="529.1772105638412 0.0 0.0 0.0 529.1772105638412 0.0 0.0 0.0 529.1772105638412" Properties=species:S:1:pos:R:3:forces_component_raw:R:3 ipi_comment="Step:        7220  Bead:       0 forces_component_raw{ase}  cell{ase}" pbc="T T T"
O        0.00000000       0.00000000       0.00000000      -0.15023321      -0.74004412      -0.14129169
H        0.00000000       0.00000000       0.00000000       0.10639071       0.04885915      -0.00750324
H        0.00000000       0.00000000       0.00000000       0.04514042       0.02560031      -0.01606900
O        0.00000000       0.00000000       0.00000000      -0.42023999       0.94988764       0.24607398
H        0.00000000       0.00000000       0.00000000       0.47855365       0.00643925      -0.10177048
H        0.00000000       0.00000000       0.00000000       0.05846880      -0.32043657       0.35508946
H        0.00000000       0.00000000       0.00000000      -0.11808039       0.02969435      -0.33452880
7
Lattice="529.1772105638412 0.0 0.0 0.0 529.1772105638412 0.0 0.0 0.0 529.1772105638412" Properties=species:S:1:pos:R:3:forces_component_raw:R:3 ipi_comment="Step:        7240  Bead:       0 forces_component_raw{ase}  cell{ase}" pbc="T T T"
O        0.00000000       0.00000000       0.00000000       0.82982004      -0.58082223      -0.55206394
H        0.00000000       0.00000000       0.00000000      -0.17293182       0.09165630      -0.02796590
H        0.00000000       0.00000000       0.00000000      -0.17401850      -0.04406215       0.19266650
O        0.00000000       0.00000000       0.00000000       0.13529971       1.56135083      -0.77067894
H        0.00000000       0.00000000       0.00000000      -0.46388486       0.19401589       0.43783337
H        0.00000000       0.00000000       0.00000000      -0.04671887      -1.15589464       0.71095503
H        0.00000000       0.00000000       0.00000000      -0.10756573      -0.06624399       0.00925374
7
Lattice="529.1772105638412 0.0 0.0 0.0 529.1772105638412 0.0 0.0 0.0 529.1772105638412" Properties=species:S:1:pos:R:3:forces_component_raw:R:3 ipi_comment="Step:        7260  Bead:       0 forces_component_raw{ase}  cell{ase}" pbc="T T T"
O        0.00000000       0.00000000       0.00000000       0.49744934      -0.14561087      -0.31191120
H        0.00000000       0.00000000       0.00000000      -0.19280425      -0.52816826       0.06352112
H        0.00000000       0.00000000       0.00000000      -0.51710302       0.48687941       0.41922322
O        0.00000000       0.00000000       0.00000000       0.11187542       1.24191833      -0.05579805
H        0.00000000       0.00000000       0.00000000       0.28237847      -0.02311650      -0.44038865
H        0.00000000       0.00000000       0.00000000       0.22107658      -0.97288954       0.78971923
H        0.00000000       0.00000000       0.00000000      -0.40287277      -0.05901252      -0.46436557
7
Lattice="529.1772105638412 0.0 0.0 0.0 529.1772105638412 0.0 0.0 0.0 529.1772105638412" Properties=species:S:1:pos:R:3:forces_component_raw:R:3 ipi_comment="Step:        7280  Bead:       0 forces_component_raw{ase}  cell{ase}" pbc="T T T"
O        0.00000000       0.00000000       0.00000000       0.60062242       0.56441379      -0.35385850
H        0.00000000       0.00000000       0.00000000      -0.27571675      -0.46648979       0.11383975
H        0.00000000       0.00000000       0.00000000      -0.50107968       0.37943143       0.31155619
O        0.00000000       0.00000000       0.00000000       0.27953079       0.73359054      -0.78189051
H        0.00000000       0.00000000       0.00000000      -0.13387391      -0.07108234       0.34891808
H        0.00000000       0.00000000       0.00000000       0.29546487      -0.71297228       0.91846585
H        0.00000000       0.00000000       0.00000000      -0.26494768      -0.42689154      -0.55703080
7
Lattice="529.1772105638412 0.0 0.0 0.0 529.1772105638412 0.0 0.0 0.0 529.1772105638412" Properties=species:S:1:pos:R:3:forces_component_raw:R:3 ipi_comment="Step:        7300  Bead:       0 forces_component_raw{ase}  cell{ase}" pbc="T T T"
O        0.00000000       0.00000000       0.00000000      -0.30673516      -0.41504935       0.18262360
H        0.00000000       0.00000000       0.00000000       0.38322777       0.29017505      -0.13870159
H        0.00000000       0.00000000       0.00000000      -0.21223694       0.21706897       0.19659664
O        0.00000000       0.00000000       0.00000000       0.35770655       0.85803414       0.28742355
H        0.00000000       0.00000000       0.00000000      -0.16822210       0.29451430      -0.38085175
H        0.00000000       0.00000000       0.00000000       0.40717563      -0.52930230       0.53376877
H        0.00000000       0.00000000       0.00000000      -0.46091578      -0.71544099      -0.68085921
7
Lattice="529.1772105638412 0.0 0.0 0.0 529.1772105638412 0.0 0.0 0.0 529.1772105638412" Properties=species:S:1:pos:R:3:forces_component_raw:R:3 ipi_comment="Step:        7320  Bead:       0 forces_component_raw{ase}  cell{ase}" pbc="T T T"
O        0.00000000       0.00000000       0.00000000      -0.97570950      -0.07123035       0.20710829
H        0.00000000       0.00000000       0.00000000       0.42156059       0.38173536      -0.10655584
H        0.00000000       0.00000000       0.00000000       0.59475124      -0.31844926      -0.23520282
O        0.00000000       0.00000000       0.00000000      -0.36317962       0.39435011      -0.13911319
H        0.00000000       0.00000000       0.00000000       0.32723308      -0.15717366       0.43009755
H        0.00000000       0.00000000       0.00000000       0.06225684       0.22495943       0.19466537
H        0.00000000       0.00000000       0.00000000      -0.06691271      -0.45419160      -0.35099942
7
Lattice="529.1772105638412 0.0 0.0 0.0 529.1772105638412 0.0 0.0 0.0 529.1772105638412" Properties=species:S:1:pos:R:3:forces_component_raw:R:3 ipi_comment="Step:        7340  Bead:       0 forces_component_raw{ase}  cell{ase}" pbc="T T T"
O        0.00000000       0.00000000       0.00000000      -0.26867828       0.13280234       0.05295923
H        0.00000000       0.00000000       0.00000000      -0.37726316       0.10703023       0.21557072
H        0.00000000       0.00000000       0.00000000       0.92444992      -0.03137660      -0.30339071
O        0.00000000       0.00000000       0.00000000       0.76792795      -0.42144883       0.77150977
H        0.00000000       0.00000000       0.00000000      -0.55677080      -0.07094076      -0.13799404
H        0.00000000       0.00000000       0.00000000      -0.37118915       0.24585682      -0.51456463
H        0.00000000       0.00000000       0.00000000      -0.11847639       0.03807699      -0.08409035
7
Lattice="529.1772105638412 0.0 0.0 0.0 529.1772105638412 0.0 0.0 0.0 529.1772105638412" Properties=species:S:1:pos:R:3:forces_component_raw:R:3 ipi_comment="Step:        7360  Bead:       0 forces_component_raw{ase}  cell{ase}" pbc="T T T"
O        0.00000000       0.00000000       0.00000000      -0.97633374       1.37152863       0.30052811
H        0.00000000       0.00000000       0.00000000      -0.07909644      -0.55773443       0.06464039
H        0.00000000       0.00000000       0.00000000       0.67933673      -0.31704134      -0.29106569
O        0.00000000       0.00000000       0.00000000       0.61220586      -1.74874640       0.67326212
H        0.00000000       0.00000000       0.00000000       0.38626450       0.03537983      -0.00592789
H        0.00000000       0.00000000       0.00000000      -1.28999234       0.73693669      -1.02305138
H        0.00000000       0.00000000       0.00000000       0.66761553       0.47967696       0.28161430
7
Lattice="529.1772105638412 0.0 0.0 0.0 529.1772105638412 0.0 0.0 0.0 529.1772105638412" Properties=species:S:1:pos:R:3:forces_component_raw:R:3 ipi_comment="Step:        7380  Bead:       0 forces_component_raw{ase}  cell{ase}" pbc="T T T"
O        0.00000000       0.00000000       0.00000000       0.87026704       1.00395692      -0.49124766
H        0.00000000       0.00000000       0.00000000      -0.93409997      -0.92551750       0.41597927
H        0.00000000       0.00000000       0.00000000      -0.07863113       0.32948536      -0.01331529
O        0.00000000       0.00000000       0.00000000       0.93437588      -2.35601831       0.82750213
H        0.00000000       0.00000000       0.00000000      -0.27143613      -0.15441592       0.15821736
H        0.00000000       0.00000000       0.00000000      -1.67361677       1.01259017      -1.19824958
H        0.00000000       0.00000000       0.00000000       1.15314102       1.08991933       0.30111378
7
Lattice="529.1772105638412 0.0 0.0 0.0 529.1772105638412 0.0 0.0 0.0 529.1772105638412" Properties=species:S:1:pos:R:3:forces_component_raw:R:3 ipi_comment="Step:        7400  Bead:       0 forces_component_raw{ase}  cell{ase}" pbc="T T T"
O        0.00000000       0.00000000       0.00000000       0.35661966       0.39020091      -0.37088871
H        0.00000000       0.00000000       0.00000000      -0.12816569      -0.59223384       0.02521506
H        0.00000000       0.00000000       0.00000000      -0.63740403       0.06913030       0.37620115
O        0.00000000       0.00000000       0.00000000       0.11728317      -1.80826712       1.06194985
H        0.00000000       0.00000000       0.00000000       0.87233174       0.00498547      -0.01492034
H        0.00000000       0.00000000       0.00000000      -1.77721715       1.12537873      -1.03957963
H        0.00000000       0.00000000       0.00000000       1.19655228       0.81080580      -0.03797738
7
Lattice="529.1772105638412 0.0 0.0 0.0 529.1772105638412 0.0 0.0 0.0 529.1772105638412" Properties=species:S:1:pos:R:3:forces_component_raw:R:3 ipi_comment="Step:        7420  Bead:       0 forces_component_raw{ase}  cell{ase}" pbc="T T T"
O        0.00000000       0.00000000       0.00000000       1.71193791      -0.53587318      -1.33344770
H        0.00000000       0.00000000       0.00000000      -0.27218461      -0.16562831       0.07545525
H        0.00000000       0.00000000       0.00000000      -0.90483606       0.06040409       1.12169457
O        0.00000000       0.00000000       0.00000000      -0.15250942       0.02386981       0.36451590
H        0.00000000       0.00000000       0.00000000      -0.85859186      -0.11274469      -0.07331860
H        0.00000000       0.00000000       0.00000000      -0.40422821      -0.22371164      -0.18884188
H        0.00000000       0.00000000       0.00000000       0.88041246       0.95368397       0.03394251
7
Lattice="529.1772105638412 0.0 0.0 0.0 529.1772105638412 0.0 0.0 0.0 529.1772105638412" Properties=species:S:1:pos:R:3:forces_component_raw:R:3 ipi_comment="Step:        7440  Bead:       0 forces_component_raw{ase}  cell{ase}" pbc="T T T"
O        0.00000000       0.00000000       0.00000000      -0.47431687      -0.96753192      -1.24616432
H        0.00000000       0.00000000       0.00000000       0.50935239       0.29871422      -0.04123837
H        0.00000000       0.00000000       0.00000000      -0.26048905       0.26693702       1.07464075
O        0.00000000       0.00000000       0.00000000      -1.72946513      -0.33274070      -0.21746163
H        0.00000000       0.00000000       0.00000000       1.04989839      -0.05174971       0.36898819
H        0.00000000       0.00000000       0.00000000       0.49194569       0.41365638       0.29228240
H        0.00000000       0.00000000       0.00000000       0.41307455       0.37271470      -0.23104708
7
Lattice="529.1772105638412 0.0 0.0 0.0 529.1772105638412 0.0 0.0 0.0 529.1772105638412" Properties=species:S:1:pos:R:3:forces_component_raw:R:3 ipi_comment="Step:        7460  Bead:       0 forces_component_raw{ase}  cell{ase}" pbc="T T T"
O        0.00000000       0.00000000       0.00000000      -0.34185991      -0.09363025       0.21665271
H        0.00000000       0.00000000       0.00000000       0.55554837       0.39819163      -0.25743148
H        0.00000000       0.00000000       0.00000000      -0.00414403       0.21959978       0.18667790
O        0.00000000       0.00000000       0.00000000      -0.22571555       0.56291175      -0.72443342
H        0.00000000       0.00000000       0.00000000      -0.82114011      -0.34780422      -0.18322575
H        0.00000000       0.00000000       0.00000000       0.76211572      -0.51288575       0.47182688
H        0.00000000       0.00000000       0.00000000       0.07519549      -0.22638269       0.28993326
7
Lattice="529.1772105638412 0.0 0.0 0.0 529.1772105638412 0.0 0.0 0.0 529.1772105638412" Properties=species:S:1:pos:R:3:forces_component_raw:R:3 ipi_comment="Step:        7480  Bead:       0 forces_component_raw{ase}  cell{ase}" pbc="T T T"
O        0.00000000       0.00000000       0.00000000      -0.34858400       0.65692371       0.84318227
H        0.00000000       0.00000000       0.00000000       0.15003416      -0.20813936      -0.07223880
H        0.00000000       0.00000000       0.00000000      -0.03124933      -0.15041371      -0.50256652
O        0.00000000       0.00000000       0.00000000      -1.04094482      -0.81935454      -0.63515353
H        0.00000000       0.00000000       0.00000000       0.32288545       0.40152267      -0.09488940
H        0.00000000       0.00000000       0.00000000       1.21418679       0.49067411       0.52546287
H        0.00000000       0.00000000       0.00000000      -0.26632837      -0.37121296      -0.06379694
7
Lattice="529.1772105638412 0.0 0.0 0.0 529.1772105638412 0.0 0.0 0.0 529.1772105638412" Properties=species:S:1:pos:R:3:forces_component_raw:R:3 ipi_comment="Step:        7500  Bead:       0 forces_component_raw{ase}  cell{ase}" pbc="T T T"
O        0.00000000       0.00000000       0.00000000      -0.23914266       0.63364893       1.78938675
H        0.00000000       0.00000000       0.00000000       0.23259197       0.76200748      -0.62880111
H        0.00000000       0.00000000       0.00000000       0.04344159      -0.98287469      -1.48554457
O        0.00000000       0.00000000       0.00000000      -0.17126411       0.93972779      -0.40895701
H        0.00000000       0.00000000       0.00000000      -0.12524065      -0.19814245       0.40748710
H        0.00000000       0.00000000       0.00000000       0.42107648      -0.31325460       0.19305594
H        0.00000000       0.00000000       0.00000000      -0.16146275      -0.84111262       0.13337302
7
Lattice="529.1772105638412 0.0 0.0 0.0 529.1772105638412 0.0 0.0 0.0 529.1772105638412" Properties=species:S:1:pos:R:3:forces_component_raw:R:3 ipi_comment="Step:        7520  Bead:       0 forces_component_raw{ase}  cell{ase}" pbc="T T T"
O        0.00000000       0.00000000       0.00000000       0.42689648       0.30543315       2.57195807
H        0.00000000       0.00000000       0.00000000      -0.01022706       0.40562323      -0.65167451
H        0.00000000       0.00000000       0.00000000      -0.37465417      -0.95020211      -1.50663519
O        0.00000000       0.00000000       0.00000000       1.57168961      -0.53458679       0.75229919
H        0.00000000       0.00000000       0.00000000       0.04419667       0.13001871      -0.70423502
H        0.00000000       0.00000000       0.00000000      -0.89888442       0.70168644      -0.38525248
H        0.00000000       0.00000000       0.00000000      -0.75901705      -0.05797274      -0.07646021
7
Lattice="529.1772105638412 0.0 0.0 0.0 529.1772105638412 0.0 0.0 0.0 529.1772105638412" Properties=species:S:1:pos:R:3:forces_component_raw:R:3 ipi_comment="Step:        7540  Bead:       0 forces_component_raw{ase}  cell{ase}" pbc="T T T"
O        0.00000000       0.00000000       0.00000000       0.32639343      -0.49320257       0.27378675
H        0.00000000       0.00000000       0.00000000      -0.31082362       0.51470554      -0.03989777
H        0.00000000       0.00000000       0.00000000      -0.06652091      -0.70482069      -0.71561098
O        0.00000000       0.00000000       0.00000000       0.90127564      -0.10889447       0.08055002
H        0.00000000       0.00000000       0.00000000       0.36734402       0.29222497       0.48123005
H        0.00000000       0.00000000       0.00000000      -2.06006694       0.46401572       0.01596287
H        0.00000000       0.00000000       0.00000000       0.84239835       0.03597152      -0.09602089
7
Lattice="529.1772105638412 0.0 0.0 0.0 529.1772105638412 0.0 0.0 0.0 529.1772105638412" Properties=species:S:1:pos:R:3:forces_component_raw:R:3 ipi_comment="Step:        7560  Bead:       0 forces_component_raw{ase}  cell{ase}" pbc="T T T"
O        0.00000000       0.00000000       0.00000000       0.22820747      -0.30085409       0.17129506
H        0.00000000       0.00000000       0.00000000      -0.00836410      -0.22809047      -0.12483567
H        0.00000000       0.00000000       0.00000000      -0.03280831       0.37614679       0.45072842
O        0.00000000       0.00000000       0.00000000       1.67597855      -2.26532555       0.22205213
H        0.00000000       0.00000000       0.00000000      -0.41308510      -0.21656510      -0.56492329
H        0.00000000       0.00000000       0.00000000      -1.94114089       1.33849645       0.37293130
H        0.00000000       0.00000000       0.00000000       0.49121249       1.29619170      -0.52724785
7
Lattice="529.1772105638412 0.0 0.0 0.0 529.1772105638412 0.0 0.0 0.0 529.1772105638412" Properties=species:S:1:pos:R:3:forces_component_raw:R:3 ipi_comment="Step:        7580  Bead:       0 forces_component_raw{ase}  cell{ase}" pbc="T T T"
O        0.00000000       0.00000000       0.00000000      -1.04192662      -1.14674485      -1.94174600
H        0.00000000       0.00000000       0.00000000       0.08652803      -0.09674160       0.65058625
H        0.00000000       0.00000000       0.00000000       0.60878521       1.39026392       0.98831272
O        0.00000000       0.00000000       0.00000000       0.16001374      -0.92935240      -0.08553225
H        0.00000000       0.00000000       0.00000000       0.55908382      -0.03942989       0.37033188
H        0.00000000       0.00000000       0.00000000      -1.54289890       0.22852288       0.87184167
H        0.00000000       0.00000000       0.00000000       1.17041493       0.59348178      -0.85379422
7
Lattice="529.1772105638412 0.0 0.0 0.0 529.1772105638412 0.0 0.0 0.0 529.1772105638412" Properties=species:S:1:pos:R:3:forces_component_raw:R:3 ipi_comment="Step:        7600  Bead:       0 forces_component_raw{ase}  cell{ase}" pbc="T T T"
O        0.00000000       0.00000000       0.00000000      -0.27182832      -1.52149976      -0.28859514
H        0.00000000       0.00000000       0.00000000       0.02722117      -0.21815884      -0.03254890
H        0.00000000       0.00000000       0.00000000       0.71755552       1.64250350       0.59453285
O        0.00000000       0.00000000       0.00000000      -0.14207163      -2.15040732       1.00558698
H        0.00000000       0.00000000       0.00000000      -0.59979731       0.40509647      -0.38209626
H        0.00000000       0.00000000       0.00000000      -0.12296712       0.46934202      -0.06587666
H        0.00000000       0.00000000       0.00000000       0.39188755       1.37312389      -0.83100295
7
Lattice="529.1772105638412 0.0 0.0 0.0 529.1772105638412 0.0 0.0 0.0 529.1772105638412" Properties=species:S:1:pos:R:3:forces_component_raw:R:3 ipi_comment="Step:        7620  Bead:       0 forces_component_raw{ase}  cell{ase}" pbc="T T T"
O        0.00000000       0.00000000       0.00000000      -1.69228781      -0.12315318      -0.48878422
H        0.00000000       0.00000000       0.00000000      -0.01102158       0.10604642      -0.20024437
H        0.00000000       0.00000000       0.00000000       1.26966536       0.81584186       0.21223518
O        0.00000000       0.00000000       0.00000000      -0.69964063      -0.68751019       1.32978881
H        0.00000000       0.00000000       0.00000000       0.20083612      -0.22600710       0.60232020
H        0.00000000       0.00000000       0.00000000       0.56841493      -0.43985999      -0.63281405
H        0.00000000       0.00000000       0.00000000       0.36403364       0.55464220      -0.82250154
7
Lattice="529.1772105638412 0.0 0.0 0.0 529.1772105638412 0.0 0.0 0.0 529.1772105638412" Properties=species:S:1:pos:R:3:forces_component_raw:R:3 ipi_comment="Step:        7640  Bead:       0 forces_component_raw{ase}  cell{ase}" pbc="T T T"
O        0.00000000       0.00000000       0.00000000      -0.26040214       0.47081989       0.69322252
H        0.00000000       0.00000000       0.00000000      -0.31494540      -0.02615239      -0.61620134
H        0.00000000       0.00000000       0.00000000       0.37202397      -0.15030099       0.01238780
O        0.00000000       0.00000000       0.00000000      -0.78647065       0.09520640       1.89455009
H        0.00000000       0.00000000       0.00000000       0.14401345      -0.15778257      -0.33903286
H        0.00000000       0.00000000       0.00000000       0.85465175      -0.43551508      -1.73223794
H        0.00000000       0.00000000       0.00000000      -0.00887106       0.20372477       0.08731169
7
Lattice="529.1772105638412 0.0 0.0 0.0 529.1772105638412 0.0 0.0 0.0 529.1772105638412" Properties=species:S:1:pos:R:3:forces_component_raw:R:3 ipi_comment="Step:        7660  Bead:       0 forces_component_raw{ase}  cell{ase}" pbc="T T T"
O        0.00000000       0.00000000       0.00000000       1.90932179      -0.72675073       1.17000437
H        0.00000000       0.00000000       0.00000000      -0.85362435       0.30886546      -1.03200686
H        0.00000000       0.00000000       0.00000000      -0.58253896      -0.49939570       0.03744358
O        0.00000000       0.00000000       0.00000000      -1.15232110       2.91295911       0.26036063
H        0.00000000       0.00000000       0.00000000      -0.23224938       0.15096027      -0.03491478
H        0.00000000       0.00000000       0.00000000       0.85354763      -1.57104648      -1.12630630
H        0.00000000       0.00000000       0.00000000       0.05786414      -0.57559192       0.72541940
7
Lattice="529.1772105638412 0.0 0.0 0.0 529.1772105638412 0.0 0.0 0.0 529.1772105638412" Properties=species:S:1:pos:R:3:forces_component_raw:R:3 ipi_comment="Step:        7680  Bead:       0 forces_component_raw{ase}  cell{ase}" pbc="T T T"
O        0.00000000       0.00000000       0.00000000       1.44705451       0.18467507       0.56964433
H        0.00000000       0.00000000       0.00000000      -0.95385295       0.37985140      -0.65513349
H        0.00000000       0.00000000       0.00000000      -0.66870934      -0.95528817       0.17055561
O        0.00000000       0.00000000       0.00000000      -0.00159687       0.43963188      -1.03655458
H        0.00000000       0.00000000       0.00000000       0.34718180       0.10847445       0.06622964
H        0.00000000       0.00000000       0.00000000       0.23950750      -0.21278268      -0.42163873
H        0.00000000       0.00000000       0.00000000      -0.40958470       0.05543816       1.30689705
7
Lattice="529.1772105638412 0.0 0.0 0.0 529.1772105638412 0.0 0.0 0.0 529.1772105638412" Properties=species:S:1:pos:R:3:forces_component_raw:R:3 ipi_comment="Step:        7700  Bead:       0 forces_component_raw{ase}  cell{ase}" pbc="T T T"
O        0.00000000       0.00000000       0.00000000       0.79068554       1.59165252      -0.30269587
H        0.00000000       0.00000000       0.00000000       0.03184795       0.01498476       0.06419162
H        0.00000000       0.00000000       0.00000000      -0.98981810      -0.98002494       0.25180107
O        0.00000000       0.00000000       0.00000000       0.57130438      -0.49985421      -1.42424620
H        0.00000000       0.00000000       0.00000000      -0.04297185      -0.11543745      -0.08014181
H        0.00000000       0.00000000       0.00000000      -0.07822014       0.48072010       0.91716123
H        0.00000000       0.00000000       0.00000000      -0.28282765      -0.49204099       0.57392991
7
Lattice="529.1772105638412 0.0 0.0 0.0 529.1772105638412 0.0 0.0 0.0 529.1772105638412" Properties=species:S:1:pos:R:3:forces_component_raw:R:3 ipi_comment="Step:        7720  Bead:       0 forces_component_raw{ase}  cell{ase}" pbc="T T T"
O        0.00000000       0.00000000       0.00000000       0.09542927       2.03163410      -1.04969502
H        0.00000000       0.00000000       0.00000000       0.83271182      -0.03731382       0.52616775
H        0.00000000       0.00000000       0.00000000      -1.18108845      -1.51542783       0.28937024
O        0.00000000       0.00000000       0.00000000       0.20828043      -2.37793303      -1.32778836
H        0.00000000       0.00000000       0.00000000      -0.02499416       0.33107662       0.10507656
H        0.00000000       0.00000000       0.00000000       0.17244548       1.37717891       1.22384978
H        0.00000000       0.00000000       0.00000000      -0.10278435       0.19078495       0.23301888
7
Lattice="529.1772105638412 0.0 0.0 0.0 529.1772105638412 0.0 0.0 0.0 529.1772105638412" Properties=species:S:1:pos:R:3:forces_component_raw:R:3 ipi_comment="Step:        7740  Bead:       0 forces_component_raw{ase}  cell{ase}" pbc="T T T"
O        0.00000000       0.00000000       0.00000000      -0.59850323       1.35090542      -0.74669331
H        0.00000000       0.00000000       0.00000000       1.04104293      -0.07663691       0.50721574
H        0.00000000       0.00000000       0.00000000      -0.59390193      -0.73244751       0.10973487
O        0.00000000       0.00000000       0.00000000      -0.21780951      -1.52856708       0.06366062
H        0.00000000       0.00000000       0.00000000       0.10618204       0.03727974      -0.44989807
H        0.00000000       0.00000000       0.00000000      -0.08766246       1.02618730       1.51321626
H        0.00000000       0.00000000       0.00000000       0.35065222      -0.07672104      -0.99723608
7
Lattice="529.1772105638412 0.0 0.0 0.0 529.1772105638412 0.0 0.0 0.0 529.1772105638412" Properties=species:S:1:pos:R:3:forces_component_raw:R:3 ipi_comment="Step:        7760  Bead:       0 forces_component_raw{ase}  cell{ase}" pbc="T T T"
O        0.00000000       0.00000000       0.00000000      -0.46810001      -0.17886153      -0.20819581
H        0.00000000       0.00000000       0.00000000       0.60670507      -0.26508156       0.24438703
H        0.00000000       0.00000000       0.00000000       0.10004589       0.42854798      -0.15009250
O        0.00000000       0.00000000       0.00000000      -0.91818381      -0.40144542       0.44197434
H        0.00000000       0.00000000       0.00000000       0.07442775      -0.82183880       0.81741190
H        0.00000000       0.00000000       0.00000000       0.10930058       0.21661905       0.19015050
H        0.00000000       0.00000000       0.00000000       0.49580449       1.02206028      -1.33563567
7
Lattice="529.1772105638412 0.0 0.0 0.0 529.1772105638412 0.0 0.0 0.0 529.1772105638412" Properties=species:S:1:pos:R:3:forces_component_raw:R:3 ipi_comment="Step:        7780  Bead:       0 forces_component_raw{ase}  cell{ase}" pbc="T T T"
O        0.00000000       0.00000000       0.00000000       0.02328703      -1.32012141       0.37856990
H        0.00000000       0.00000000       0.00000000      -0.06950507      -0.12119466       0.04055524
H        0.00000000       0.00000000       0.00000000       0.37273994       0.98297715      -0.20897846
O        0.00000000       0.00000000       0.00000000      -0.60148728      -0.14428610       2.31171942
H        0.00000000       0.00000000       0.00000000      -0.09950443       0.29111117      -0.46151251
H        0.00000000       0.00000000       0.00000000       0.00475491      -0.29493919      -0.29924405
H        0.00000000       0.00000000       0.00000000       0.36971501       0.60645306      -1.76110995
7
Lattice="529.1772105638412 0.0 0.0 0.0 529.1772105638412 0.0 0.0 0.0 529.1772105638412" Properties=species:S:1:pos:R:3:forces_component_raw:R:3 ipi_comment="Step:        7800  Bead:       0 forces_component_raw{ase}  cell{ase}" pbc="T T T"
O        0.00000000       0.00000000       0.00000000      -0.11111508      -0.67922980       0.27793872
H        0.00000000       0.00000000       0.00000000      -0.43960694      -0.15647352       0.11393751
H        0.00000000       0.00000000       0.00000000       0.65203440       0.44094786      -0.09174939
O        0.00000000       0.00000000       0.00000000      -0.51425773       0.90403670       1.12699127
H        0.00000000       0.00000000       0.00000000       0.12030716      -0.03798167      -0.61955631
H        0.00000000       0.00000000       0.00000000       0.22072633      -0.32451323      -0.31223178
H        0.00000000       0.00000000       0.00000000       0.07191180      -0.14678644      -0.49533016
7
Lattice="529.1772105638412 0.0 0.0 0.0 529.1772105638412 0.0 0.0 0.0 529.1772105638412" Properties=species:S:1:pos:R:3:forces_component_raw:R:3 ipi_comment="Step:        7820  Bead:       0 forces_component_raw{ase}  cell{ase}" pbc="T T T"
O        0.00000000       0.00000000       0.00000000       1.20305610      -0.50148141       0.08318989
H        0.00000000       0.00000000       0.00000000      -0.70692235       0.48387304      -0.20627822
H        0.00000000       0.00000000       0.00000000      -0.33122835       0.09767747       0.00038910
O        0.00000000       0.00000000       0.00000000       0.22557929      -0.04286069      -1.48727870
H        0.00000000       0.00000000       0.00000000      -0.41921499      -0.14008528       0.73593164
H        0.00000000       0.00000000       0.00000000       0.06361536      -0.32019532       0.06741107
H        0.00000000       0.00000000       0.00000000      -0.03488489       0.42307222       0.80663538
7
Lattice="529.1772105638412 0.0 0.0 0.0 529.1772105638412 0.0 0.0 0.0 529.1772105638412" Properties=species:S:1:pos:R:3:forces_component_raw:R:3 ipi_comment="Step:        7840  Bead:       0 forces_component_raw{ase}  cell{ase}" pbc="T T T"
O        0.00000000       0.00000000       0.00000000       0.75708389       0.60497093      -0.31081781
H        0.00000000       0.00000000       0.00000000      -1.17287886       0.34875748       0.07532203
H        0.00000000       0.00000000       0.00000000      -0.06050032      -0.62061298       0.42922276
O        0.00000000       0.00000000       0.00000000      -1.34227288      -1.01384413      -0.51474136
H        0.00000000       0.00000000       0.00000000       0.81247682      -0.15517619      -0.90956783
H        0.00000000       0.00000000       0.00000000       0.07439867       0.50640452       0.11844462
H        0.00000000       0.00000000       0.00000000       0.93169254       0.32950044       1.11213756
7
Lattice="529.1772105638412 0.0 0.0 0.0 529.1772105638412 0.0 0.0 0.0 529.1772105638412" Properties=species:S:1:pos:R:3:forces_component_raw:R:3 ipi_comment="Step:        7860  Bead:       0 forces_component_raw{ase}  cell{ase}" pbc="T T T"
O        0.00000000       0.00000000       0.00000000       1.65638328       0.70251465      -0.50170028
H        0.00000000       0.00000000       0.00000000      -0.69890332       0.11622907      -0.24991617
H        0.00000000       0.00000000       0.00000000      -0.63083071       0.00062199       0.35938296
O        0.00000000       0.00000000       0.00000000       1.72764731      -2.26285697      -1.85904217
H        0.00000000       0.00000000       0.00000000      -1.13028991       0.19418904       0.44431704
H        0.00000000       0.00000000       0.00000000      -1.01934314       0.36699417       0.69992763
H        0.00000000       0.00000000       0.00000000       0.09533632       0.88230801       1.10703111
7
Lattice="529.1772105638412 0.0 0.0 0.0 529.1772105638412 0.0 0.0 0.0 529.1772105638412" Properties=species:S:1:pos:R:3:forces_component_raw:R:3 ipi_comment="Step:        7880  Bead:       0 forces_component_raw{ase}  cell{ase}" pbc="T T T"
O        0.00000000       0.00000000       0.00000000      -0.76851857       1.00839102      -0.59439719
H        0.00000000       0.00000000       0.00000000      -0.08977017      -0.00407422       0.21841271
H        0.00000000       0.00000000       0.00000000       0.16062391      -0.39112392       0.42288354
O        0.00000000       0.00000000       0.00000000      -0.15811718      -1.46594560      -1.21033752
H        0.00000000       0.00000000       0.00000000       0.83271277       0.02138101      -0.72052705
H        0.00000000       0.00000000       0.00000000      -0.71083599       0.81425381       0.65942621
H        0.00000000       0.00000000       0.00000000       0.73390526       0.01711813       1.22453928
7
Lattice="529.1772105638412 0.0 0.0 0.0 529.1772105638412 0.0 0.0 0.0 529.1772105638412" Properties=species:S:1:pos:R:3:forces_component_raw:R:3 ipi_comment="Step:        7900  Bead:       0 forces_component_raw{ase}  cell{ase}" pbc="T T T"
O        0.00000000       0.00000000       0.00000000      -0.36386544      -0.99906028      -0.03152820
H        0.00000000       0.00000000       0.00000000       1.54364670       0.07913142       0.12019300
H        0.00000000       0.00000000       0.00000000      -0.47278315       0.24348414      -0.27154839
O        0.00000000       0.00000000       0.00000000       0.24418819      -0.55855262      -1.69252491
H        0.00000000       0.00000000       0.00000000      -0.78379792       0.68778384       0.69143880
H        0.00000000       0.00000000       0.00000000      -0.38990426       0.44884417       0.51206744
H        0.00000000       0.00000000       0.00000000       0.22251572       0.09836936       0.67190218
7
Lattice="529.1772105638412 0.0 0.0 0.0 529.1772105638412 0.0 0.0 0.0 529.1772105638412" Properties=species:S:1:pos:R:3:forces_component_raw:R:3 ipi_comment="Step:        7920  Bead:       0 forces_component_raw{ase}  cell{ase}" pbc="T T T"
O        0.00000000       0.00000000       0.00000000      -2.52529002       0.35896015      -0.12278804
H        0.00000000       0.00000000       0.00000000       1.89218629      -0.00561668       0.74308777
H        0.00000000       0.00000000       0.00000000       0.40401888      -0.54868579      -0.07477286
O        0.00000000       0.00000000       0.00000000      -0.45486930       1.72263301       1.10852087
H        0.00000000       0.00000000       0.00000000       0.53906018      -0.73265022      -0.72079706
H        0.00000000       0.00000000       0.00000000       0.09657578      -0.54264856      -0.92256707
H        0.00000000       0.00000000       0.00000000       0.04831801      -0.25199184      -0.01068342
7
Lattice="529.1772105638412 0.0 0.0 0.0 529.1772105638412 0.0 0.0 0.0 529.1772105638412" Properties=species:S:1:pos:R:3:forces_component_raw:R:3 ipi_comment="Step:        7940  Bead:       0 forces_component_raw{ase}  cell{ase}" pbc="T T T"
O        0.00000000       0.00000000       0.00000000      -0.29975456      -0.55654681      -0.37928444
H        0.00000000       0.00000000       0.00000000       0.82500374       0.07718722       0.08689610
H        0.00000000       0.00000000       0.00000000      -0.30244032       0.12109312      -0.08686294
O        0.00000000       0.00000000       0.00000000       0.22492349       1.05638993       1.95378900
H        0.00000000       0.00000000       0.00000000      -0.31072253       0.58905518       0.82636792
H        0.00000000       0.00000000       0.00000000       0.02667584      -1.71663130      -1.04535866
H        0.00000000       0.00000000       0.00000000      -0.16368565       0.42945278      -1.35554719
7
Lattice="529.1772105638412 0.0 0.0 0.0 529.1772105638412 0.0 0.0 0.0 529.1772105638412" Properties=species:S:1:pos:R:3:forces_component_raw:R:3 ipi_comment="Step:        7960  Bead:       0 forces_component_raw{ase}  cell{ase}" pbc="T T T"
O        0.00000000       0.00000000       0.00000000       0.70762402       1.10604847      -0.52725083
H        0.00000000       0.00000000       0.00000000      -0.93042392       0.06967837      -0.02587566
H        0.00000000       0.00000000       0.00000000      -0.19517219      -0.64081407       0.59653115
O        0.00000000       0.00000000       0.00000000       0.70414221       1.23394132       3.47395945
H        0.00000000       0.00000000       0.00000000       0.22486980      -0.41386139      -0.82105088
H        0.00000000       0.00000000       0.00000000      -0.72596860      -1.24538029      -0.64725107
H        0.00000000       0.00000000       0.00000000       0.21492860      -0.10961245      -2.04906226
7
Lattice="529.1772105638412 0.0 0.0 0.0 529.1772105638412 0.0 0.0 0.0 529.1772105638412" Properties=species:S:1:pos:R:3:forces_component_raw:R:3 ipi_comment="Step:        7980  Bead:       0 forces_component_raw{ase}  cell{ase}" pbc="T T T"
O        0.00000000       0.00000000       0.00000000       2.24717355       0.22666347       0.54537875
H        0.00000000       0.00000000       0.00000000      -1.39415920       0.66216636      -1.02354610
H        0.00000000       0.00000000       0.00000000      -1.04409766      -0.53105927       0.13099454
O        0.00000000       0.00000000       0.00000000       0.61519879      -0.35924998       0.41163945
H        0.00000000       0.00000000       0.00000000       0.00241864       0.59012526       0.54356945
H        0.00000000       0.00000000       0.00000000      -0.38518527      -1.25409639      -0.60018706
H        0.00000000       0.00000000       0.00000000      -0.04134849       0.66545063      -0.00784910
7
Lattice="529.1772105638412 0.0 0.0 0.0 529.1772105638412 0.0 0.0 0.0 529.1772105638412" Properties=species:S:1:pos:R:3:forces_component_raw:R:3 ipi_comment="Step:        8000  Bead:       0 forces_component_raw{ase}  cell{ase}" pbc="T T T"
O        0.00000000       0.00000000       0.00000000       1.45237995       1.53763986       0.24617659
H        0.00000000       0.00000000       0.00000000      -1.52121675      -0.98310304      -0.47716266
H        0.00000000       0.00000000       0.00000000       0.26428419       0.14415769       0.33176529
O        0.00000000       0.00000000       0.00000000       0.47061375       0.65958655      -0.43328470
H        0.00000000       0.00000000       0.00000000      -0.34252840      -0.71753675      -0.73358298
H        0.00000000       0.00000000       0.00000000      -0.27404070      -0.27016479       0.13863617
H        0.00000000       0.00000000       0.00000000      -0.04949212      -0.37057957       0.92745233
7
Lattice="529.1772105638412 0.0 0.0 0.0 529.1772105638412 0.0 0.0 0.0 529.1772105638412" Properties=species:S:1:pos:R:3:forces_component_raw:R:3 ipi_comment="Step:        8020  Bead:       0 forces_component_raw{ase}  cell{ase}" pbc="T T T"
O        0.00000000       0.00000000       0.00000000       0.56384802      -1.82850004       1.13722909
H        0.00000000       0.00000000       0.00000000      -0.95646668       0.67985237      -0.97686041
H        0.00000000       0.00000000       0.00000000      -0.02794138       0.65090305      -0.34783763
O        0.00000000       0.00000000       0.00000000      -0.75904358      -1.52351654      -1.68358422
H        0.00000000       0.00000000       0.00000000       0.68816865       1.05665601       0.11984657
H        0.00000000       0.00000000       0.00000000       0.46132019       0.81740546       0.30592808
H        0.00000000       0.00000000       0.00000000       0.03011473       0.14720005       1.44527841
7
Lattice="529.1772105638412 0.0 0.0 0.0 529.1772105638412 0.0 0.0 0.0 529.1772105638412" Properties=species:S:1:pos:R:3:forces_component_raw:R:3 ipi_comment="Step:        8040  Bead:       0 forces_component_raw{ase}  cell{ase}" pbc="T T T"
O        0.00000000       0.00000000       0.00000000      -0.13559443      -0.11509041      -0.31930441
H        0.00000000       0.00000000       0.00000000      -0.37287539      -0.90055108       0.03528336
H        0.00000000       0.00000000       0.00000000       0.97359133       1.17749131       0.51472151
O        0.00000000       0.00000000       0.00000000      -0.22370929      -0.13314503      -0.79012740
H        0.00000000       0.00000000       0.00000000      -0.61540121      -0.84131766      -0.30337229
H        0.00000000       0.00000000       0.00000000       0.27388135       1.13298142       0.34783804
H        0.00000000       0.00000000       0.00000000       0.10010752      -0.32036853       0.51496118
7
Lattice="529.1772105638412 0.0 0.0 0.0 529.1772105638412 0.0 0.0 0.0 529.1772105638412" Properties=species:S:1:pos:R:3:forces_component_raw:R:3 ipi_comment="Step:        8060  Bead:       0 forces_component_raw{ase}  cell{ase}" pbc="T T T"
O        0.00000000       0.00000000       0.00000000      -1.56703234      -2.40742946      -0.20696983
H        0.00000000       0.00000000       0.00000000       0.65241748       0.68369657       0.75088382
H        0.00000000       0.00000000       0.00000000       1.00101042       1.06607652      -0.67778874
O        0.00000000       0.00000000       0.00000000      -0.63717753      -0.46765426      -0.43226063
H        0.00000000       0.00000000       0.00000000       0.28566569       0.23596722       0.93961257
H        0.00000000       0.00000000       0.00000000       0.30796722       0.49467290       0.18514064
H        0.00000000       0.00000000       0.00000000      -0.04285103       0.39467019      -0.55861783
7
Lattice="529.1772105638412 0.0 0.0 0.0 529.1772105638412 0.0 0.0 0.0 529.1772105638412" Properties=species:S:1:pos:R:3:forces_component_raw:R:3 ipi_comment="Step:        8080  Bead:       0 forces_component_raw{ase}  cell{ase}" pbc="T T T"
O        0.00000000       0.00000000       0.00000000      -0.53878230      -0.37822566      -0.61660063
H        0.00000000       0.00000000       0.00000000       0.21325129      -0.93431151       1.04120565
H        0.00000000       0.00000000       0.00000000       0.74080187       0.70236796       0.70469844
O        0.00000000       0.00000000       0.00000000      -0.40808606       0.75627506       1.53161502
H        0.00000000       0.00000000       0.00000000      -0.11370268      -0.03929591      -1.22566796
H        0.00000000       0.00000000       0.00000000      -0.09056182       0.04039437       0.28106421
H        0.00000000       0.00000000       0.00000000       0.19707976      -0.14720440      -1.71631480
7
Lattice="529.1772105638412 0.0 0.0 0.0 529.1772105638412 0.0 0.0 0.0 529.1772105638412" Properties=species:S:1:pos:R:3:forces_component_raw:R:3 ipi_comment="Step:        8100  Bead:       0 forces_component_raw{ase}  cell{ase}" pbc="T T T"
O        0.00000000       0.00000000       0.00000000      -0.16400293      -0.40962309      -0.66839576
H        0.00000000       0.00000000       0.00000000       0.61247575       0.48934639       0.94780886
H        0.00000000       0.00000000       0.00000000      -0.37423024      -0.22726530      -0.54166120
O        0.00000000       0.00000000       0.00000000      -0.55778909       0.05387953       1.37737119
H        0.00000000       0.00000000       0.00000000      -0.06783342       0.08548032       1.14218366
H        0.00000000       0.00000000       0.00000000       0.19781974      -0.76513255      -0.31114212
H        0.00000000       0.00000000       0.00000000       0.35356015       0.77331478      -1.94616449
7
Lattice="529.1772105638412 0.0 0.0 0.0 529.1772105638412 0.0 0.0 0.0 529.1772105638412" Properties=species:S:1:pos:R:3:forces_component_raw:R:3 ipi_comment="Step:        8120  Bead:       0 forces_component_raw{ase}  cell{ase}" pbc="T T T"
O        0.00000000       0.00000000       0.00000000       0.27278605       2.08731056      -0.25922096
H        0.00000000       0.00000000       0.00000000       0.11880314      -0.21295106       0.45410931
H        0.00000000       0.00000000       0.00000000      -0.80809349      -1.31417632      -0.15908092
O        0.00000000       0.00000000       0.00000000      -0.77069193      -0.15509188       3.00821686
H        0.00000000       0.00000000       0.00000000       0.41769844      -0.21886419      -0.90917415
H        0.00000000       0.00000000       0.00000000      -0.10104024      -0.49683771      -0.81959713
H        0.00000000       0.00000000       0.00000000       0.87053818       0.31061047      -1.31525326
7
Lattice="529.1772105638412 0.0 0.0 0.0 529.1772105638412 0.0 0.0 0.0 529.1772105638412" Properties=species:S:1:pos:R:3:forces_component_raw:R:3 ipi_comment="Step:        8140  Bead:       0 forces_component_raw{ase}  cell{ase}" pbc="T T T"
O        0.00000000       0.00000000       0.00000000       0.22514199       0.84427130      -0.28479803
H        0.00000000       0.00000000       0.00000000      -0.11294916       0.37350172      -0.06071278
H        0.00000000       0.00000000       0.00000000      -0.50468731      -0.76628292      -0.24049717
O        0.00000000       0.00000000       0.00000000       0.07792476      -1.05065048       0.75636906
H        0.00000000       0.00000000       0.00000000      -0.08356276       0.44813967       0.54169202
H        0.00000000       0.00000000       0.00000000      -0.11138439      -0.22423643       0.14317447
H        0.00000000       0.00000000       0.00000000       0.50951684       0.37525714      -0.85522771
7
Lattice="529.1772105638412 0.0 0.0 0.0 529.1772105638412 0.0 0.0 0.0 529.1772105638412" Properties=species:S:1:pos:R:3:forces_component_raw:R:3 ipi_comment="Step:        8160  Bead:       0 forces_component_raw{ase}  cell{ase}" pbc="T T T"
O        0.00000000       0.00000000       0.00000000       0.44770131       1.26919139       0.27333373
H        0.00000000       0.00000000       0.00000000      -0.35298359      -0.37327331      -0.30795050
H        0.00000000       0.00000000       0.00000000      -0.12523651      -0.32493219       0.11703032
O        0.00000000       0.00000000       0.00000000       0.14550447      -0.30750403       0.27776349
H        0.00000000       0.00000000       0.00000000       0.07969548      -0.42072427      -0.54623556
H        0.00000000       0.00000000       0.00000000      -0.13093248       0.31521803       0.02548599
H        0.00000000       0.00000000       0.00000000      -0.06374872      -0.15797573       0.16057265
7
Lattice="529.1772105638412 0.0 0.0 0.0 529.1772105638412 0.0 0.0 0.0 529.1772105638412" Properties=species:S:1:pos:R:3:forces_component_raw:R:3 ipi_comment="Step:        8180  Bead:       0 forces_component_raw{ase}  cell{ase}" pbc="T T T"
O        0.00000000       0.00000000       0.00000000       0.84034205      -1.08177233       1.05680907
H        0.00000000       0.00000000       0.00000000      -0.69839174       0.43687123      -0.90755528
H        0.00000000       0.00000000       0.00000000      -0.05059838       0.56506807      -0.29710791
O        0.00000000       0.00000000       0.00000000       0.50936091      -0.34063262      -0.76670730
H        0.00000000       0.00000000       0.00000000      -0.12976280       0.11593995       0.42150420
H        0.00000000       0.00000000       0.00000000      -0.56235153       0.32342762       0.54934144
H        0.00000000       0.00000000       0.00000000       0.09140143      -0.01890173      -0.05628422
7
Lattice="529.1772105638412 0.0 0.0 0.0 529.1772105638412 0.0 0.0 0.0 529.1772105638412" Properties=species:S:1:pos:R:3:forces_component_raw:R:3 ipi_comment="Step:        8200  Bead:       0 forces_component_raw{ase}  cell{ase}" pbc="T T T"
O        0.00000000       0.00000000       0.00000000       0.56296253      -0.26305488       0.83376157
H        0.00000000       0.00000000       0.00000000      -1.45894242      -0.76893622      -0.88511825
H        0.00000000       0.00000000       0.00000000       1.00940383       0.59803152       0.41166416
O        0.00000000       0.00000000       0.00000000       0.38070056       0.44646326      -0.38296864
H        0.00000000       0.00000000       0.00000000       0.20812827       0.14381689      -0.35716361
H        0.00000000       0.00000000       0.00000000      -0.64733154       0.26879984       0.19380482
H        0.00000000       0.00000000       0.00000000      -0.05492124      -0.42512050       0.18601985
7
Lattice="529.1772105638412 0.0 0.0 0.0 529.1772105638412 0.0 0.0 0.0 529.1772105638412" Properties=species:S:1:pos:R:3:forces_component_raw:R:3 ipi_comment="Step:        8220  Bead:       0 forces_component_raw{ase}  cell{ase}" pbc="T T T"
O        0.00000000       0.00000000       0.00000000      -0.05544677      -0.87023771       2.60714841
H        0.00000000       0.00000000       0.00000000      -0.62332183       0.48321256      -1.54896939
H        0.00000000       0.00000000       0.00000000       0.54500026       0.76961929      -1.06762076
O        0.00000000       0.00000000       0.00000000       2.40727473      -0.21944058       0.12281935
H        0.00000000       0.00000000       0.00000000      -0.11806592      -0.24514763      -0.22004592
H        0.00000000       0.00000000       0.00000000      -1.27403772       0.56372029      -0.12856141
H        0.00000000       0.00000000       0.00000000      -0.88140285      -0.48172620       0.23522988
7
Lattice="529.1772105638412 0.0 0.0 0.0 529.1772105638412 0.0 0.0 0.0 529.1772105638412" Properties=species:S:1:pos:R:3:forces_component_raw:R:3 ipi_comment="Step:        8240  Bead:       0 forces_component_raw{ase}  cell{ase}" pbc="T T T"
O        0.00000000       0.00000000       0.00000000      -1.21219445       0.52981836      -0.20619889
H        0.00000000       0.00000000       0.00000000      -1.03674460      -0.31924838      -0.14799419
H        0.00000000       0.00000000       0.00000000       1.81360376       0.44960767      -0.07974237
O        0.00000000       0.00000000       0.00000000       1.32073045       0.06594515       0.21554276
H        0.00000000       0.00000000       0.00000000       0.18322843      -0.25463790       0.31962001
H        0.00000000       0.00000000       0.00000000      -0.63444793       0.05908877      -0.21653505
H        0.00000000       0.00000000       0.00000000      -0.43417573      -0.53057367       0.11530773
7
Lattice="529.1772105638412 0.0 0.0 0.0 529.1772105638412 0.0 0.0 0.0 529.1772105638412" Properties=species:S:1:pos:R:3:forces_component_raw:R:3 ipi_comment="Step:        8260  Bead:       0 forces_component_raw{ase}  cell{ase}" pbc="T T T"
O        0.00000000       0.00000000       0.00000000       0.02313915      -1.58431673       1.34731269
H        0.00000000       0.00000000       0.00000000      -0.04251617       0.14447692      -0.39265981
H        0.00000000       0.00000000       0.00000000       0.49911925       0.58949167      -0.91512156
O        0.00000000       0.00000000       0.00000000      -0.23452856      -0.54812658       0.08904313
H        0.00000000       0.00000000       0.00000000      -0.52208197       1.06262231       0.11138049
H        0.00000000       0.00000000       0.00000000      -0.02317572       0.05119151      -0.09749182
H        0.00000000       0.00000000       0.00000000       0.30004412       0.28466091      -0.14246342
7
Lattice="529.1772105638412 0.0 0.0 0.0 529.1772105638412 0.0 0.0 0.0 529.1772105638412" Properties=species:S:1:pos:R:3:forces_component_raw:R:3 ipi_comment="Step:        8280  Bead:       0 forces_component_raw{ase}  cell{ase}" pbc="T T T"
O        0.00000000       0.00000000       0.00000000      -1.11638117       0.86099017      -0.32255259
H        0.00000000       0.00000000       0.00000000       0.10193670      -0.20152624       0.39219356
H        0.00000000       0.00000000       0.00000000       0.69618958      -0.21681066       0.05427755
O        0.00000000       0.00000000       0.00000000      -2.63393212      -1.48503352       0.04389811
H        0.00000000       0.00000000       0.00000000       0.67830211      -0.45862067      -0.17248297
H        0.00000000       0.00000000       0.00000000       0.96299422       0.11618689       0.48985535
H        0.00000000       0.00000000       0.00000000       1.31089080       1.38481403      -0.48518896
7
Lattice="529.1772105638412 0.0 0.0 0.0 529.1772105638412 0.0 0.0 0.0 529.1772105638412" Properties=species:S:1:pos:R:3:forces_component_raw:R:3 ipi_comment="Step:        8300  Bead:       0 forces_component_raw{ase}  cell{ase}" pbc="T T T"
O        0.00000000       0.00000000       0.00000000       0.68858785       0.19825590      -0.17387372
H        0.00000000       0.00000000       0.00000000       1.19564557      -0.02071922       0.00654772
H        0.00000000       0.00000000       0.00000000      -1.37645960      -0.22175922       0.42699459
O        0.00000000       0.00000000       0.00000000      -1.97319186      -1.49557853       0.12625465
H        0.00000000       0.00000000       0.00000000      -0.84117502      -0.16897896      -0.47710893
H        0.00000000       0.00000000       0.00000000       1.35030890       0.34008735       0.89068717
H        0.00000000       0.00000000       0.00000000       0.95628453       1.36869288      -0.79950136
7
Lattice="529.1772105638412 0.0 0.0 0.0 529.1772105638412 0.0 0.0 0.0 529.1772105638412" Properties=species:S:1:pos:R:3:forces_component_raw:R:3 ipi_comment="Step:        8320  Bead:       0 forces_component_raw{ase}  cell{ase}" pbc="T T T"
O        0.00000000       0.00000000       0.00000000      -0.35315991       1.03407693      -2.09393955
H        0.00000000       0.00000000       0.00000000       1.45418680      -0.49100560       0.69982523
H        0.00000000       0.00000000       0.00000000      -1.05291581      -1.03297496       1.40085864
O        0.00000000       0.00000000       0.00000000      -1.42103386      -0.79136324      -2.18387843
H        0.00000000       0.00000000       0.00000000       0.51462078       0.34850478       0.73803222
H        0.00000000       0.00000000       0.00000000       0.26596844       0.65924657       1.20033205
H        0.00000000       0.00000000       0.00000000       0.59233350       0.27351561       0.23876955
7
Lattice="529.1772105638412 0.0 0.0 0.0 529.1772105638412 0.0 0.0 0.0 529.1772105638412" Properties=species:S:1:pos:R:3:forces_component_raw:R:3 ipi_comment="Step:        8340  Bead:       0 forces_component_raw{ase}  cell{ase}" pbc="T T T"
O        0.00000000       0.00000000       0.00000000       0.75233555       0.92196071      -1.13432932
H        0.00000000       0.00000000       0.00000000       1.07692254      -0.10280091      -0.09057911
H        0.00000000       0.00000000       0.00000000      -1.71476710      -0.98176944       1.47319961
O        0.00000000       0.00000000       0.00000000       0.63415629      -0.05802935       0.37726581
H        0.00000000       0.00000000       0.00000000      -0.58379114      -0.12774986      -0.59070385
H        0.00000000       0.00000000       0.00000000       0.57160652       0.25261539       0.50327945
H        0.00000000       0.00000000       0.00000000      -0.73646248       0.09577350      -0.53813261
7
Lattice="529.1772105638412 0.0 0.0 0.0 529.1772105638412 0.0 0.0 0.0 529.1772105638412" Properties=species:S:1:pos:R:3:forces_component_raw:R:3 ipi_comment="Step:        8360  Bead:       0 forces_component_raw{ase}  cell{ase}" pbc="T T T"
O        0.00000000       0.00000000       0.00000000      -0.55187631       1.55403066      -0.87657583
H        0.00000000       0.00000000       0.00000000       0.54966641      -0.55541963       0.08291930
H        0.00000000       0.00000000       0.00000000      -0.39708999      -0.85940504       0.70938176
O        0.00000000       0.00000000       0.00000000       0.36130941       1.00159478      -0.49068770
H        0.00000000       0.00000000       0.00000000       0.99679530       0.00969281       0.32755426
H        0.00000000       0.00000000       0.00000000      -0.24720839      -0.04568394      -0.15501350
H        0.00000000       0.00000000       0.00000000      -0.71159637      -1.10480953       0.40242174
7
Lattice="529.1772105638412 0.0 0.0 0.0 529.1772105638412 0.0 0.0 0.0 529.1772105638412" Properties=species:S:1:pos:R:3:forces_component_raw:R:3 ipi_comment="Step:        8380  Bead:       0 forces_component_raw{ase}  cell{ase}" pbc="T T T"
O        0.00000000       0.00000000       0.00000000       0.24787384      -0.74453724       0.21757197
H        0.00000000       0.00000000       0.00000000       0.44364521      -0.01282483      -0.17986260
H        0.00000000       0.00000000       0.00000000      -0.15716453       1.02915383      -0.49211365
O        0.00000000       0.00000000       0.00000000       1.04114092      -0.14018536       1.71475125
H        0.00000000       0.00000000       0.00000000      -0.94446004       0.43118921       0.22433320
H        0.00000000       0.00000000       0.00000000       0.03586796       0.22336426      -0.77593255
H        0.00000000       0.00000000       0.00000000      -0.66690350      -0.78615976      -0.70874763
7
Lattice="529.1772105638412 0.0 0.0 0.0 529.1772105638412 0.0 0.0 0.0 529.1772105638412" Properties=species:S:1:pos:R:3:forces_component_raw:R:3 ipi_comment="Step:        8400  Bead:       0 forces_component_raw{ase}  cell{ase}" pbc="T T T"
O        0.00000000       0.00000000       0.00000000      -1.49131847       0.05602665       0.37986663
H        0.00000000       0.00000000       0.00000000      -0.36539450      -0.09162019       0.12633714
H        0.00000000       0.00000000       0.00000000       1.40824735       0.49696756      -0.72608280
O        0.00000000       0.00000000       0.00000000       0.03633958       0.32986206       1.87200451
H        0.00000000       0.00000000       0.00000000       0.61716461      -0.43249711      -0.14335991
H        0.00000000       0.00000000       0.00000000      -0.08863550       0.00684965      -1.12104225
H        0.00000000       0.00000000       0.00000000      -0.11640322      -0.36558873      -0.38772330
7
Lattice="529.1772105638412 0.0 0.0 0.0 529.1772105638412 0.0 0.0 0.0 529.1772105638412" Properties=species:S:1:pos:R:3:forces_component_raw:R:3 ipi_comment="Step:        8420  Bead:       0 forces_component_raw{ase}  cell{ase}" pbc="T T T"
O        0.00000000       0.00000000       0.00000000      -0.55679757      -2.15337039       0.86601550
H        0.00000000       0.00000000       0.00000000      -0.11558548       0.25001198       0.15319212
H        0.00000000       0.00000000       0.00000000       1.18873143       1.10248542      -0.77487600
O        0.00000000       0.00000000       0.00000000      -0.00793283      -0.75073338      -0.65496475
H        0.00000000       0.00000000       0.00000000      -0.54126066       0.80184341       0.13531370
H        0.00000000       0.00000000       0.00000000       0.00853314       0.09208110      -0.24644244
H        0.00000000       0.00000000       0.00000000       0.02431216       0.65768194       0.52176190
7
Lattice="529.1772105638412 0.0 0.0 0.0 529.1772105638412 0.0 0.0 0.0 529.1772105638412" Properties=species:S:1:pos:R:3:forces_component_raw:R:3 ipi_comment="Step:        8440  Bead:       0 forces_component_raw{ase}  cell{ase}" pbc="T T T"
O        0.00000000       0.00000000       0.00000000      -1.31832278      -0.49805194       0.28323370
H        0.00000000       0.00000000       0.00000000      -0.42910558       0.41485453       0.10255754
H        0.00000000       0.00000000       0.00000000       1.61456120       0.11344902      -0.14702509
O        0.00000000       0.00000000       0.00000000       0.27295429      -1.18065870      -1.03099132
H        0.00000000       0.00000000       0.00000000       0.23857668      -0.68949306      -0.10060779
H        0.00000000       0.00000000       0.00000000      -0.00466445       0.16283131       0.21264520
H        0.00000000       0.00000000       0.00000000      -0.37399933       1.67706883       0.68018782
7
Lattice="529.1772105638412 0.0 0.0 0.0 529.1772105638412 0.0 0.0 0.0 529.1772105638412" Properties=species:S:1:pos:R:3:forces_component_raw:R:3 ipi_comment="Step:        8460  Bead:       0 forces_component_raw{ase}  cell{ase}" pbc="T T T"
O        0.00000000       0.00000000       0.00000000      -0.36418560      -0.79755259      -0.07244444
H        0.00000000       0.00000000       0.00000000       0.19153217       0.58350712       0.00651734
H        0.00000000       0.00000000       0.00000000       0.10109603       0.24225110       0.21255511
O        0.00000000       0.00000000       0.00000000       0.35449836      -0.53846002      -0.55771870
H        0.00000000       0.00000000       0.00000000      -0.16135882      -0.06538253       0.09132741
H        0.00000000       0.00000000       0.00000000       0.02015752       0.13611576      -0.10119101
H        0.00000000       0.00000000       0.00000000      -0.14173967       0.43952113       0.42095429
7
Lattice="529.1772105638412 0.0 0.0 0.0 529.1772105638412 0.0 0.0 0.0 529.1772105638412" Properties=species:S:1:pos:R:3:forces_component_raw:R:3 ipi_comment="Step:        8480  Bead:       0 forces_component_raw{ase}  cell{ase}" pbc="T T T"
O        0.00000000       0.00000000       0.00000000       1.32409740       0.50552780       0.17148608
H        0.00000000       0.00000000       0.00000000      -0.45344976      -0.01004932       0.11768498
H        0.00000000       0.00000000       0.00000000      -0.93464148      -0.99671382      -0.01454347
O        0.00000000       0.00000000       0.00000000      -0.14173757       0.42937231       0.01735944
H        0.00000000       0.00000000       0.00000000       0.01420104       0.48227328      -0.21583493
H        0.00000000       0.00000000       0.00000000       0.04289645      -0.02026969      -0.06667790
H        0.00000000       0.00000000       0.00000000       0.14863399      -0.39014059      -0.00947416
7
Lattice="529.1772105638412 0.0 0.0 0.0 529.1772105638412 0.0 0.0 0.0 529.1772105638412" Properties=species:S:1:pos:R:3:forces_component_raw:R:3 ipi_comment="Step:        8500  Bead:       0 forces_component_raw{ase}  cell{ase}" pbc="T T T"
O        0.00000000       0.00000000       0.00000000       1.64569211       1.07062018      -0.14286509
H        0.00000000       0.00000000       0.00000000       0.18167031       0.01037380       0.17768259
H        0.00000000       0.00000000       0.00000000      -1.54142964      -0.96340502      -0.02881090
O        0.00000000       0.00000000       0.00000000      -0.63943982       0.56766737       0.58323109
H        0.00000000       0.00000000       0.00000000      -0.16100432      -0.39703074      -0.12309974
H        0.00000000       0.00000000       0.00000000      -0.03747398       0.09286483       0.12229842
H        0.00000000       0.00000000       0.00000000       0.55198527      -0.38109052      -0.58843631
7
Lattice="529.1772105638412 0.0 0.0 0.0 529.1772105638412 0.0 0.0 0.0 529.1772105638412" Properties=species:S:1:pos:R:3:forces_component_raw:R:3 ipi_comment="Step:        8520  Bead:       0 forces_component_raw{ase}  cell{ase}" pbc="T T T"
O        0.00000000       0.00000000       0.00000000       0.54755187       0.99649000      -0.41051737
H        0.00000000       0.00000000       0.00000000       0.10650933      -0.03862804       0.02106968
H        0.00000000       0.00000000       0.00000000      -0.85721082      -0.80906236      -0.02406686
O        0.00000000       0.00000000       0.00000000      -0.38990212       0.39540625       0.66795027
H        0.00000000       0.00000000       0.00000000       0.41829676       0.37405261       0.31349316
H        0.00000000       0.00000000       0.00000000      -0.14132977      -0.20060346      -0.04127279
H        0.00000000       0.00000000       0.00000000       0.31608462      -0.71765495      -0.52665609
7
Lattice="529.1772105638412 0.0 0.0 0.0 529.1772105638412 0.0 0.0 0.0 529.1772105638412" Properties=species:S:1:pos:R:3:forces_component_raw:R:3 ipi_comment="Step:        8540  Bead:       0 forces_component_raw{ase}  cell{ase}" pbc="T T T"
O        0.00000000       0.00000000       0.00000000      -0.15868351       0.79600096       0.11503977
H        0.00000000       0.00000000       0.00000000       0.77267194      -0.46809247       0.16864531
H        0.00000000       0.00000000       0.00000000      -0.35013378      -0.19151121      -0.20555282
O        0.00000000       0.00000000       0.00000000       0.51214868      -0.48865119       0.92952371
H        0.00000000       0.00000000       0.00000000      -0.62527925      -0.00325312      -0.47445741
H        0.00000000       0.00000000       0.00000000      -0.12901336       0.26224664      -0.29710597
H        0.00000000       0.00000000       0.00000000      -0.02171075       0.09326045      -0.23609260
7
Lattice="529.1772105638412 0.0 0.0 0.0 529.1772105638412 0.0 0.0 0.0 529.1772105638412" Properties=species:S:1:pos:R:3:forces_component_raw:R:3 ipi_comment="Step:        8560  Bead:       0 forces_component_raw{ase}  cell{ase}" pbc="T T T"
O        0.00000000       0.00000000       0.00000000      -0.97662568       0.02748086      -0.18206494
H        0.00000000       0.00000000       0.00000000       0.42197958      -0.17738958       0.05957943
H        0.00000000       0.00000000       0.00000000       0.30512670       0.06702484       0.10139333
O        0.00000000       0.00000000       0.00000000      -0.43456501       0.43274289      -0.51251257
H        0.00000000       0.00000000       0.00000000       0.68463701      -0.61168808       0.40870535
H        0.00000000       0.00000000       0.00000000       0.56319022      -0.13797286      -0.13363856
H        0.00000000       0.00000000       0.00000000      -0.56374282       0.39980182       0.25853789
7
Lattice="529.1772105638412 0.0 0.0 0.0 529.1772105638412 0.0 0.0 0.0 529.1772105638412" Properties=species:S:1:pos:R:3:forces_component_raw:R:3 ipi_comment="Step:        8580  Bead:       0 forces_component_raw{ase}  cell{ase}" pbc="T T T"
O        0.00000000       0.00000000       0.00000000       0.04160201      -0.79626668       0.29483262
H        0.00000000       0.00000000       0.00000000      -0.49934048       0.25033206      -0.31450874
H        0.00000000       0.00000000       0.00000000       0.63436741       0.44000271       0.07281333
O        0.00000000       0.00000000       0.00000000       0.57594299      -1.59511876      -0.04191786
H        0.00000000       0.00000000       0.00000000      -0.45793974       0.03894986       0.14662689
H        0.00000000       0.00000000       0.00000000       0.79557306       0.79746628      -0.48725581
H        0.00000000       0.00000000       0.00000000      -1.09020543       0.86463458       0.32940954
7
Lattice="529.1772105638412 0.0 0.0 0.0 529.1772105638412 0.0 0.0 0.0 529.1772105638412" Properties=species:S:1:pos:R:3:forces_component_raw:R:3 ipi_comment="Step:        8600  Bead:       0 forces_component_raw{ase}  cell{ase}" pbc="T T T"
O        0.00000000       0.00000000       0.00000000       0.08487637      -1.49257958       0.87214691
H        0.00000000       0.00000000       0.00000000      -0.62971258       0.33264783      -0.44118852
H        0.00000000       0.00000000       0.00000000       0.49055940       0.52467185       0.09656721
O        0.00000000       0.00000000       0.00000000      -0.07229012      -0.55310196       0.21313995
H        0.00000000       0.00000000       0.00000000       0.31623894       0.23337951      -0.32404795
H        0.00000000       0.00000000       0.00000000       0.95561230       0.46785158      -0.40431929
H        0.00000000       0.00000000       0.00000000      -1.14528442       0.48713088      -0.01229832
7
Lattice="529.1772105638412 0.0 0.0 0.0 529.1772105638412 0.0 0.0 0.0 529.1772105638412" Properties=species:S:1:pos:R:3:forces_component_raw:R:3 ipi_comment="Step:        8620  Bead:       0 forces_component_raw{ase}  cell{ase}" pbc="T T T"
O        0.00000000       0.00000000       0.00000000       0.33800840       0.17144749      -0.36547095
H        0.00000000       0.00000000       0.00000000      -0.56063354      -0.16960073      -0.19841285
H        0.00000000       0.00000000       0.00000000       0.37958613       0.43789086       0.18498524
O        0.00000000       0.00000000       0.00000000      -2.03076458      -0.79792524       0.81472266
H        0.00000000       0.00000000       0.00000000      -0.17184243      -0.20994370       0.28467995
H        0.00000000       0.00000000       0.00000000       1.40676141       0.84025532      -0.94980741
H        0.00000000       0.00000000       0.00000000       0.63888443      -0.27212396       0.22930324
7
Lattice="529.1772105638412 0.0 0.0 0.0 529.1772105638412 0.0 0.0 0.0 529.1772105638412" Properties=species:S:1:pos:R:3:forces_component_raw:R:3 ipi_comment="Step:        8640  Bead:       0 forces_component_raw{ase}  cell{ase}" pbc="T T T"
O        0.00000000       0.00000000       0.00000000       0.14981999       0.13651285      -0.77074987
H        0.00000000       0.00000000       0.00000000      -0.08934316       0.20217408       0.08433427
H        0.00000000       0.00000000       0.00000000      -0.16405867       0.15638849       0.03848204
O        0.00000000       0.00000000       0.00000000      -1.65597797      -0.63241178       0.44274899
H        0.00000000       0.00000000       0.00000000       0.09168038       0.20034049       0.37455896
H        0.00000000       0.00000000       0.00000000       0.47178218       0.21787357      -0.54619622
H        0.00000000       0.00000000       0.00000000       1.19609750      -0.28087768       0.37682185
7
Lattice="529.1772105638412 0.0 0.0 0.0 529.1772105638412 0.0 0.0 0.0 529.1772105638412" Properties=species:S:1:pos:R:3:forces_component_raw:R:3 ipi_comment="Step:        8660  Bead:       0 forces_component_raw{ase}  cell{ase}" pbc="T T T"
O        0.00000000       0.00000000       0.00000000      -0.27936512       1.02218950       0.53046197
H        0.00000000       0.00000000       0.00000000       0.08920720      -0.35464257       0.06642032
H        0.00000000       0.00000000       0.00000000       0.19196658      -0.43155807      -0.26905057
O        0.00000000       0.00000000       0.00000000      -0.47360027       0.37606978      -0.93629587
H        0.00000000       0.00000000       0.00000000       0.00281581      -0.05771723      -0.64442545
H        0.00000000       0.00000000       0.00000000      -0.50904942      -0.13196582       0.52191234
H        0.00000000       0.00000000       0.00000000       0.97802520      -0.42237547       0.73097742
7
Lattice="529.1772105638412 0.0 0.0 0.0 529.1772105638412 0.0 0.0 0.0 529.1772105638412" Properties=species:S:1:pos:R:3:forces_component_raw:R:3 ipi_comment="Step:        8680  Bead:       0 forces_component_raw{ase}  cell{ase}" pbc="T T T"
O        0.00000000       0.00000000       0.00000000       0.08801028       0.25924981       0.56960237
H        0.00000000       0.00000000       0.00000000      -0.19595845       0.33955881       0.00897160
H        0.00000000       0.00000000       0.00000000       0.07827456      -1.01497329      -0.62344074
O        0.00000000       0.00000000       0.00000000       0.80309534       0.27056205      -1.76788044
H        0.00000000       0.00000000       0.00000000      -0.21044657       0.41243240       0.25135481
H        0.00000000       0.00000000       0.00000000      -1.60145736       0.15396413       1.17276216
H        0.00000000       0.00000000       0.00000000       1.03848219      -0.42079395       0.38863021
7
Lattice="529.1772105638412 0.0 0.0 0.0 529.1772105638412 0.0 0.0 0.0 529.1772105638412" Properties=species:S:1:pos:R:3:forces_component_raw:R:3 ipi_comment="Step:        8700  Bead:       0 forces_component_raw{ase}  cell{ase}" pbc="T T T"
O        0.00000000       0.00000000       0.00000000      -0.18023412       0.05884704       0.19636300
H        0.00000000       0.00000000       0.00000000       0.08334631      -0.13104871       0.19428730
H        0.00000000       0.00000000       0.00000000       0.05506505      -0.10955393      -0.06431544
O        0.00000000       0.00000000       0.00000000       1.01980663       1.28885055      -1.65541792
H        0.00000000       0.00000000       0.00000000       0.52572262      -0.74494845       0.05875203
H        0.00000000       0.00000000       0.00000000      -1.25473810      -0.55422008       1.49137879
H        0.00000000       0.00000000       0.00000000      -0.24896854       0.19207361      -0.22104791
7
Lattice="529.1772105638412 0.0 0.0 0.0 529.1772105638412 0.0 0.0 0.0 529.1772105638412" Properties=species:S:1:pos:R:3:forces_component_raw:R:3 ipi_comment="Step:        8720  Bead:       0 forces_component_raw{ase}  cell{ase}" pbc="T T T"
O        0.00000000       0.00000000       0.00000000       0.05733752      -0.67527020      -0.39054942
H        0.00000000       0.00000000       0.00000000       0.15008834       0.11004850       0.36946789
H        0.00000000       0.00000000       0.00000000      -0.05477091       0.70932859      -0.06503186
O        0.00000000       0.00000000       0.00000000       2.98351813      -0.22613628      -1.05663061
H        0.00000000       0.00000000       0.00000000      -0.52385634       0.31973457       0.08282971
H        0.00000000       0.00000000       0.00000000      -0.86497367      -0.32246074       1.45793557
H        0.00000000       0.00000000       0.00000000      -1.74734331       0.08475555      -0.39802116
7
Lattice="529.1772105638412 0.0 0.0 0.0 529.1772105638412 0.0 0.0 0.0 529.1772105638412" Properties=species:S:1:pos:R:3:forces_component_raw:R:3 ipi_comment="Step:        8740  Bead:       0 forces_component_raw{ase}  cell{ase}" pbc="T T T"
O        0.00000000       0.00000000       0.00000000      -0.11375429      -0.17305397      -0.60189074
H        0.00000000       0.00000000       0.00000000       0.15778668      -0.20821664       0.30340809
H        0.00000000       0.00000000       0.00000000      -0.19468546       0.83949232       0.17089438
O        0.00000000       0.00000000       0.00000000       1.11936713      -0.34875810      -0.02917273
H        0.00000000       0.00000000       0.00000000       0.64952576       0.03346433      -0.11326718
H        0.00000000       0.00000000       0.00000000       0.11666727      -0.42638350       0.63032508
H        0.00000000       0.00000000       0.00000000      -1.73490715       0.28345558      -0.36029691
7
Lattice="529.1772105638412 0.0 0.0 0.0 529.1772105638412 0.0 0.0 0.0 529.1772105638412" Properties=species:S:1:pos:R:3:forces_component_raw:R:3 ipi_comment="Step:        8760  Bead:       0 forces_component_raw{ase}  cell{ase}" pbc="T T T"
O        0.00000000       0.00000000       0.00000000       0.57067478      -0.34464893      -1.07465554
H        0.00000000       0.00000000       0.00000000       0.05020276       0.06140304       0.82170528
H        0.00000000       0.00000000       0.00000000      -0.22807263       0.24476284       0.18487549
O        0.00000000       0.00000000       0.00000000       0.98314977       0.02952528       0.57955831
H        0.00000000       0.00000000       0.00000000      -0.87153566      -0.21138851       0.28841487
H        0.00000000       0.00000000       0.00000000       0.10965973       0.26508707      -0.51525122
H        0.00000000       0.00000000       0.00000000      -0.61407852      -0.04474088      -0.28464726
7
Lattice="529.1772105638412 0.0 0.0 0.0 529.1772105638412 0.0 0.0 0.0 529.1772105638412" Properties=species:S:1:pos:R:3:forces_component_raw:R:3 ipi_comment="Step:        8780  Bead:       0 forces_component_raw{ase}  cell{ase}" pbc="T T T"
O        0.00000000       0.00000000       0.00000000      -0.31486350      -0.85994595       0.72477895
H        0.00000000       0.00000000       0.00000000      -0.35046032       0.15877518       0.55802482
H        0.00000000       0.00000000       0.00000000       0.67356122      -0.33886457      -0.43083787
O        0.00000000       0.00000000       0.00000000      -2.27948285       0.72734189       0.84192515
H        0.00000000       0.00000000       0.00000000       0.62094736      -0.22642887      -0.18596405
H        0.00000000       0.00000000       0.00000000       1.11623931       0.41185236      -1.41621197
H        0.00000000       0.00000000       0.00000000       0.53405911       0.12726991      -0.09171501
7
Lattice="529.1772105638412 0.0 0.0 0.0 529.1772105638412 0.0 0.0 0.0 529.1772105638412" Properties=species:S:1:pos:R:3:forces_component_raw:R:3 ipi_comment="Step:        8800  Bead:       0 forces_component_raw{ase}  cell{ase}" pbc="T T T"
O        0.00000000       0.00000000       0.00000000      -0.69925702      -0.18830404      -0.23971181
H        0.00000000       0.00000000       0.00000000       0.32991883      -0.09491731       0.16912013
H        0.00000000       0.00000000       0.00000000       0.75032836      -0.39638829       0.52987886
O        0.00000000       0.00000000       0.00000000      -2.20399786       0.34460864       0.30787972
H        0.00000000       0.00000000       0.00000000      -0.36106068       0.25590098      -0.07659593
H        0.00000000       0.00000000       0.00000000       1.28210187       0.28135133      -1.36785770
H        0.00000000       0.00000000       0.00000000       0.90196645      -0.20225138       0.67728675
7
Lattice="529.1772105638412 0.0 0.0 0.0 529.1772105638412 0.0 0.0 0.0 529.1772105638412" Properties=species:S:1:pos:R:3:forces_component_raw:R:3 ipi_comment="Step:        8820  Bead:       0 forces_component_raw{ase}  cell{ase}" pbc="T T T"
O        0.00000000       0.00000000       0.00000000      -1.06491983       0.42129293       1.26649118
H        0.00000000       0.00000000       0.00000000      -0.09700599      -0.16778533      -0.93838436
H        0.00000000       0.00000000       0.00000000       0.74347460      -0.00043683      -0.40609202
O        0.00000000       0.00000000       0.00000000      -1.89753056      -0.17178641       0.90110004
H        0.00000000       0.00000000       0.00000000       0.55148268      -0.05082507       0.16476226
H        0.00000000       0.00000000       0.00000000       0.78152895       0.06105729      -1.26109100
H        0.00000000       0.00000000       0.00000000       0.98297024      -0.09151657       0.27321392
7
Lattice="529.1772105638412 0.0 0.0 0.0 529.1772105638412 0.0 0.0 0.0 529.1772105638412" Properties=species:S:1:pos:R:3:forces_component_raw:R:3 ipi_comment="Step:        8840  Bead:       0 forces_component_raw{ase}  cell{ase}" pbc="T T T"
O        0.00000000       0.00000000       0.00000000      -0.68452454       0.85361076       0.32857764
H        0.00000000       0.00000000       0.00000000       0.96957576       0.11778814      -1.02354479
H        0.00000000       0.00000000       0.00000000      -0.48129112      -0.08159965       0.31051004
O        0.00000000       0.00000000       0.00000000      -0.35373229      -0.16720182       0.48616037
H        0.00000000       0.00000000       0.00000000      -0.40429491      -0.39911059      -0.19922088
H        0.00000000       0.00000000       0.00000000       0.32555127       0.05417493      -0.47380990
H        0.00000000       0.00000000       0.00000000       0.62871575      -0.37766159       0.57132769
7
Lattice="529.1772105638412 0.0 0.0 0.0 529.1772105638412 0.0 0.0 0.0 529.1772105638412" Properties=species:S:1:pos:R:3:forces_component_raw:R:3 ipi_comment="Step:        8860  Bead:       0 forces_component_raw{ase}  cell{ase}" pbc="T T T"
O        0.00000000       0.00000000       0.00000000       0.78214431      -0.47032327       0.93523669
H        0.00000000       0.00000000       0.00000000       0.08350766       0.56379324      -1.11437607
H        0.00000000       0.00000000       0.00000000      -1.18687177       0.28044593      -0.44263136
O        0.00000000       0.00000000       0.00000000       0.34159747      -1.38558054       0.26774585
H        0.00000000       0.00000000       0.00000000       0.57363582       0.65838540       0.14029644
H        0.00000000       0.00000000       0.00000000      -0.46322939       0.02866045       0.58058947
H        0.00000000       0.00000000       0.00000000      -0.13078404       0.32461882      -0.36686105
7
Lattice="529.1772105638412 0.0 0.0 0.0 529.1772105638412 0.0 0.0 0.0 529.1772105638412" Properties=species:S:1:pos:R:3:forces_component_raw:R:3 ipi_comment="Step:        8880  Bead:       0 forces_component_raw{ase}  cell{ase}" pbc="T T T"
O        0.00000000       0.00000000       0.00000000       0.65320110       0.07236785       0.09710239
H        0.00000000       0.00000000       0.00000000       0.57037062       0.51794833      -0.71297354
H        0.00000000       0.00000000       0.00000000      -0.96758932      -0.17423873       0.28022215
O        0.00000000       0.00000000       0.00000000       0.80778039       0.26302126      -1.18056941
H        0.00000000       0.00000000       0.00000000      -0.51547319      -0.42825219       0.04662330
H        0.00000000       0.00000000       0.00000000      -0.13115582      -0.16617526       1.20168829
H        0.00000000       0.00000000       0.00000000      -0.41713369      -0.08467118       0.26790673
7
Lattice="529.1772105638412 0.0 0.0 0.0 529.1772105638412 0.0 0.0 0.0 529.1772105638412" Properties=species:S:1:pos:R:3:forces_component_raw:R:3 ipi_comment="Step:        8900  Bead:       0 forces_component_raw{ase}  cell{ase}" pbc="T T T"
O        0.00000000       0.00000000       0.00000000      -0.29535773      -1.53754652       1.54938269
H        0.00000000       0.00000000       0.00000000      -0.00780070       0.25976801      -0.52297068
H        0.00000000       0.00000000       0.00000000       0.36185592       0.41851610      -0.34497526
O        0.00000000       0.00000000       0.00000000       1.27691937      -0.01905091      -0.30547875
H        0.00000000       0.00000000       0.00000000       0.26695621       0.72407228      -0.72796917
H        0.00000000       0.00000000       0.00000000      -0.92257750      -0.13056809       0.94759220
H        0.00000000       0.00000000       0.00000000      -0.67999560       0.28480908      -0.59558106
7
Lattice="529.1772105638412 0.0 0.0 0.0 529.1772105638412 0.0 0.0 0.0 529.1772105638412" Properties=species:S:1:pos:R:3:forces_component_raw:R:3 ipi_comment="Step:        8920  Bead:       0 forces_component_raw{ase}  cell{ase}" pbc="T T T"
O        0.00000000       0.00000000       0.00000000      -0.19557881      -0.18480268      -0.85285258
H        0.00000000       0.00000000       0.00000000      -0.10064226      -0.23032862       0.54803378
H        0.00000000       0.00000000       0.00000000       0.51090992      -0.01493953       0.39383546
O        0.00000000       0.00000000       0.00000000       0.81075829       0.79649830      -1.84657491
H        0.00000000       0.00000000       0.00000000      -0.31382221      -0.03207788       0.61354339
H        0.00000000       0.00000000       0.00000000      -0.20134836      -0.11091197       0.85346323
H        0.00000000       0.00000000       0.00000000      -0.51027656      -0.22343758       0.29055181
7
Lattice="529.1772105638412 0.0 0.0 0.0 529.1772105638412 0.0 0.0 0.0 529.1772105638412" Properties=species:S:1:pos:R:3:forces_component_raw:R:3 ipi_comment="Step:        8940  Bead:       0 forces_component_raw{ase}  cell{ase}" pbc="T T T"
O        0.00000000       0.00000000       0.00000000      -0.44521955       0.12754738      -0.61018574
H        0.00000000       0.00000000       0.00000000      -0.50764883      -0.36942166       0.51429564
H        0.00000000       0.00000000       0.00000000       0.72848278       0.33194876       0.16131686
O        0.00000000       0.00000000       0.00000000      -1.42183519      -0.28155071       1.37600851
H        0.00000000       0.00000000       0.00000000       0.41232470      -0.06165713      -0.45088828
H        0.00000000       0.00000000       0.00000000       0.09583956      -0.05068463      -0.61989904
H        0.00000000       0.00000000       0.00000000       1.13805664       0.30381793      -0.37064797
7
Lattice="529.1772105638412 0.0 0.0 0.0 529.1772105638412 0.0 0.0 0.0 529.1772105638412" Properties=species:S:1:pos:R:3:forces_component_raw:R:3 ipi_comment="Step:        8960  Bead:       0 forces_component_raw{ase}  cell{ase}" pbc="T T T"
O        0.00000000       0.00000000       0.00000000       0.73676109       0.99187279      -1.80972481
H        0.00000000       0.00000000       0.00000000      -1.04570532      -0.54577166       1.17830682
H        0.00000000       0.00000000       0.00000000       0.43978134       0.02091259       0.21730901
O        0.00000000       0.00000000       0.00000000      -2.20178247      -0.78850585       0.78608573
H        0.00000000       0.00000000       0.00000000      -0.58847028      -0.33537710       0.29189366
H        0.00000000       0.00000000       0.00000000       0.70988500       0.19950461      -1.22137869
H        0.00000000       0.00000000       0.00000000       1.94953061       0.45736468       0.55750835
7
Lattice="529.1772105638412 0.0 0.0 0.0 529.1772105638412 0.0 0.0 0.0 529.1772105638412" Properties=species:S:1:pos:R:3:forces_component_raw:R:3 ipi_comment="Step:        8980  Bead:       0 forces_component_raw{ase}  cell{ase}" pbc="T T T"
O        0.00000000       0.00000000       0.00000000      -0.23817308       0.51349127      -1.35736692
H        0.00000000       0.00000000       0.00000000      -0.68151248      -0.42070586       0.91387570
H        0.00000000       0.00000000       0.00000000       0.48270169       0.23168665       0.05578946
O        0.00000000       0.00000000       0.00000000      -2.59541703      -1.89552498       1.17210841
H        0.00000000       0.00000000       0.00000000       0.48307198       0.35291624      -0.00158088
H        0.00000000       0.00000000       0.00000000       0.72298533       0.05318451      -1.11609757
H        0.00000000       0.00000000       0.00000000       1.82634354       1.16495228       0.33327189
7
Lattice="529.1772105638412 0.0 0.0 0.0 529.1772105638412 0.0 0.0 0.0 529.1772105638412" Properties=species:S:1:pos:R:3:forces_component_raw:R:3 ipi_comment="Step:        9000  Bead:       0 forces_component_raw{ase}  cell{ase}" pbc="T T T"
O        0.00000000       0.00000000       0.00000000      -0.47434685       0.42977408      -0.13757658
H        0.00000000       0.00000000       0.00000000      -0.09051800      -0.09192726       0.00372827
H        0.00000000       0.00000000       0.00000000       0.51398432       0.07218027       0.14132887
O        0.00000000       0.00000000       0.00000000      -1.95180417      -0.56917393      -0.06061921
H        0.00000000       0.00000000       0.00000000      -0.25948048      -0.59525466      -0.13113378
H        0.00000000       0.00000000       0.00000000       0.35889262       0.13035426      -0.69347465
H        0.00000000       0.00000000       0.00000000       1.90327239       0.62404716       0.87774706
7
Lattice="529.1772105638412 0.0 0.0 0.0 529.1772105638412 0.0 0.0 0.0 529.1772105638412" Properties=species:S:1:pos:R:3:forces_component_raw:R:3 ipi_comment="Step:        9020  Bead:       0 forces_component_raw{ase}  cell{ase}" pbc="T T T"
O        0.00000000       0.00000000       0.00000000      -0.51683778      -0.52249777       0.98807776
H        0.00000000       0.00000000       0.00000000       0.37128681       0.10956408      -0.69218886
H        0.00000000       0.00000000       0.00000000       0.26813197       0.11535610       0.00672711
O        0.00000000       0.00000000       0.00000000      -0.69689983      -0.10644531      -1.32127810
H        0.00000000       0.00000000       0.00000000      -0.05074922      -0.02753626       0.21083801
H        0.00000000       0.00000000       0.00000000      -0.80921340      -0.04847547       0.31906736
H        0.00000000       0.00000000       0.00000000       1.43428147       0.48003456       0.48875657
7
Lattice="529.1772105638412 0.0 0.0 0.0 529.1772105638412 0.0 0.0 0.0 529.1772105638412" Properties=species:S:1:pos:R:3:forces_component_raw:R:3 ipi_comment="Step:        9040  Bead:       0 forces_component_raw{ase}  cell{ase}" pbc="T T T"
O        0.00000000       0.00000000       0.00000000      -0.09263866      -1.00984740       2.02152062
H        0.00000000       0.00000000       0.00000000       0.89092547       0.36274731      -1.28708566
H        0.00000000       0.00000000       0.00000000      -0.40417069       0.04475889      -0.03635781
O        0.00000000       0.00000000       0.00000000       0.74113852       1.03380060      -1.80717397
H        0.00000000       0.00000000       0.00000000      -0.10509967       0.29484558      -0.25998268
H        0.00000000       0.00000000       0.00000000      -0.95318163      -0.64752078       1.41043735
H        0.00000000       0.00000000       0.00000000      -0.07697320      -0.07878414      -0.04135789
7
Lattice="529.1772105638412 0.0 0.0 0.0 529.1772105638412 0.0 0.0 0.0 529.1772105638412" Properties=species:S:1:pos:R:3:forces_component_raw:R:3 ipi_comment="Step:        9060  Bead:       0 forces_component_raw{ase}  cell{ase}" pbc="T T T"
O        0.00000000       0.00000000       0.00000000       0.28885114      -0.22801249       1.66052223
H        0.00000000       0.00000000       0.00000000       1.24220062       0.29022384      -1.71482587
H        0.00000000       0.00000000       0.00000000      -1.44660461      -0.04273388       0.05895126
O        0.00000000       0.00000000       0.00000000       1.62921024       2.18495322      -1.70975602
H        0.00000000       0.00000000       0.00000000       0.16331279      -0.36360818       0.29033372
H        0.00000000       0.00000000       0.00000000      -0.61183298      -1.13083291       1.71759987
H        0.00000000       0.00000000       0.00000000      -1.26513720      -0.70998967      -0.30282527
7
Lattice="529.1772105638412 0.0 0.0 0.0 529.1772105638412 0.0 0.0 0.0 529.1772105638412" Properties=species:S:1:pos:R:3:forces_component_raw:R:3 ipi_comment="Step:        9080  Bead:       0 forces_component_raw{ase}  cell{ase}" pbc="T T T"
O        0.00000000       0.00000000       0.00000000       0.97637272       0.36052278       1.61915410
H        0.00000000       0.00000000       0.00000000       0.42854661      -0.03674345      -1.81287480
H        0.00000000       0.00000000       0.00000000      -1.24836648      -0.22106594      -0.23461971
O        0.00000000       0.00000000       0.00000000       1.88098789       1.13128209      -0.05311527
H        0.00000000       0.00000000       0.00000000      -0.27220354       0.10302392       0.15421733
H        0.00000000       0.00000000       0.00000000      -0.74839789      -1.06168187       1.00284481
H        0.00000000       0.00000000       0.00000000      -1.01693917      -0.27533743      -0.67560679
7
Lattice="529.1772105638412 0.0 0.0 0.0 529.1772105638412 0.0 0.0 0.0 529.1772105638412" Properties=species:S:1:pos:R:3:forces_component_raw:R:3 ipi_comment="Step:        9100  Bead:       0 forces_component_raw{ase}  cell{ase}" pbc="T T T"
O        0.00000000       0.00000000       0.00000000       1.06677532       0.82367218      -0.12036127
H        0.00000000       0.00000000       0.00000000       0.38193145      -0.30807957      -0.36187369
H        0.00000000       0.00000000       0.00000000      -1.38256872      -0.17803577       0.24059086
O        0.00000000       0.00000000       0.00000000      -0.44918498       0.23913047      -0.62586361
H        0.00000000       0.00000000       0.00000000      -0.09974970      -0.23196140       0.01570034
H        0.00000000       0.00000000       0.00000000       0.45923877      -0.11321926       0.53798223
H        0.00000000       0.00000000       0.00000000       0.02355796      -0.23150677       0.31382522
7
Lattice="529.1772105638412 0.0 0.0 0.0 529.1772105638412 0.0 0.0 0.0 529.1772105638412" Properties=species:S:1:pos:R:3:forces_component_raw:R:3 ipi_comment="Step:        9120  Bead:       0 forces_component_raw{ase}  cell{ase}" pbc="T T T"
O        0.00000000       0.00000000       0.00000000       1.11392498       0.22172983      -0.70185155
H        0.00000000       0.00000000       0.00000000      -0.14609483       0.13280720       0.43832138
H        0.00000000       0.00000000       0.00000000      -1.23979199       0.02538894      -0.17396529
O        0.00000000       0.00000000       0.00000000      -0.37924439      -1.04663158       1.42316056
H        0.00000000       0.00000000       0.00000000      -0.02627289      -0.11317596      -0.05544297
H        0.00000000       0.00000000       0.00000000       0.23595858       0.50137282      -0.81523895
H        0.00000000       0.00000000       0.00000000       0.44152042       0.27850869      -0.11498320
7
Lattice="529.1772105638412 0.0 0.0 0.0 529.1772105638412 0.0 0.0 0.0 529.1772105638412" Properties=species:S:1:pos:R:3:forces_component_raw:R:3 ipi_comment="Step:        9140  Bead:       0 forces_component_raw{ase}  cell{ase}" pbc="T T T"
O        0.00000000       0.00000000       0.00000000      -0.04441846      -0.89207125      -1.52094198
H        0.00000000       0.00000000       0.00000000       0.03233728       0.68999642       1.00729966
H        0.00000000       0.00000000       0.00000000      -0.37687329       0.25725687       0.10449263
O        0.00000000       0.00000000       0.00000000      -1.32888389      -0.65981162      -0.32324335
H        0.00000000       0.00000000       0.00000000       0.41579735       0.21764223       0.17757919
H        0.00000000       0.00000000       0.00000000       0.63491774       0.40301782      -0.10685468
H        0.00000000       0.00000000       0.00000000       0.66712332      -0.01603046       0.66166842
7
Lattice="529.1772105638412 0.0 0.0 0.0 529.1772105638412 0.0 0.0 0.0 529.1772105638412" Properties=species:S:1:pos:R:3:forces_component_raw:R:3 ipi_comment="Step:        9160  Bead:       0 forces_component_raw{ase}  cell{ase}" pbc="T T T"
O        0.00000000       0.00000000       0.00000000       0.68021929      -0.35211113       0.20248392
H        0.00000000       0.00000000       0.00000000      -0.47449595       0.64605844       0.55089843
H        0.00000000       0.00000000       0.00000000       0.36639804      -0.55588913      -0.23527531
O        0.00000000       0.00000000       0.00000000      -0.45260400      -0.60815203       0.48285830
H        0.00000000       0.00000000       0.00000000      -0.83618993      -0.22096777      -0.06585601
H        0.00000000       0.00000000       0.00000000       0.12064034       0.82469893      -1.12451184
H        0.00000000       0.00000000       0.00000000       0.59603214       0.26636273       0.18940261
7
Lattice="529.1772105638412 0.0 0.0 0.0 529.1772105638412 0.0 0.0 0.0 529.1772105638412" Properties=species:S:1:pos:R:3:forces_component_raw:R:3 ipi_comment="Step:        9180  Bead:       0 forces_component_raw{ase}  cell{ase}" pbc="T T T"
O        0.00000000       0.00000000       0.00000000      -2.25491786       0.23136637      -0.04957071
H        0.00000000       0.00000000       0.00000000       0.35156337       0.49430925       0.72123313
H        0.00000000       0.00000000       0.00000000       1.75667572      -0.94026095      -0.16345608
O        0.00000000       0.00000000       0.00000000      -1.04060137      -0.59924650      -0.04554224
H        0.00000000       0.00000000       0.00000000       1.13056326       0.25644925       0.28294438
H        0.00000000       0.00000000       0.00000000       0.81601286       0.93511450      -0.46319863
H        0.00000000       0.00000000       0.00000000      -0.75929594      -0.37773183      -0.28240979
7
Lattice="529.1772105638412 0.0 0.0 0.0 529.1772105638412 0.0 0.0 0.0 529.1772105638412" Properties=species:S:1:pos:R:3:forces_component_raw:R:3 ipi_comment="Step:        9200  Bead:       0 forces_component_raw{ase}  cell{ase}" pbc="T T T"
O        0.00000000       0.00000000       0.00000000      -0.35555846       0.23310740       0.28955385
H        0.00000000       0.00000000       0.00000000       0.01922169       0.79848683       0.70944071
H        0.00000000       0.00000000       0.00000000       0.81713951      -1.05501819      -0.34908259
O        0.00000000       0.00000000       0.00000000       1.55673910       0.98316574       0.91600710
H        0.00000000       0.00000000       0.00000000      -0.69882083      -0.58294928      -0.25269908
H        0.00000000       0.00000000       0.00000000      -0.24817967       0.15509561      -0.70196986
H        0.00000000       0.00000000       0.00000000      -1.09054137      -0.53188837      -0.61125022
7
Lattice="529.1772105638412 0.0 0.0 0.0 529.1772105638412 0.0 0.0 0.0 529.1772105638412" Properties=species:S:1:pos:R:3:forces_component_raw:R:3 ipi_comment="Step:        9220  Bead:       0 forces_component_raw{ase}  cell{ase}" pbc="T T T"
O        0.00000000       0.00000000       0.00000000      -0.93121171       0.00363365      -0.76454008
H        0.00000000       0.00000000       0.00000000       0.06464766       0.49002886       0.14342511
H        0.00000000       0.00000000       0.00000000       0.68966460      -0.78673279       0.13328519
O        0.00000000       0.00000000       0.00000000       0.55992073       0.36248407       0.05780709
H        0.00000000       0.00000000       0.00000000       0.65692091       0.55036938       0.40972358
H        0.00000000       0.00000000       0.00000000       0.49975163       0.21997470       0.30576268
H        0.00000000       0.00000000       0.00000000      -1.53969384      -0.83975792      -0.28546345
7
Lattice="529.1772105638412 0.0 0.0 0.0 529.1772105638412 0.0 0.0 0.0 529.1772105638412" Properties=species:S:1:pos:R:3:forces_component_raw:R:3 ipi_comment="Step:        9240  Bead:       0 forces_component_raw{ase}  cell{ase}" pbc="T T T"
O        0.00000000       0.00000000       0.00000000       0.44622618       1.02529121       0.22413442
H        0.00000000       0.00000000       0.00000000      -0.40797824      -0.83603603      -0.53435218
H        0.00000000       0.00000000       0.00000000      -0.07309209       0.23694399      -0.05126186
O        0.00000000       0.00000000       0.00000000       1.00858605       0.05773039       1.22606755
H        0.00000000       0.00000000       0.00000000      -0.25136972      -0.50816506      -0.12205333
H        0.00000000       0.00000000       0.00000000      -0.25377366       0.02444980      -0.29906458
H        0.00000000       0.00000000       0.00000000      -0.46859843      -0.00021431      -0.44346991
7
Lattice="529.1772105638412 0.0 0.0 0.0 529.1772105638412 0.0 0.0 0.0 529.1772105638412" Properties=species:S:1:pos:R:3:forces_component_raw:R:3 ipi_comment="Step:        9260  Bead:       0 forces_component_raw{ase}  cell{ase}" pbc="T T T"
O        0.00000000       0.00000000       0.00000000       1.57972288      -0.36128354       1.24901259
H        0.00000000       0.00000000       0.00000000      -0.64534044      -0.66909903      -0.81095052
H        0.00000000       0.00000000       0.00000000      -0.66799253       0.69644016      -0.17623626
O        0.00000000       0.00000000       0.00000000      -0.78291452       0.33108312      -1.28578460
H        0.00000000       0.00000000       0.00000000      -0.60334438       0.37558848      -0.25973785
H        0.00000000       0.00000000       0.00000000       0.27342290      -0.18626449       0.47556204
H        0.00000000       0.00000000       0.00000000       0.84644616      -0.18646476       0.80813450
7
Lattice="529.1772105638412 0.0 0.0 0.0 529.1772105638412 0.0 0.0 0.0 529.1772105638412" Properties=species:S:1:pos:R:3:forces_component_raw:R:3 ipi_comment="Step:        9280  Bead:       0 forces_component_raw{ase}  cell{ase}" pbc="T T T"
O        0.00000000       0.00000000       0.00000000       0.80330289      -0.22049324       0.45540118
H        0.00000000       0.00000000       0.00000000      -0.24720763      -1.11459208      -0.21818434
H        0.00000000       0.00000000       0.00000000      -0.82242930       1.48641455      -0.34259242
O        0.00000000       0.00000000       0.00000000      -1.92516888      -0.15408264      -0.40595114
H        0.00000000       0.00000000       0.00000000       1.09446037      -0.10286808       0.58410496
H        0.00000000       0.00000000       0.00000000      -0.41164264       0.02952402       0.28075668
H        0.00000000       0.00000000       0.00000000       1.50868523       0.07609755      -0.35353488
7
Lattice="529.1772105638412 0.0 0.0 0.0 529.1772105638412 0.0 0.0 0.0 529.1772105638412" Properties=species:S:1:pos:R:3:forces_component_raw:R:3 ipi_comment="Step:        9300  Bead:       0 forces_component_raw{ase}  cell{ase}" pbc="T T T"
O        0.00000000       0.00000000       0.00000000       1.17496693       0.31864512       0.72890079
H        0.00000000       0.00000000       0.00000000      -0.37860400      -0.57413960      -0.13631980
H        0.00000000       0.00000000       0.00000000      -0.80479652       0.74987573      -0.72460926
O        0.00000000       0.00000000       0.00000000      -0.20362437       1.50168062      -0.97817868
H        0.00000000       0.00000000       0.00000000      -0.54366350      -0.56321180       0.09615026
H        0.00000000       0.00000000       0.00000000      -0.20896614      -0.60137373       0.22795767
H        0.00000000       0.00000000       0.00000000       0.96468765      -0.83147645       0.78609908
7
Lattice="529.1772105638412 0.0 0.0 0.0 529.1772105638412 0.0 0.0 0.0 529.1772105638412" Properties=species:S:1:pos:R:3:forces_component_raw:R:3 ipi_comment="Step:        9320  Bead:       0 forces_component_raw{ase}  cell{ase}" pbc="T T T"
O        0.00000000       0.00000000       0.00000000      -0.19446991      -0.30786100       0.31690300
H        0.00000000       0.00000000       0.00000000       0.05334401      -0.65402973      -0.38136530
H        0.00000000       0.00000000       0.00000000       0.18973696       0.29129437       0.47134617
O        0.00000000       0.00000000       0.00000000      -0.74919737      -0.06766339       0.53179073
H        0.00000000       0.00000000       0.00000000       0.30644673       0.81551212      -0.47635222
H        0.00000000       0.00000000       0.00000000      -0.26983672       0.08168130      -0.00413758
H        0.00000000       0.00000000       0.00000000       0.66397631      -0.15893371      -0.45818490
7
Lattice="529.1772105638412 0.0 0.0 0.0 529.1772105638412 0.0 0.0 0.0 529.1772105638412" Properties=species:S:1:pos:R:3:forces_component_raw:R:3 ipi_comment="Step:        9340  Bead:       0 forces_component_raw{ase}  cell{ase}" pbc="T T T"
O        0.00000000       0.00000000       0.00000000      -0.26074189       0.73993051      -0.07000905
H        0.00000000       0.00000000       0.00000000      -0.09977354       0.61725283       0.34858099
H        0.00000000       0.00000000       0.00000000       0.49422577      -1.09521902      -0.10658521
O        0.00000000       0.00000000       0.00000000      -0.11889865       0.79150617      -0.77183742
H        0.00000000       0.00000000       0.00000000      -0.15025651      -0.70994920       0.83142877
H        0.00000000       0.00000000       0.00000000       0.02917153      -0.09232390      -0.33542678
H        0.00000000       0.00000000       0.00000000       0.10627329      -0.25119722       0.10384867
7
Lattice="529.1772105638412 0.0 0.0 0.0 529.1772105638412 0.0 0.0 0.0 529.1772105638412" Properties=species:S:1:pos:R:3:forces_component_raw:R:3 ipi_comment="Step:        9360  Bead:       0 forces_component_raw{ase}  cell{ase}" pbc="T T T"
O        0.00000000       0.00000000       0.00000000      -1.27596784      -0.25080520      -1.58540118
H        0.00000000       0.00000000       0.00000000       0.37752509       1.29117012       1.00018573
H        0.00000000       0.00000000       0.00000000       0.96587020      -1.39842177       0.45723173
O        0.00000000       0.00000000       0.00000000      -0.38846794      -1.00915528       1.67075181
H        0.00000000       0.00000000       0.00000000      -0.15671888       0.46531025      -0.31823480
H        0.00000000       0.00000000       0.00000000       1.14584446       0.80711252      -1.16160608
H        0.00000000       0.00000000       0.00000000      -0.66808510       0.09478924      -0.06292722
7
Lattice="529.1772105638412 0.0 0.0 0.0 529.1772105638412 0.0 0.0 0.0 529.1772105638412" Properties=species:S:1:pos:R:3:forces_component_raw:R:3 ipi_comment="Step:        9380  Bead:       0 forces_component_raw{ase}  cell{ase}" pbc="T T T"
O        0.00000000       0.00000000       0.00000000      -1.15801251      -0.16197148      -1.76515174
H        0.00000000       0.00000000       0.00000000       0.37013275       1.48763299       1.34699035
H        0.00000000       0.00000000       0.00000000       0.51575601      -0.85888660      -0.03962861
O        0.00000000       0.00000000       0.00000000       0.21455428      -0.67234194       1.82929743
H        0.00000000       0.00000000       0.00000000       0.29991055      -0.46584964      -0.30477598
H        0.00000000       0.00000000       0.00000000       0.78318352       0.52795553      -0.79724306
H        0.00000000       0.00000000       0.00000000      -1.02552462       0.14346102      -0.26948828
7
Lattice="529.1772105638412 0.0 0.0 0.0 529.1772105638412 0.0 0.0 0.0 529.1772105638412" Properties=species:S:1:pos:R:3:forces_component_raw:R:3 ipi_comment="Step:        9400  Bead:       0 forces_component_raw{ase}  cell{ase}" pbc="T T T"
O        0.00000000       0.00000000       0.00000000      -0.11299420      -1.46485234      -1.24746716
H        0.00000000       0.00000000       0.00000000       0.28936184       1.01950658       0.73299986
H        0.00000000       0.00000000       0.00000000      -0.10705626       0.33135265      -0.01968528
O        0.00000000       0.00000000       0.00000000       1.10304737      -0.16024646       0.78982705
H        0.00000000       0.00000000       0.00000000      -0.62414962       0.16703056       0.11659150
H        0.00000000       0.00000000       0.00000000      -0.10608614       0.07522291      -0.26775423
H        0.00000000       0.00000000       0.00000000      -0.44212312       0.03198600      -0.10451192
7
Lattice="529.1772105638412 0.0 0.0 0.0 529.1772105638412 0.0 0.0 0.0 529.1772105638412" Properties=species:S:1:pos:R:3:forces_component_raw:R:3 ipi_comment="Step:        9420  Bead:       0 forces_component_raw{ase}  cell{ase}" pbc="T T T"
O        0.00000000       0.00000000       0.00000000       0.20170113      -1.10998678       0.57125306
H        0.00000000       0.00000000       0.00000000       0.07330030       0.07098466       0.22694731
H        0.00000000       0.00000000       0.00000000      -0.49261817       1.16049421      -0.40055102
O        0.00000000       0.00000000       0.00000000      -0.26022774       0.21499488      -0.96992386
H        0.00000000       0.00000000       0.00000000       0.79654455      -0.23667394       0.18892950
H        0.00000000       0.00000000       0.00000000      -0.14091638      -0.10039682       0.44370416
H        0.00000000       0.00000000       0.00000000      -0.17778373       0.00058383      -0.06035926
7
Lattice="529.1772105638412 0.0 0.0 0.0 529.1772105638412 0.0 0.0 0.0 529.1772105638412" Properties=species:S:1:pos:R:3:forces_component_raw:R:3 ipi_comment="Step:        9440  Bead:       0 forces_component_raw{ase}  cell{ase}" pbc="T T T"
O        0.00000000       0.00000000       0.00000000       0.79135812      -0.55166465       1.91294885
H        0.00000000       0.00000000       0.00000000      -0.42099404      -1.26941872      -0.76957566
H        0.00000000       0.00000000       0.00000000      -0.09994125       1.47840953      -0.20893520
O        0.00000000       0.00000000       0.00000000       0.42094284       0.34832242      -0.59384608
H        0.00000000       0.00000000       0.00000000      -0.48714468       0.10768154      -0.09157208
H        0.00000000       0.00000000       0.00000000      -0.51647043      -0.15223505      -0.22771740
H        0.00000000       0.00000000       0.00000000       0.31224945       0.03890488      -0.02130234
7
Lattice="529.1772105638412 0.0 0.0 0.0 529.1772105638412 0.0 0.0 0.0 529.1772105638412" Properties=species:S:1:pos:R:3:forces_component_raw:R:3 ipi_comment="Step:        9460  Bead:       0 forces_component_raw{ase}  cell{ase}" pbc="T T T"
O        0.00000000       0.00000000       0.00000000       1.43725109      -0.36017114       1.93506217
H        0.00000000       0.00000000       0.00000000      -1.06388569      -0.96008277      -1.05167091
H        0.00000000       0.00000000       0.00000000      -0.27477026       1.09312284      -0.61169088
O        0.00000000       0.00000000       0.00000000      -1.10900069      -0.48548669      -1.85535157
H        0.00000000       0.00000000       0.00000000       0.02465349       0.15853867       0.25067720
H        0.00000000       0.00000000       0.00000000       0.34857035       0.07994984       0.42248684
H        0.00000000       0.00000000       0.00000000       0.63718158       0.47412926       0.91048706
7
Lattice="529.1772105638412 0.0 0.0 0.0 529.1772105638412 0.0 0.0 0.0 529.1772105638412" Properties=species:S:1:pos:R:3:forces_component_raw:R:3 ipi_comment="Step:        9480  Bead:       0 forces_component_raw{ase}  cell{ase}" pbc="T T T"
O        0.00000000       0.00000000       0.00000000       1.18647170       0.55365515       0.48379424
H        0.00000000       0.00000000       0.00000000      -0.88667268      -0.74343336      -0.18097159
H        0.00000000       0.00000000       0.00000000      -0.07263609       0.56803334      -0.30187640
O        0.00000000       0.00000000       0.00000000      -1.34117449      -0.79972899       0.81004358
H        0.00000000       0.00000000       0.00000000      -0.05586383      -0.27506781      -0.12972078
H        0.00000000       0.00000000       0.00000000      -0.12230742      -0.32281482      -0.27276826
H        0.00000000       0.00000000       0.00000000       1.29218269       1.01935637      -0.40850079
7
Lattice="529.1772105638412 0.0 0.0 0.0 529.1772105638412 0.0 0.0 0.0 529.1772105638412" Properties=species:S:1:pos:R:3:forces_component_raw:R:3 ipi_comment="Step:        9500  Bead:       0 forces_component_raw{ase}  cell{ase}" pbc="T T T"
O        0.00000000       0.00000000       0.00000000       0.35484499       0.81555718      -0.39284837
H        0.00000000       0.00000000       0.00000000      -0.43264333      -0.33866903      -0.27645665
H        0.00000000       0.00000000       0.00000000       0.22633231      -0.76583833       0.50205654
O        0.00000000       0.00000000       0.00000000       0.25289258      -1.34944821      -0.94807613
H        0.00000000       0.00000000       0.00000000      -0.26872563       0.46471006       0.10118027
H        0.00000000       0.00000000       0.00000000      -0.14589298       0.50249273       0.55668688
H        0.00000000       0.00000000       0.00000000       0.01319206       0.67119581       0.45745763
7
Lattice="529.1772105638412 0.0 0.0 0.0 529.1772105638412 0.0 0.0 0.0 529.1772105638412" Properties=species:S:1:pos:R:3:forces_component_raw:R:3 ipi_comment="Step:        9520  Bead:       0 forces_component_raw{ase}  cell{ase}" pbc="T T T"
O        0.00000000       0.00000000       0.00000000      -0.05106594       1.06896782       0.28404835
H        0.00000000       0.00000000       0.00000000      -0.03567222       0.37149882      -0.11830813
H        0.00000000       0.00000000       0.00000000      -0.10598066      -1.26363671      -0.01234758
O        0.00000000       0.00000000       0.00000000       0.44824591       0.42888194       0.70655161
H        0.00000000       0.00000000       0.00000000       0.17096952      -0.40759647      -0.39286715
H        0.00000000       0.00000000       0.00000000      -0.59344894      -0.11673923      -0.21337353
H        0.00000000       0.00000000       0.00000000       0.16695225      -0.08137625      -0.25370362
7
Lattice="529.1772105638412 0.0 0.0 0.0 529.1772105638412 0.0 0.0 0.0 529.1772105638412" Properties=species:S:1:pos:R:3:forces_component_raw:R:3 ipi_comment="Step:        9540  Bead:       0 forces_component_raw{ase}  cell{ase}" pbc="T T T"
O        0.00000000       0.00000000       0.00000000      -0.97936243       0.60880399      -1.43116308
H        0.00000000       0.00000000       0.00000000       0.65247858       0.40131843       0.51139987
H        0.00000000       0.00000000       0.00000000       0.13318214      -1.36108756       0.73408592
O        0.00000000       0.00000000       0.00000000       1.00301659       0.14253080      -0.32167429
H        0.00000000       0.00000000       0.00000000      -0.03878430       0.34757048       0.40054917
H        0.00000000       0.00000000       0.00000000       0.07691008       0.08409122       0.11156503
H        0.00000000       0.00000000       0.00000000      -0.84744084      -0.22322732      -0.00476284
7
Lattice="529.1772105638412 0.0 0.0 0.0 529.1772105638412 0.0 0.0 0.0 529.1772105638412" Properties=species:S:1:pos:R:3:forces_component_raw:R:3 ipi_comment="Step:        9560  Bead:       0 forces_component_raw{ase}  cell{ase}" pbc="T T T"
O        0.00000000       0.00000000       0.00000000      -0.68393451      -0.21352848       0.14235425
H        0.00000000       0.00000000       0.00000000       0.97943557       0.99990595       0.88997793
H        0.00000000       0.00000000       0.00000000      -0.06013264      -0.40441495      -0.27548584
O        0.00000000       0.00000000       0.00000000       0.38105247       0.06368355       0.92834175
H        0.00000000       0.00000000       0.00000000      -0.43229058      -0.28277141      -0.84022790
H        0.00000000       0.00000000       0.00000000       0.31299228      -0.09697586      -0.54522151
H        0.00000000       0.00000000       0.00000000      -0.49712241      -0.06589875      -0.29973871
7
Lattice="529.1772105638412 0.0 0.0 0.0 529.1772105638412 0.0 0.0 0.0 529.1772105638412" Properties=species:S:1:pos:R:3:forces_component_raw:R:3 ipi_comment="Step:        9580  Bead:       0 forces_component_raw{ase}  cell{ase}" pbc="T T T"
O        0.00000000       0.00000000       0.00000000      -0.67221093      -1.02519763      -0.58353895
H        0.00000000       0.00000000       0.00000000       0.53926140       0.44785306       0.51561672
H        0.00000000       0.00000000       0.00000000       0.08007023       0.50120425      -0.36228719
O        0.00000000       0.00000000       0.00000000      -1.86560250       0.26008701       0.73984027
H        0.00000000       0.00000000       0.00000000       0.26068109       0.40499988       0.28468835
H        0.00000000       0.00000000       0.00000000       0.90002990      -0.61131930      -0.90548122
H        0.00000000       0.00000000       0.00000000       0.75777060       0.02237265       0.31116200
7
Lattice="529.1772105638412 0.0 0.0 0.0 529.1772105638412 0.0 0.0 0.0 529.1772105638412" Properties=species:S:1:pos:R:3:forces_component_raw:R:3 ipi_comment="Step:        9600  Bead:       0 forces_component_raw{ase}  cell{ase}" pbc="T T T"
O        0.00000000       0.00000000       0.00000000       0.16139960      -0.12481906       0.02000138
H        0.00000000       0.00000000       0.00000000      -0.09786952      -0.05753368      -0.14805053
H        0.00000000       0.00000000       0.00000000      -0.02097483       0.05586499      -0.11097648
O        0.00000000       0.00000000       0.00000000      -1.61123991       0.79124147       0.58115471
H        0.00000000       0.00000000       0.00000000       0.03092307       0.21014184       0.35981482
H        0.00000000       0.00000000       0.00000000       0.26985657      -0.52124667      -0.73627222
H        0.00000000       0.00000000       0.00000000       1.26790512      -0.35364902       0.03432828
7
Lattice="529.1772105638412 0.0 0.0 0.0 529.1772105638412 0.0 0.0 0.0 529.1772105638412" Properties=species:S:1:pos:R:3:forces_component_raw:R:3 ipi_comment="Step:        9620  Bead:       0 forces_component_raw{ase}  cell{ase}" pbc="T T T"
O        0.00000000       0.00000000       0.00000000       0.22199632       0.14288254       0.68287146
H        0.00000000       0.00000000       0.00000000      -0.01976508       0.01117882      -0.18882485
H        0.00000000       0.00000000       0.00000000       0.04707959       0.07030013      -0.28876454
O        0.00000000       0.00000000       0.00000000      -0.53793973       0.20045683      -0.26914948
H        0.00000000       0.00000000       0.00000000      -0.50236219      -0.35867757      -0.43929410
H        0.00000000       0.00000000       0.00000000       0.16442347       0.07921779       0.29121646
H        0.00000000       0.00000000       0.00000000       0.62656766      -0.14535853       0.21194480
7
Lattice="529.1772105638412 0.0 0.0 0.0 529.1772105638412 0.0 0.0 0.0 529.1772105638412" Properties=species:S:1:pos:R:3:forces_component_raw:R:3 ipi_comment="Step:        9640  Bead:       0 forces_component_raw{ase}  cell{ase}" pbc="T T T"
O        0.00000000       0.00000000       0.00000000      -0.21869555       0.18572001       0.01603118
H        0.00000000       0.00000000       0.00000000      -0.11980468      -0.28675070      -0.44205138
H        0.00000000       0.00000000       0.00000000       0.08396712      -0.37689948       0.68195892
O        0.00000000       0.00000000       0.00000000      -0.04092520      -0.54267043      -1.17093694
H        0.00000000       0.00000000       0.00000000       0.60160238       0.12205180       0.91690558
H        0.00000000       0.00000000       0.00000000      -0.03937528       0.64890582       0.39426798
H        0.00000000       0.00000000       0.00000000      -0.26676869       0.24964309      -0.39617544
7
Lattice="529.1772105638412 0.0 0.0 0.0 529.1772105638412 0.0 0.0 0.0 529.1772105638412" Properties=species:S:1:pos:R:3:forces_component_raw:R:3 ipi_comment="Step:        9660  Bead:       0 forces_component_raw{ase}  cell{ase}" pbc="T T T"
O        0.00000000       0.00000000       0.00000000       0.37340278       1.19732714       0.83700675
H        0.00000000       0.00000000       0.00000000      -0.17033015      -0.00317180      -0.41951841
H        0.00000000       0.00000000       0.00000000      -0.01308437      -0.73295933      -0.22951245
O        0.00000000       0.00000000       0.00000000       1.06319070      -1.58973337       0.28866082
H        0.00000000       0.00000000       0.00000000      -0.53220904      -0.55592775      -0.46703950
H        0.00000000       0.00000000       0.00000000      -0.03328513       1.11783815       0.34113181
H        0.00000000       0.00000000       0.00000000      -0.68768478       0.56662679      -0.35072908
7
Lattice="529.1772105638412 0.0 0.0 0.0 529.1772105638412 0.0 0.0 0.0 529.1772105638412" Properties=species:S:1:pos:R:3:forces_component_raw:R:3 ipi_comment="Step:        9680  Bead:       0 forces_component_raw{ase}  cell{ase}" pbc="T T T"
O        0.00000000       0.00000000       0.00000000      -1.33598590      -0.14759842      -1.43875599
H        0.00000000       0.00000000       0.00000000       0.86219645       0.58280742       0.88990766
H        0.00000000       0.00000000       0.00000000       0.42523164      -0.48163909       0.54514349
O        0.00000000       0.00000000       0.00000000      -0.09290984      -1.08360684      -0.49128294
H        0.00000000       0.00000000       0.00000000       0.00085792       0.43430075      -0.07859303
H        0.00000000       0.00000000       0.00000000       0.18459688       0.57937086       0.19043744
H        0.00000000       0.00000000       0.00000000      -0.04398730       0.11636525       0.38314352
7
Lattice="529.1772105638412 0.0 0.0 0.0 529.1772105638412 0.0 0.0 0.0 529.1772105638412" Properties=species:S:1:pos:R:3:forces_component_raw:R:3 ipi_comment="Step:        9700  Bead:       0 forces_component_raw{ase}  cell{ase}" pbc="T T T"
O        0.00000000       0.00000000       0.00000000      -0.70037294       0.31447280      -0.73025143
H        0.00000000       0.00000000       0.00000000       0.46801588       1.25489497       0.36754525
H        0.00000000       0.00000000       0.00000000      -0.07550696      -1.11506653      -0.18169969
O        0.00000000       0.00000000       0.00000000      -0.20922373       0.52564675      -0.06902573
H        0.00000000       0.00000000       0.00000000       0.49871343      -0.55312717      -0.06782272
H        0.00000000       0.00000000       0.00000000      -0.05693344       0.30957082       0.43268430
H        0.00000000       0.00000000       0.00000000       0.07530764      -0.73639155       0.24857003
7
Lattice="529.1772105638412 0.0 0.0 0.0 529.1772105638412 0.0 0.0 0.0 529.1772105638412" Properties=species:S:1:pos:R:3:forces_component_raw:R:3 ipi_comment="Step:        9720  Bead:       0 forces_component_raw{ase}  cell{ase}" pbc="T T T"
O        0.00000000       0.00000000       0.00000000      -0.65365863      -1.44224310      -1.98380208
H        0.00000000       0.00000000       0.00000000       0.91145909       0.71294928       0.70880574
H        0.00000000       0.00000000       0.00000000       0.25307402       0.16737682       0.73372829
O        0.00000000       0.00000000       0.00000000       0.11166709       1.11714220      -0.32401693
H        0.00000000       0.00000000       0.00000000      -0.71071619       0.84728176       0.25982657
H        0.00000000       0.00000000       0.00000000       0.01723347       0.14583549       0.23540780
H        0.00000000       0.00000000       0.00000000       0.07094115      -1.54834247       0.37005043
7
Lattice="529.1772105638412 0.0 0.0 0.0 529.1772105638412 0.0 0.0 0.0 529.1772105638412" Properties=species:S:1:pos:R:3:forces_component_raw:R:3 ipi_comment="Step:        9740  Bead:       0 forces_component_raw{ase}  cell{ase}" pbc="T T T"
O        0.00000000       0.00000000       0.00000000       0.04047823      -0.43525967       1.47372640
H        0.00000000       0.00000000       0.00000000      -0.03281391       1.20326960       0.15612660
H        0.00000000       0.00000000       0.00000000      -0.33323264      -0.42774728      -0.76027680
O        0.00000000       0.00000000       0.00000000      -0.04981199       1.66487396      -1.00808990
H        0.00000000       0.00000000       0.00000000       0.43592692      -0.90788895      -0.54690182
H        0.00000000       0.00000000       0.00000000      -0.08933727      -0.15677586       0.48445439
H        0.00000000       0.00000000       0.00000000       0.02879062      -0.94047177       0.20096126
7
Lattice="529.1772105638412 0.0 0.0 0.0 529.1772105638412 0.0 0.0 0.0 529.1772105638412" Properties=species:S:1:pos:R:3:forces_component_raw:R:3 ipi_comment="Step:        9760  Bead:       0 forces_component_raw{ase}  cell{ase}" pbc="T T T"
O        0.00000000       0.00000000       0.00000000      -0.41618750      -0.75911218      -0.98280335
H        0.00000000       0.00000000       0.00000000       0.44413757      -0.74105454       0.27534336
H        0.00000000       0.00000000       0.00000000       0.00492406       0.94757784       0.81961858
O        0.00000000       0.00000000       0.00000000      -0.11224741      -0.96289557      -0.17567712
H        0.00000000       0.00000000       0.00000000       0.15598503       1.15420008       0.41597957
H        0.00000000       0.00000000       0.00000000       0.03286098       0.56395555      -0.35071713
H        0.00000000       0.00000000       0.00000000      -0.10947275      -0.20267132      -0.00174384
7
Lattice="529.1772105638412 0.0 0.0 0.0 529.1772105638412 0.0 0.0 0.0 529.1772105638412" Properties=species:S:1:pos:R:3:forces_component_raw:R:3 ipi_comment="Step:        9780  Bead:       0 forces_component_raw{ase}  cell{ase}" pbc="T T T"
O        0.00000000       0.00000000       0.00000000      -0.41703582       1.65657413       2.35779548
H        0.00000000       0.00000000       0.00000000       0.18889633      -1.01977551      -1.41747809
H        0.00000000       0.00000000       0.00000000       0.15599777      -0.22879513      -1.05566633
O        0.00000000       0.00000000       0.00000000      -0.04543749      -1.38746047       1.65946460
H        0.00000000       0.00000000       0.00000000      -0.22982505      -0.79898018      -0.16405782
H        0.00000000       0.00000000       0.00000000       0.08158156       0.15435511       0.30006895
H        0.00000000       0.00000000       0.00000000       0.26582277       1.62408221      -1.68012715
7
Lattice="529.1772105638412 0.0 0.0 0.0 529.1772105638412 0.0 0.0 0.0 529.1772105638412" Properties=species:S:1:pos:R:3:forces_component_raw:R:3 ipi_comment="Step:        9800  Bead:       0 forces_component_raw{ase}  cell{ase}" pbc="T T T"
O        0.00000000       0.00000000       0.00000000      -1.25567317       0.96686113      -0.92743588
H        0.00000000       0.00000000       0.00000000       1.79234004      -1.76673925      -0.14852434
H        0.00000000       0.00000000       0.00000000      -0.38912809       0.64299572       0.28924730
O        0.00000000       0.00000000       0.00000000      -0.96047580      -2.80250025       3.73187376
H        0.00000000       0.00000000       0.00000000      -0.03461337       0.78408051       0.48719847
H        0.00000000       0.00000000       0.00000000       0.06095228       0.27674818      -0.54854185
H        0.00000000       0.00000000       0.00000000       0.78659833       1.89855397      -2.88381768
7
Lattice="529.1772105638412 0.0 0.0 0.0 529.1772105638412 0.0 0.0 0.0 529.1772105638412" Properties=species:S:1:pos:R:3:forces_component_raw:R:3 ipi_comment="Step:        9820  Bead:       0 forces_component_raw{ase}  cell{ase}" pbc="T T T"
O        0.00000000       0.00000000       0.00000000      -0.92535544       1.92140103       1.87447238
H        0.00000000       0.00000000       0.00000000       0.62977499      -1.42821718      -1.00169265
H        0.00000000       0.00000000       0.00000000       0.27405140      -0.43750718      -0.46441183
O        0.00000000       0.00000000       0.00000000      -0.02834916       0.14968154       1.74158812
H        0.00000000       0.00000000       0.00000000      -0.04109713      -0.11334105      -0.47054562
H        0.00000000       0.00000000       0.00000000      -0.83579546      -1.02923763      -0.21818966
H        0.00000000       0.00000000       0.00000000       0.92677069       0.93722046      -1.46122074
7
Lattice="529.1772105638412 0.0 0.0 0.0 529.1772105638412 0.0 0.0 0.0 529.1772105638412" Properties=species:S:1:pos:R:3:forces_component_raw:R:3 ipi_comment="Step:        9840  Bead:       0 forces_component_raw{ase}  cell{ase}" pbc="T T T"
O        0.00000000       0.00000000       0.00000000      -1.62104524       0.10223082      -0.88169378
H        0.00000000       0.00000000       0.00000000       0.98043680      -0.33708823       0.15074471
H        0.00000000       0.00000000       0.00000000       0.41181949       0.44926161       0.39723331
O        0.00000000       0.00000000       0.00000000       1.20792914       0.88981056       1.05873490
H        0.00000000       0.00000000       0.00000000       0.21372196      -0.32204750       0.16141561
H        0.00000000       0.00000000       0.00000000      -1.03494060      -0.69552255      -0.72242838
H        0.00000000       0.00000000       0.00000000      -0.15792161      -0.08664477      -0.16400646
7
Lattice="529.1772105638412 0.0 0.0 0.0 529.1772105638412 0.0 0.0 0.0 529.1772105638412" Properties=species:S:1:pos:R:3:forces_component_raw:R:3 ipi_comment="Step:        9860  Bead:       0 forces_component_raw{ase}  cell{ase}" pbc="T T T"
O        0.00000000       0.00000000       0.00000000      -0.38986513      -1.01755119      -0.52583528
H        0.00000000       0.00000000       0.00000000      -0.98507863       0.06197661       0.19709703
H        0.00000000       0.00000000       0.00000000       1.43299222       0.54795581       0.08854450
O        0.00000000       0.00000000       0.00000000       2.01550150       0.36325955      -0.07253104
H        0.00000000       0.00000000       0.00000000      -0.23003560       0.65996385       0.07418011
H        0.00000000       0.00000000       0.00000000      -1.13731909      -0.28879368      -0.42637056
H        0.00000000       0.00000000       0.00000000      -0.70619536      -0.32681090       0.66491521
7
Lattice="529.1772105638412 0.0 0.0 0.0 529.1772105638412 0.0 0.0 0.0 529.1772105638412" Properties=species:S:1:pos:R:3:forces_component_raw:R:3 ipi_comment="Step:        9880  Bead:       0 forces_component_raw{ase}  cell{ase}" pbc="T T T"
O        0.00000000       0.00000000       0.00000000       0.65284485      -0.57594991      -1.42926634
H        0.00000000       0.00000000       0.00000000      -1.34693134       0.34047902       1.24229634
H        0.00000000       0.00000000       0.00000000       0.51107156       0.63624483       0.42437139
O        0.00000000       0.00000000       0.00000000       1.21616268       0.64278877      -0.42703617
H        0.00000000       0.00000000       0.00000000       0.29901764      -0.69472003      -0.24377829
H        0.00000000       0.00000000       0.00000000       0.01152956       0.08383926      -0.27276635
H        0.00000000       0.00000000       0.00000000      -1.34369493      -0.43268186       0.70617962
7
Lattice="529.1772105638412 0.0 0.0 0.0 529.1772105638412 0.0 0.0 0.0 529.1772105638412" Properties=species:S:1:pos:R:3:forces_component_raw:R:3 ipi_comment="Step:        9900  Bead:       0 forces_component_raw{ase}  cell{ase}" pbc="T T T"
O        0.00000000       0.00000000       0.00000000       2.34700490       0.70377302      -1.04124904
H        0.00000000       0.00000000       0.00000000      -2.54627967      -0.56303513       1.60981608
H        0.00000000       0.00000000       0.00000000       0.27443004       0.01313770      -0.25577468
O        0.00000000       0.00000000       0.00000000      -0.29243565       0.91418970      -2.33745480
H        0.00000000       0.00000000       0.00000000       0.03034098      -0.22510956      -0.20696084
H        0.00000000       0.00000000       0.00000000       1.10328865      -0.48546359       0.81708539
H        0.00000000       0.00000000       0.00000000      -0.91634882      -0.35749203       1.41453815
7
Lattice="529.1772105638412 0.0 0.0 0.0 529.1772105638412 0.0 0.0 0.0 529.1772105638412" Properties=species:S:1:pos:R:3:forces_component_raw:R:3 ipi_comment="Step:        9920  Bead:       0 forces_component_raw{ase}  cell{ase}" pbc="T T T"
O        0.00000000       0.00000000       0.00000000       2.15667391       0.72386378      -1.81004811
H        0.00000000       0.00000000       0.00000000      -1.90499235      -0.81267083       1.93895674
H        0.00000000       0.00000000       0.00000000      -0.16094336      -0.23850763      -0.04016188
O        0.00000000       0.00000000       0.00000000      -0.35785979       0.14176446      -0.66475535
H        0.00000000       0.00000000       0.00000000      -0.25169122       0.61457086      -0.09726413
H        0.00000000       0.00000000       0.00000000       1.88022900      -0.57183814      -0.07023171
H        0.00000000       0.00000000       0.00000000      -1.36141610       0.14281741       0.74350459
7
Lattice="529.1772105638412 0.0 0.0 0.0 529.1772105638412 0.0 0.0 0.0 529.1772105638412" Properties=species:S:1:pos:R:3:forces_component_raw:R:3 ipi_comment="Step:        9940  Bead:       0 forces_component_raw{ase}  cell{ase}" pbc="T T T"
O        0.00000000       0.00000000       0.00000000       0.21150518       0.78345025       0.43559194
H        0.00000000       0.00000000       0.00000000       0.01488656      -0.25457943      -0.46223894
H        0.00000000       0.00000000       0.00000000       0.06392814      -0.34411103      -0.26421651
O        0.00000000       0.00000000       0.00000000      -1.32898093       1.35693312      -2.22859097
H        0.00000000       0.00000000       0.00000000      -0.09547246      -0.36327696       0.04278573
H        0.00000000       0.00000000       0.00000000       1.48244775      -1.11866308       0.90904212
H        0.00000000       0.00000000       0.00000000      -0.34831435      -0.05975278       1.56762684
7
Lattice="529.1772105638412 0.0 0.0 0.0 529.1772105638412 0.0 0.0 0.0 529.1772105638412" Properties=species:S:1:pos:R:3:forces_component_raw:R:3 ipi_comment="Step:        9960  Bead:       0 forces_component_raw{ase}  cell{ase}" pbc="T T T"
O        0.00000000       0.00000000       0.00000000      -0.59889442      -1.38469434       0.54399544
H        0.00000000       0.00000000       0.00000000       0.96098584       1.40040887      -0.47462604
H        0.00000000       0.00000000       0.00000000      -0.40239728      -0.31984225       0.30719644
O        0.00000000       0.00000000       0.00000000      -0.64694131       0.48266602       0.00523826
H        0.00000000       0.00000000       0.00000000       0.05514338       0.32776398      -0.54137457
H        0.00000000       0.00000000       0.00000000       1.33861935      -0.70221406       0.03114510
H        0.00000000       0.00000000       0.00000000      -0.70651555       0.19591175       0.12842535
7
Lattice="529.1772105638412 0.0 0.0 0.0 529.1772105638412 0.0 0.0 0.0 529.1772105638412" Properties=species:S:1:pos:R:3:forces_component_raw:R:3 ipi_comment="Step:        9980  Bead:       0 forces_component_raw{ase}  cell{ase}" pbc="T T T"
O        0.00000000       0.00000000       0.00000000      -1.02702940      -0.42858899       1.88376308
H        0.00000000       0.00000000       0.00000000       0.88588828       0.45220551      -1.47828436
H        0.00000000       0.00000000       0.00000000       0.22499189       0.19468343      -0.17099644
O        0.00000000       0.00000000       0.00000000      -0.41879991       0.01352932      -0.75592500
H        0.00000000       0.00000000       0.00000000       0.04181774      -0.02727811       0.67431545
H        0.00000000       0.00000000       0.00000000      -0.25389516      -0.03644955       0.03590577
H        0.00000000       0.00000000       0.00000000       0.54702640      -0.16810158      -0.18877864
7
Lattice="529.1772105638412 0.0 0.0 0.0 529.1772105638412 0.0 0.0 0.0 529.1772105638412" Properties=species:S:1:pos:R:3:forces_component_raw:R:3 ipi_comment="Step:       10000  Bead:       0 forces_component_raw{ase}  cell{ase}" pbc="T T T"
O        0.00000000       0.00000000       0.00000000      -0.45257676      -1.19142783       0.76658738
H        0.00000000       0.00000000       0.00000000       0.43706948       1.19461584      -0.85135091
H        0.00000000       0.00000000       0.00000000      -0.10637596      -0.04086775       0.32971296
O        0.00000000       0.00000000       0.00000000      -0.46624243      -0.34110218       1.02595091
H        0.00000000       0.00000000       0.00000000       0.07876108       0.11700767      -0.06816824
H        0.00000000       0.00000000       0.00000000      -0.40752751       0.32660210      -0.45129219
H        0.00000000       0.00000000       0.00000000       0.91689211      -0.06482777      -0.75143993
7
Lattice="529.1772105638412 0.0 0.0 0.0 529.1772105638412 0.0 0.0 0.0 529.1772105638412" Properties=species:S:1:pos:R:3:forces_component_raw:R:3 ipi_comment="Step:       10020  Bead:       0 forces_component_raw{ase}  cell{ase}" pbc="T T T"
O        0.00000000       0.00000000       0.00000000      -0.38504076      -0.33868960       1.21488703
H        0.00000000       0.00000000       0.00000000       0.20844528       0.42019546      -0.85738296
H        0.00000000       0.00000000       0.00000000       0.07919448       0.01114160      -0.24440883
O        0.00000000       0.00000000       0.00000000      -1.20052767      -0.40955991       2.15476466
H        0.00000000       0.00000000       0.00000000       0.16549182      -0.16605377      -0.13239293
H        0.00000000       0.00000000       0.00000000      -1.18624306       0.88212896      -0.99424184
H        0.00000000       0.00000000       0.00000000       2.31868005      -0.39916244      -1.14122534
7
Lattice="529.1772105638412 0.0 0.0 0.0 529.1772105638412 0.0 0.0 0.0 529.1772105638412" Properties=species:S:1:pos:R:3:forces_component_raw:R:3 ipi_comment="Step:       10040  Bead:       0 forces_component_raw{ase}  cell{ase}" pbc="T T T"
O        0.00000000       0.00000000       0.00000000      -0.20468009      -0.34642384       0.40387130
H        0.00000000       0.00000000       0.00000000      -0.15003911       0.99103630      -0.65452361
H        0.00000000       0.00000000       0.00000000       0.28201974      -0.53406632      -0.05379052
O        0.00000000       0.00000000       0.00000000      -0.52415109      -0.54240906       1.52485264
H        0.00000000       0.00000000       0.00000000      -0.11243512       0.11465620       0.83804679
H        0.00000000       0.00000000       0.00000000      -1.16065169       0.94804210      -0.94671893
H        0.00000000       0.00000000       0.00000000       1.86993730      -0.63083547      -1.11173773
7
Lattice="529.1772105638412 0.0 0.0 0.0 529.1772105638412 0.0 0.0 0.0 529.1772105638412" Properties=species:S:1:pos:R:3:forces_component_raw:R:3 ipi_comment="Step:       10060  Bead:       0 forces_component_raw{ase}  cell{ase}" pbc="T T T"
O        0.00000000       0.00000000       0.00000000      -0.34454009      -0.05909490       0.80019409
H        0.00000000       0.00000000       0.00000000      -0.04499479       0.36175293      -0.23088574
H        0.00000000       0.00000000       0.00000000       0.35921034      -0.63250619      -0.82902789
O        0.00000000       0.00000000       0.00000000      -0.46189123       0.12100433       2.16755820
H        0.00000000       0.00000000       0.00000000       0.12047634       0.19457938      -0.22907028
H        0.00000000       0.00000000       0.00000000      -0.61355555       0.42950991      -0.75553501
H        0.00000000       0.00000000       0.00000000       0.98529494      -0.41524538      -0.92323345
7
Lattice="529.1772105638412 0.0 0.0 0.0 529.1772105638412 0.0 0.0 0.0 529.1772105638412" Properties=species:S:1:pos:R:3:forces_component_raw:R:3 ipi_comment="Step:       10080  Bead:       0 forces_component_raw{ase}  cell{ase}" pbc="T T T"
O        0.00000000       0.00000000       0.00000000      -0.63055217       0.94651437      -0.75947839
H        0.00000000       0.00000000       0.00000000       0.01273364      -0.45123333       0.59004480
H        0.00000000       0.00000000       0.00000000       0.58431500      -0.65469402      -0.22688395
O        0.00000000       0.00000000       0.00000000      -0.27768305       0.23516512      -0.16293573
H        0.00000000       0.00000000       0.00000000       0.06104301      -0.03451441      -0.00237602
H        0.00000000       0.00000000       0.00000000      -0.11858284       0.07119092       0.22224350
H        0.00000000       0.00000000       0.00000000       0.36872643      -0.11242858       0.33938569
7
Lattice="529.1772105638412 0.0 0.0 0.0 529.1772105638412 0.0 0.0 0.0 529.1772105638412" Properties=species:S:1:pos:R:3:forces_component_raw:R:3 ipi_comment="Step:       10100  Bead:       0 forces_component_raw{ase}  cell{ase}" pbc="T T T"
O        0.00000000       0.00000000       0.00000000      -0.27699965       0.32501546      -0.65989602
H        0.00000000       0.00000000       0.00000000       0.18084674      -0.47863174       0.21689235
H        0.00000000       0.00000000       0.00000000       0.13925275       0.04547539      -0.11181179
O        0.00000000       0.00000000       0.00000000       0.50269079      -0.01594804       0.39571273
H        0.00000000       0.00000000       0.00000000      -0.34401584      -0.16403450      -0.03965896
H        0.00000000       0.00000000       0.00000000       0.49758017      -0.53149015      -0.22726870
H        0.00000000       0.00000000       0.00000000      -0.69935495       0.81961352       0.42603046
7
Lattice="529.1772105638412 0.0 0.0 0.0 529.1772105638412 0.0 0.0 0.0 529.1772105638412" Properties=species:S:1:pos:R:3:forces_component_raw:R:3 ipi_comment="Step:       10120  Bead:       0 forces_component_raw{ase}  cell{ase}" pbc="T T T"
O        0.00000000       0.00000000       0.00000000       0.19840446      -0.83836371      -1.19171477
H        0.00000000       0.00000000       0.00000000       0.05253568       0.05612791      -0.06101170
H        0.00000000       0.00000000       0.00000000      -0.58257830       0.67289162       0.54482526
O        0.00000000       0.00000000       0.00000000       0.82045883      -0.40722829      -2.27403212
H        0.00000000       0.00000000       0.00000000       0.11844066       0.03752029       0.14940870
H        0.00000000       0.00000000       0.00000000       0.29253075      -0.30933398       1.08963776
H        0.00000000       0.00000000       0.00000000      -0.89979202       0.78838623       1.74288655
7
Lattice="529.1772105638412 0.0 0.0 0.0 529.1772105638412 0.0 0.0 0.0 529.1772105638412" Properties=species:S:1:pos:R:3:forces_component_raw:R:3 ipi_comment="Step:       10140  Bead:       0 forces_component_raw{ase}  cell{ase}" pbc="T T T"
O        0.00000000       0.00000000       0.00000000       0.40041968      -1.44882262       0.25474253
H        0.00000000       0.00000000       0.00000000       0.08779034       0.42381683      -0.71906221
H        0.00000000       0.00000000       0.00000000      -0.62889272       0.96655816       0.36463684
O        0.00000000       0.00000000       0.00000000       0.60516131      -0.09924847      -0.22026637
H        0.00000000       0.00000000       0.00000000      -0.14991082       0.20470870      -0.26410326
H        0.00000000       0.00000000       0.00000000       1.24927569      -1.32508719       0.58392233
H        0.00000000       0.00000000       0.00000000      -1.56384349       1.27807474       0.00013030
7
Lattice="529.1772105638412 0.0 0.0 0.0 529.1772105638412 0.0 0.0 0.0 529.1772105638412" Properties=species:S:1:pos:R:3:forces_component_raw:R:3 ipi_comment="Step:       10160  Bead:       0 forces_component_raw{ase}  cell{ase}" pbc="T T T"
O        0.00000000       0.00000000       0.00000000       0.14302626       0.01093332       0.35489148
H        0.00000000       0.00000000       0.00000000      -0.07717033       0.13864267      -0.11028954
H        0.00000000       0.00000000       0.00000000      -0.01551446       0.13181686       0.21577662
O        0.00000000       0.00000000       0.00000000       0.12770703       0.13219059      -2.86138797
H        0.00000000       0.00000000       0.00000000       0.29177153       0.03324357       0.31935677
H        0.00000000       0.00000000       0.00000000       0.13680454      -0.64190245       1.22973049
H        0.00000000       0.00000000       0.00000000      -0.60662460       0.19507545       0.85192216
7
Lattice="529.1772105638412 0.0 0.0 0.0 529.1772105638412 0.0 0.0 0.0 529.1772105638412" Properties=species:S:1:pos:R:3:forces_component_raw:R:3 ipi_comment="Step:       10180  Bead:       0 forces_component_raw{ase}  cell{ase}" pbc="T T T"
O        0.00000000       0.00000000       0.00000000       0.49001640       0.32311109       1.26030708
H        0.00000000       0.00000000       0.00000000      -0.02857343       0.00875968       0.09928601
H        0.00000000       0.00000000       0.00000000      -0.03442605      -0.20902804      -0.28260896
O        0.00000000       0.00000000       0.00000000      -0.73693216       0.47198904      -0.34232891
H        0.00000000       0.00000000       0.00000000      -0.35181588       0.13936742      -0.14578109
H        0.00000000       0.00000000       0.00000000       0.41918469      -0.63844103       0.09289475
H        0.00000000       0.00000000       0.00000000       0.24254632      -0.09575811      -0.68176884
7
Lattice="529.1772105638412 0.0 0.0 0.0 529.1772105638412 0.0 0.0 0.0 529.1772105638412" Properties=species:S:1:pos:R:3:forces_component_raw:R:3 ipi_comment="Step:       10200  Bead:       0 forces_component_raw{ase}  cell{ase}" pbc="T T T"
O        0.00000000       0.00000000       0.00000000       0.38432020       1.19122446       0.34028724
H        0.00000000       0.00000000       0.00000000      -0.21287185      -0.49062055       0.46101260
H        0.00000000       0.00000000       0.00000000      -0.05820370      -0.45392087      -0.27649340
O        0.00000000       0.00000000       0.00000000      -0.83640242       0.49961442      -0.00470698
H        0.00000000       0.00000000       0.00000000       0.17089865      -0.38754511      -0.14444289
H        0.00000000       0.00000000       0.00000000      -0.35572851       0.09230161      -0.06774554
H        0.00000000       0.00000000       0.00000000       0.90798766      -0.45105398      -0.30791134
7
Lattice="529.1772105638412 0.0 0.0 0.0 529.1772105638412 0.0 0.0 0.0 529.1772105638412" Properties=species:S:1:pos:R:3:forces_component_raw:R:3 ipi_comment="Step:       10220  Bead:       0 forces_component_raw{ase}  cell{ase}" pbc="T T T"
O        0.00000000       0.00000000       0.00000000       0.21269792       0.32063633      -1.08563447
H        0.00000000       0.00000000       0.00000000      -0.32760766      -0.45055881       0.80843580
H        0.00000000       0.00000000       0.00000000      -0.10771226      -0.20626947      -0.08787113
O        0.00000000       0.00000000       0.00000000       0.21595073      -0.53790856       2.16068888
H        0.00000000       0.00000000       0.00000000      -0.03567639       0.29602611      -0.16991018
H        0.00000000       0.00000000       0.00000000      -0.83247793       0.86041576      -0.85165107
H        0.00000000       0.00000000       0.00000000       0.87482548      -0.28234151      -0.77405781
7
Lattice="529.1772105638412 0.0 0.0 0.0 529.1772105638412 0.0 0.0 0.0 529.1772105638412" Properties=species:S:1:pos:R:3:forces_component_raw:R:3 ipi_comment="Step:       10240  Bead:       0 forces_component_raw{ase}  cell{ase}" pbc="T T T"
O        0.00000000       0.00000000       0.00000000      -0.06562199       0.58199805      -1.36805022
H        0.00000000       0.00000000       0.00000000      -0.38849259      -0.62372148       0.56854910
H        0.00000000       0.00000000       0.00000000       0.18030843      -0.00063717      -0.00101703
O        0.00000000       0.00000000       0.00000000       0.81997478      -0.47767440       1.49205613
H        0.00000000       0.00000000       0.00000000       0.03118430      -0.19984543       0.17454800
H        0.00000000       0.00000000       0.00000000      -1.07618594       0.94970525      -0.66371250
H        0.00000000       0.00000000       0.00000000       0.49883312      -0.22982496      -0.20237359
7
Lattice="529.1772105638412 0.0 0.0 0.0 529.1772105638412 0.0 0.0 0.0 529.1772105638412" Properties=species:S:1:pos:R:3:forces_component_raw:R:3 ipi_comment="Step:       10260  Bead:       0 forces_component_raw{ase}  cell{ase}" pbc="T T T"
O        0.00000000       0.00000000       0.00000000       0.01460149      -0.56513333      -1.02468634
H        0.00000000       0.00000000       0.00000000      -0.11061448      -0.19964266       0.31232444
H        0.00000000       0.00000000       0.00000000       0.00435182       0.49301970       0.12597077
O        0.00000000       0.00000000       0.00000000       0.93121493      -0.49516130       0.45248079
H        0.00000000       0.00000000       0.00000000      -0.11311286       0.27385452       0.18704563
H        0.00000000       0.00000000       0.00000000      -0.51039147       0.45944029      -0.30778760
H        0.00000000       0.00000000       0.00000000      -0.21604940       0.03362268       0.25465235
7
Lattice="529.1772105638412 0.0 0.0 0.0 529.1772105638412 0.0 0.0 0.0 529.1772105638412" Properties=species:S:1:pos:R:3:forces_component_raw:R:3 ipi_comment="Step:       10280  Bead:       0 forces_component_raw{ase}  cell{ase}" pbc="T T T"
O        0.00000000       0.00000000       0.00000000       0.21164873      -0.68358308       0.01947075
H        0.00000000       0.00000000       0.00000000      -0.12136641      -0.28627101       0.11340354
H        0.00000000       0.00000000       0.00000000       0.00757848       0.90362704       0.11587285
O        0.00000000       0.00000000       0.00000000       0.14563453       0.34170044      -0.49296543
H        0.00000000       0.00000000       0.00000000       0.20352510      -0.04563396      -0.41774100
H        0.00000000       0.00000000       0.00000000       0.09185624      -0.23026700      -0.28014487
H        0.00000000       0.00000000       0.00000000      -0.53887659       0.00042757       0.94210416
7
Lattice="529.1772105638412 0.0 0.0 0.0 529.1772105638412 0.0 0.0 0.0 529.1772105638412" Properties=species:S:1:pos:R:3:forces_component_raw:R:3 ipi_comment="Step:       10300  Bead:       0 forces_component_raw{ase}  cell{ase}" pbc="T T T"
O        0.00000000       0.00000000       0.00000000       0.31819850      -0.44731793      -0.41598195
H        0.00000000       0.00000000       0.00000000      -0.03713547       0.14254445       0.15915549
H        0.00000000       0.00000000       0.00000000      -0.10110809       0.38480306       0.46279150
O        0.00000000       0.00000000       0.00000000      -0.21807767       0.07418688      -1.88564122
H        0.00000000       0.00000000       0.00000000      -0.19121015       0.23866077       0.75810993
H        0.00000000       0.00000000       0.00000000       0.61353302      -0.28660899       0.41108376
H        0.00000000       0.00000000       0.00000000      -0.38420019      -0.10626820       0.51048255
7
Lattice="529.1772105638412 0.0 0.0 0.0 529.1772105638412 0.0 0.0 0.0 529.1772105638412" Properties=species:S:1:pos:R:3:forces_component_raw:R:3 ipi_comment="Step:       10320  Bead:       0 forces_component_raw{ase}  cell{ase}" pbc="T T T"
O        0.00000000       0.00000000       0.00000000      -0.24587435      -0.08570021       1.27205992
H        0.00000000       0.00000000       0.00000000       0.14978230      -0.12454554      -0.49909756
H        0.00000000       0.00000000       0.00000000       0.06320456       0.09696025      -0.51866222
O        0.00000000       0.00000000       0.00000000      -0.65378785       0.04604658      -0.00563872
H        0.00000000       0.00000000       0.00000000       0.32313013       0.15274063      -0.39334333
H        0.00000000       0.00000000       0.00000000       0.78967667      -0.09239540       0.07224762
H        0.00000000       0.00000000       0.00000000      -0.42613131       0.00689362       0.07243427
7
Lattice="529.1772105638412 0.0 0.0 0.0 529.1772105638412 0.0 0.0 0.0 529.1772105638412" Properties=species:S:1:pos:R:3:forces_component_raw:R:3 ipi_comment="Step:       10340  Bead:       0 forces_component_raw{ase}  cell{ase}" pbc="T T T"
O        0.00000000       0.00000000       0.00000000       0.02328265      -0.55503315      -0.83750647
H        0.00000000       0.00000000       0.00000000       0.05466827       0.76954973       0.05493945
H        0.00000000       0.00000000       0.00000000      -0.24563778      -0.23001733       0.35494945
O        0.00000000       0.00000000       0.00000000      -0.43289775       0.21216551      -0.14928439
H        0.00000000       0.00000000       0.00000000       0.09181243      -0.11898065      -0.01049698
H        0.00000000       0.00000000       0.00000000       0.13100338      -0.08939484       0.63043404
H        0.00000000       0.00000000       0.00000000       0.37776887       0.01171067      -0.04303513
7
Lattice="529.1772105638412 0.0 0.0 0.0 529.1772105638412 0.0 0.0 0.0 529.1772105638412" Properties=species:S:1:pos:R:3:forces_component_raw:R:3 ipi_comment="Step:       10360  Bead:       0 forces_component_raw{ase}  cell{ase}" pbc="T T T"
O        0.00000000       0.00000000       0.00000000      -0.45389053      -0.10623957       1.21738518
H        0.00000000       0.00000000       0.00000000       0.31579614       0.38273463      -0.62438738
H        0.00000000       0.00000000       0.00000000       0.17215945      -0.54427081      -1.01539338
O        0.00000000       0.00000000       0.00000000      -0.34109798      -0.27981672       0.89413941
H        0.00000000       0.00000000       0.00000000      -0.15424755       0.19683303      -0.17947787
H        0.00000000       0.00000000       0.00000000       0.18128231       0.15463352       0.14772809
H        0.00000000       0.00000000       0.00000000       0.27999821       0.19612587      -0.43999401
7
Lattice="529.1772105638412 0.0 0.0 0.0 529.1772105638412 0.0 0.0 0.0 529.1772105638412" Properties=species:S:1:pos:R:3:forces_component_raw:R:3 ipi_comment="Step:       10380  Bead:       0 forces_component_raw{ase}  cell{ase}" pbc="T T T"
O        0.00000000       0.00000000       0.00000000      -0.40937853       0.63081908       0.23482931
H        0.00000000       0.00000000       0.00000000       0.14465755       0.67969567      -0.24688383
H        0.00000000       0.00000000       0.00000000       0.18810444      -1.09004128      -0.23214203
O        0.00000000       0.00000000       0.00000000      -1.15353382      -0.72497463       0.84172034
H        0.00000000       0.00000000       0.00000000       0.39580470      -0.12951621       0.54039383
H        0.00000000       0.00000000       0.00000000      -0.39255959      -0.09185123      -0.35638908
H        0.00000000       0.00000000       0.00000000       1.22690511       0.72586847      -0.78152853
7
Lattice="529.1772105638412 0.0 0.0 0.0 529.1772105638412 0.0 0.0 0.0 529.1772105638412" Properties=species:S:1:pos:R:3:forces_component_raw:R:3 ipi_comment="Step:       10400  Bead:       0 forces_component_raw{ase}  cell{ase}" pbc="T T T"
O        0.00000000       0.00000000       0.00000000      -0.35340229       0.40962696       1.46378041
H        0.00000000       0.00000000       0.00000000       0.26975316       0.43364027      -0.33021346
H        0.00000000       0.00000000       0.00000000       0.37569475      -0.83404768      -0.55252665
O        0.00000000       0.00000000       0.00000000       0.01099139      -0.07628298       1.18223679
H        0.00000000       0.00000000       0.00000000      -0.42459387       0.02245803      -0.37199038
H        0.00000000       0.00000000       0.00000000      -0.86307717      -0.37253785      -0.56982517
H        0.00000000       0.00000000       0.00000000       0.98463398       0.41714320      -0.82146138
7
Lattice="529.1772105638412 0.0 0.0 0.0 529.1772105638412 0.0 0.0 0.0 529.1772105638412" Properties=species:S:1:pos:R:3:forces_component_raw:R:3 ipi_comment="Step:       10420  Bead:       0 forces_component_raw{ase}  cell{ase}" pbc="T T T"
O        0.00000000       0.00000000       0.00000000      -0.20725732       0.42844218      -0.27824384
H        0.00000000       0.00000000       0.00000000       0.06939915       0.23856184       0.06363007
H        0.00000000       0.00000000       0.00000000       0.16968608      -0.57917786       0.11301533
O        0.00000000       0.00000000       0.00000000      -0.69127607      -0.29400861       0.69838822
H        0.00000000       0.00000000       0.00000000       0.16110663       0.03353126       0.12612520
H        0.00000000       0.00000000       0.00000000      -0.34030044      -0.14331175      -0.33684617
H        0.00000000       0.00000000       0.00000000       0.83864182       0.31596303      -0.38606882
7
Lattice="529.1772105638412 0.0 0.0 0.0 529.1772105638412 0.0 0.0 0.0 529.1772105638412" Properties=species:S:1:pos:R:3:forces_component_raw:R:3 ipi_comment="Step:       10440  Bead:       0 forces_component_raw{ase}  cell{ase}" pbc="T T T"
O        0.00000000       0.00000000       0.00000000       0.08206333       0.54910904      -0.54595161
H        0.00000000       0.00000000       0.00000000      -0.10362260      -0.42340705       0.09676492
H        0.00000000       0.00000000       0.00000000       0.19540191      -0.08835238       0.01840502
O        0.00000000       0.00000000       0.00000000       0.85837823       0.27171505       0.29351652
H        0.00000000       0.00000000       0.00000000      -0.33963251      -0.00784212       0.12718345
H        0.00000000       0.00000000       0.00000000      -0.02384359      -0.05221329      -0.19938019
H        0.00000000       0.00000000       0.00000000      -0.66874468      -0.24900928       0.20946190
7
Lattice="529.1772105638412 0.0 0.0 0.0 529.1772105638412 0.0 0.0 0.0 529.1772105638412" Properties=species:S:1:pos:R:3:forces_component_raw:R:3 ipi_comment="Step:       10460  Bead:       0 forces_component_raw{ase}  cell{ase}" pbc="T T T"
O        0.00000000       0.00000000       0.00000000      -0.08882251      -0.33701569      -0.92721975
H        0.00000000       0.00000000       0.00000000      -0.00269568      -0.16358089       0.11112733
H        0.00000000       0.00000000       0.00000000      -0.12423021       0.46635503       0.27528504
O        0.00000000       0.00000000       0.00000000       0.89129174       0.19353448      -0.23945043
H        0.00000000       0.00000000       0.00000000       0.28858376       0.08454946       0.23182122
H        0.00000000       0.00000000       0.00000000       0.32375395       0.02408702       0.38672406
H        0.00000000       0.00000000       0.00000000      -1.28788114      -0.26792949       0.16171257
7
Lattice="529.1772105638412 0.0 0.0 0.0 529.1772105638412 0.0 0.0 0.0 529.1772105638412" Properties=species:S:1:pos:R:3:forces_component_raw:R:3 ipi_comment="Step:       10480  Bead:       0 forces_component_raw{ase}  cell{ase}" pbc="T T T"
O        0.00000000       0.00000000       0.00000000      -0.15190612      -0.72344804       0.80278051
H        0.00000000       0.00000000       0.00000000       0.15515491      -0.02192748      -0.32027236
H        0.00000000       0.00000000       0.00000000      -0.13301025       0.80433691       0.25985974
O        0.00000000       0.00000000       0.00000000       1.33167029       0.04790537      -1.50243640
H        0.00000000       0.00000000       0.00000000       0.08329722      -0.10562908      -0.68069422
H        0.00000000       0.00000000       0.00000000       0.10329729       0.08910301       1.09444726
H        0.00000000       0.00000000       0.00000000      -1.38850344      -0.09034066       0.34631550
7
Lattice="529.1772105638412 0.0 0.0 0.0 529.1772105638412 0.0 0.0 0.0 529.1772105638412" Properties=species:S:1:pos:R:3:forces_component_raw:R:3 ipi_comment="Step:       10500  Bead:       0 forces_component_raw{ase}  cell{ase}" pbc="T T T"
O        0.00000000       0.00000000       0.00000000       0.06565082      -1.06763149      -0.44052640
H        0.00000000       0.00000000       0.00000000       0.21942709       0.89730817       0.01526624
H        0.00000000       0.00000000       0.00000000      -0.35089815       0.01814985       0.44412515
O        0.00000000       0.00000000       0.00000000       0.38358268       0.04253232      -0.50569087
H        0.00000000       0.00000000       0.00000000      -0.29382759       0.14185268       0.11300341
H        0.00000000       0.00000000       0.00000000       0.53345955       0.02104473       0.83239776
H        0.00000000       0.00000000       0.00000000      -0.55739439      -0.05325624      -0.45857528
7
Lattice="529.1772105638412 0.0 0.0 0.0 529.1772105638412 0.0 0.0 0.0 529.1772105638412" Properties=species:S:1:pos:R:3:forces_component_raw:R:3 ipi_comment="Step:       10520  Bead:       0 forces_component_raw{ase}  cell{ase}" pbc="T T T"
O        0.00000000       0.00000000       0.00000000      -1.11357463      -0.59214425       1.58391154
H        0.00000000       0.00000000       0.00000000       0.80196095       0.53619301      -0.98610950
H        0.00000000       0.00000000       0.00000000       0.25282165      -0.01188323      -0.51693177
O        0.00000000       0.00000000       0.00000000      -0.90103841       0.18056929      -0.35207129
H        0.00000000       0.00000000       0.00000000       0.45548892       0.04655761       0.39318401
H        0.00000000       0.00000000       0.00000000      -0.06119692      -0.01318884      -0.22554120
H        0.00000000       0.00000000       0.00000000       0.56553841      -0.14610355       0.10355835
7
Lattice="529.1772105638412 0.0 0.0 0.0 529.1772105638412 0.0 0.0 0.0 529.1772105638412" Properties=species:S:1:pos:R:3:forces_component_raw:R:3 ipi_comment="Step:       10540  Bead:       0 forces_component_raw{ase}  cell{ase}" pbc="T T T"
O        0.00000000       0.00000000       0.00000000       0.39810664      -0.03817969      -0.28367826
H        0.00000000       0.00000000       0.00000000       0.53950954       1.16445589       0.25875610
H        0.00000000       0.00000000       0.00000000      -0.59773106      -0.87644935       0.13801844
O        0.00000000       0.00000000       0.00000000       0.39706326       0.18729906       1.23101223
H        0.00000000       0.00000000       0.00000000      -0.67358560      -0.06596476      -0.30635262
H        0.00000000       0.00000000       0.00000000      -0.56423587      -0.30534923      -0.61743951
H        0.00000000       0.00000000       0.00000000       0.50087321      -0.06581193      -0.42031643
7
Lattice="529.1772105638412 0.0 0.0 0.0 529.1772105638412 0.0 0.0 0.0 529.1772105638412" Properties=species:S:1:pos:R:3:forces_component_raw:R:3 ipi_comment="Step:       10560  Bead:       0 forces_component_raw{ase}  cell{ase}" pbc="T T T"
O        0.00000000       0.00000000       0.00000000      -1.57042504       0.26119900      -0.11342889
H        0.00000000       0.00000000       0.00000000       0.74952018      -0.24496025       0.12393788
H        0.00000000       0.00000000       0.00000000       0.68584395      -0.04420674      -0.34138024
O        0.00000000       0.00000000       0.00000000       0.14373100       0.30717111       1.21474910
H        0.00000000       0.00000000       0.00000000       0.19164051       0.10225218       0.03981028
H        0.00000000       0.00000000       0.00000000      -1.14163947      -0.05533942      -0.75129068
H        0.00000000       0.00000000       0.00000000       0.94132883      -0.32611585      -0.17239748
7
Lattice="529.1772105638412 0.0 0.0 0.0 529.1772105638412 0.0 0.0 0.0 529.1772105638412" Properties=species:S:1:pos:R:3:forces_component_raw:R:3 ipi_comment="Step:       10580  Bead:       0 forces_component_raw{ase}  cell{ase}" pbc="T T T"
O        0.00000000       0.00000000       0.00000000       0.04399968       0.58957267      -0.54726648
H        0.00000000       0.00000000       0.00000000       0.32833701       0.23301135       0.49253470
H        0.00000000       0.00000000       0.00000000      -0.29621965      -0.40386403      -0.13646433
O        0.00000000       0.00000000       0.00000000       1.32013345       0.31065476       0.77346885
H        0.00000000       0.00000000       0.00000000      -0.48052785      -0.75239015       0.42858064
H        0.00000000       0.00000000       0.00000000      -0.77869141       0.05111042      -0.78913438
H        0.00000000       0.00000000       0.00000000      -0.13703126      -0.02809498      -0.22171912
7
Lattice="529.1772105638412 0.0 0.0 0.0 529.1772105638412 0.0 0.0 0.0 529.1772105638412" Properties=species:S:1:pos:R:3:forces_component_raw:R:3 ipi_comment="Step:       10600  Bead:       0 forces_component_raw{ase}  cell{ase}" pbc="T T T"
O        0.00000000       0.00000000       0.00000000      -0.66105861      -0.65786171       1.83206511
H        0.00000000       0.00000000       0.00000000      -0.18258202      -0.23396643      -0.30457366
H        0.00000000       0.00000000       0.00000000       0.40237787       0.22866878      -0.76796204
O        0.00000000       0.00000000       0.00000000       0.73214805      -0.71613562      -0.04544994
H        0.00000000       0.00000000       0.00000000       0.40815294       0.80203480      -0.78729880
H        0.00000000       0.00000000       0.00000000      -0.46543104       0.34208989      -0.20550789
H        0.00000000       0.00000000       0.00000000      -0.23360705       0.23517036       0.27872723
7
Lattice="529.1772105638412 0.0 0.0 0.0 529.1772105638412 0.0 0.0 0.0 529.1772105638412" Properties=species:S:1:pos:R:3:forces_component_raw:R:3 ipi_comment="Step:       10620  Bead:       0 forces_component_raw{ase}  cell{ase}" pbc="T T T"
O        0.00000000       0.00000000       0.00000000       0.61099577       0.49889457      -2.38369036
H        0.00000000       0.00000000       0.00000000      -0.32423157      -0.08018504       0.67872769
H        0.00000000       0.00000000       0.00000000      -0.00585455      -0.02627689       1.18130207
O        0.00000000       0.00000000       0.00000000       0.15259911      -0.03642960      -0.35876727
H        0.00000000       0.00000000       0.00000000      -0.02318221      -0.31176075       0.09560617
H        0.00000000       0.00000000       0.00000000       0.13397056      -0.53226304       0.40959039
H        0.00000000       0.00000000       0.00000000      -0.54429710       0.48802084       0.37723133
7
Lattice="529.1772105638412 0.0 0.0 0.0 529.1772105638412 0.0 0.0 0.0 529.1772105638412" Properties=species:S:1:pos:R:3:forces_component_raw:R:3 ipi_comment="Step:       10640  Bead:       0 forces_component_raw{ase}  cell{ase}" pbc="T T T"
O        0.00000000       0.00000000       0.00000000       0.88332558       0.40431529      -0.42706120
H        0.00000000       0.00000000       0.00000000      -1.89929307      -0.75652325       0.31047475
H        0.00000000       0.00000000       0.00000000       1.16131950       0.46214342       0.02363996
O        0.00000000       0.00000000       0.00000000      -0.17632362       1.14043665      -0.94739115
H        0.00000000       0.00000000       0.00000000      -0.00032499      -0.14961910       0.06467869
H        0.00000000       0.00000000       0.00000000       0.53709877      -1.60112691       0.67328179
H        0.00000000       0.00000000       0.00000000      -0.50580210       0.50037366       0.30237708
7
Lattice="529.1772105638412 0.0 0.0 0.0 529.1772105638412 0.0 0.0 0.0 529.1772105638412" Properties=species:S:1:pos:R:3:forces_component_raw:R:3 ipi_comment="Step:       10660  Bead:       0 forces_component_raw{ase}  cell{ase}" pbc="T T T"
O        0.00000000       0.00000000       0.00000000      -0.73027349       0.59250099      -2.17278362
H        0.00000000       0.00000000       0.00000000       0.10258818      -0.23190591       0.49582872
H        0.00000000       0.00000000       0.00000000       0.61439657      -0.28861684       1.11252380
O        0.00000000       0.00000000       0.00000000      -0.48619577       0.91172147      -0.76560533
H        0.00000000       0.00000000       0.00000000       0.23660189       0.25511387       0.33954036
H        0.00000000       0.00000000       0.00000000       0.53323245      -1.55822099       0.73753333
H        0.00000000       0.00000000       0.00000000      -0.27034974       0.31940749       0.25296280
7
Lattice="529.1772105638412 0.0 0.0 0.0 529.1772105638412 0.0 0.0 0.0 529.1772105638412" Properties=species:S:1:pos:R:3:forces_component_raw:R:3 ipi_comment="Step:       10680  Bead:       0 forces_component_raw{ase}  cell{ase}" pbc="T T T"
O        0.00000000       0.00000000       0.00000000      -1.29702020      -0.26783013       0.63450849
H        0.00000000       0.00000000       0.00000000       0.68112099       0.33282164      -0.29347295
H        0.00000000       0.00000000       0.00000000       0.46970958      -0.08518432       0.17643529
O        0.00000000       0.00000000       0.00000000      -0.52247238       0.99770022      -1.12780941
H        0.00000000       0.00000000       0.00000000       0.13840467      -0.11393718      -0.65709990
H        0.00000000       0.00000000       0.00000000       0.54053247      -0.85444141       0.72597259
H        0.00000000       0.00000000       0.00000000      -0.01027524      -0.00912887       0.54146594
7
Lattice="529.1772105638412 0.0 0.0 0.0 529.1772105638412 0.0 0.0 0.0 529.1772105638412" Properties=species:S:1:pos:R:3:forces_component_raw:R:3 ipi_comment="Step:       10700  Bead:       0 forces_component_raw{ase}  cell{ase}" pbc="T T T"
O        0.00000000       0.00000000       0.00000000      -0.33531728      -0.86172962       0.12747052
H        0.00000000       0.00000000       0.00000000       0.70563233       0.18837184       0.42382318
H        0.00000000       0.00000000       0.00000000      -0.49170044       0.72787005      -0.88894022
O        0.00000000       0.00000000       0.00000000       0.57346285      -0.59481222       0.65257871
H        0.00000000       0.00000000       0.00000000      -0.11084343       0.23680964       0.32295367
H        0.00000000       0.00000000       0.00000000      -0.13206641      -0.06890935      -0.27542943
H        0.00000000       0.00000000       0.00000000      -0.20916772       0.37239978      -0.36245665
7
Lattice="529.1772105638412 0.0 0.0 0.0 529.1772105638412 0.0 0.0 0.0 529.1772105638412" Properties=species:S:1:pos:R:3:forces_component_raw:R:3 ipi_comment="Step:       10720  Bead:       0 forces_component_raw{ase}  cell{ase}" pbc="T T T"
O        0.00000000       0.00000000       0.00000000       0.41040465      -1.50100720       0.15808873
H        0.00000000       0.00000000       0.00000000       0.29796103       0.06719252       0.37221566
H        0.00000000       0.00000000       0.00000000      -0.71033639       1.55830407      -0.87816233
O        0.00000000       0.00000000       0.00000000       0.18002898      -0.72374004      -0.24208185
H        0.00000000       0.00000000       0.00000000      -0.02165258      -0.39735177       0.21164864
H        0.00000000       0.00000000       0.00000000      -0.68633145       1.33756137       0.16389236
H        0.00000000       0.00000000       0.00000000       0.52992571      -0.34095883       0.21439874
7
Lattice="529.1772105638412 0.0 0.0 0.0 529.1772105638412 0.0 0.0 0.0 529.1772105638412" Properties=species:S:1:pos:R:3:forces_component_raw:R:3 ipi_comment="Step:       10740  Bead:       0 forces_component_raw{ase}  cell{ase}" pbc="T T T"
O        0.00000000       0.00000000       0.00000000       1.25482762      -1.48212386       0.31675428
H        0.00000000       0.00000000       0.00000000       0.23753792      -0.05940235      -0.05403826
H        0.00000000       0.00000000       0.00000000      -1.13014698       1.38532901      -0.31671739
O        0.00000000       0.00000000       0.00000000       1.46921063      -2.00290657       0.99809009
H        0.00000000       0.00000000       0.00000000      -0.30393529       0.35632926      -0.15467945
H        0.00000000       0.00000000       0.00000000      -1.34401036       1.58891750      -0.42763394
H        0.00000000       0.00000000       0.00000000      -0.18348354       0.21385694      -0.36177537
7
Lattice="529.1772105638412 0.0 0.0 0.0 529.1772105638412 0.0 0.0 0.0 529.1772105638412" Properties=species:S:1:pos:R:3:forces_component_raw:R:3 ipi_comment="Step:       10760  Bead:       0 forces_component_raw{ase}  cell{ase}" pbc="T T T"
O        0.00000000       0.00000000       0.00000000       1.09528661      -1.24673462       0.25211373
H        0.00000000       0.00000000       0.00000000      -0.01748323      -0.12264291       0.02743801
H        0.00000000       0.00000000       0.00000000      -1.32684040       1.51308441      -0.35694468
O        0.00000000       0.00000000       0.00000000       0.17401247      -1.11081052      -0.12257987
H        0.00000000       0.00000000       0.00000000       0.46671024      -0.15798447       0.17868796
H        0.00000000       0.00000000       0.00000000      -0.60978872       1.89200664       0.25074306
H        0.00000000       0.00000000       0.00000000       0.21810296      -0.76691860      -0.22945821
7
Lattice="529.1772105638412 0.0 0.0 0.0 529.1772105638412 0.0 0.0 0.0 529.1772105638412" Properties=species:S:1:pos:R:3:forces_component_raw:R:3 ipi_comment="Step:       10780  Bead:       0 forces_component_raw{ase}  cell{ase}" pbc="T T T"
O        0.00000000       0.00000000       0.00000000       1.43760276      -1.19372988      -0.17283955
H        0.00000000       0.00000000       0.00000000       0.26232696      -0.13289747      -0.17708515
H        0.00000000       0.00000000       0.00000000      -1.60829592       1.33084870       0.34188891
O        0.00000000       0.00000000       0.00000000       0.20458779      -0.42893243       1.70602632
H        0.00000000       0.00000000       0.00000000       0.02741219      -0.05222532       0.04404460
H        0.00000000       0.00000000       0.00000000      -0.11618191       0.49388635      -0.56297046
H        0.00000000       0.00000000       0.00000000      -0.20745179      -0.01694977      -1.17906463
7
Lattice="529.1772105638412 0.0 0.0 0.0 529.1772105638412 0.0 0.0 0.0 529.1772105638412" Properties=species:S:1:pos:R:3:forces_component_raw:R:3 ipi_comment="Step:       10800  Bead:       0 forces_component_raw{ase}  cell{ase}" pbc="T T T"
O        0.00000000       0.00000000       0.00000000       0.62479097      -0.96842885       0.96813941
H        0.00000000       0.00000000       0.00000000       0.36018825       0.13809438      -0.76323211
H        0.00000000       0.00000000       0.00000000      -0.85378349       0.89225853      -0.31777769
O        0.00000000       0.00000000       0.00000000       0.49015534       1.11655426      -0.60766173
H        0.00000000       0.00000000       0.00000000      -0.25254875      -0.39253536       0.41069776
H        0.00000000       0.00000000       0.00000000       0.10037497       0.13562000       0.70898920
H        0.00000000       0.00000000       0.00000000      -0.46917728      -0.92156315      -0.39915481
7
Lattice="529.1772105638412 0.0 0.0 0.0 529.1772105638412 0.0 0.0 0.0 529.1772105638412" Properties=species:S:1:pos:R:3:forces_component_raw:R:3 ipi_comment="Step:       10820  Bead:       0 forces_component_raw{ase}  cell{ase}" pbc="T T T"
O        0.00000000       0.00000000       0.00000000      -0.53829080      -0.34599060       1.47261942
H        0.00000000       0.00000000       0.00000000      -0.00921941      -0.27198964      -0.10457125
H        0.00000000       0.00000000       0.00000000       0.11002511      -0.04787326      -0.13617748
O        0.00000000       0.00000000       0.00000000      -0.23573849      -0.90380913       1.39743984
H        0.00000000       0.00000000       0.00000000       0.52304620       0.68224234      -1.12877059
H        0.00000000       0.00000000       0.00000000      -0.08121049       0.27563226      -0.82914937
H        0.00000000       0.00000000       0.00000000       0.23138782       0.61178792      -0.67139042
7
Lattice="529.1772105638412 0.0 0.0 0.0 529.1772105638412 0.0 0.0 0.0 529.1772105638412" Properties=species:S:1:pos:R:3:forces_component_raw:R:3 ipi_comment="Step:       10840  Bead:       0 forces_component_raw{ase}  cell{ase}" pbc="T T T"
O        0.00000000       0.00000000       0.00000000       0.32079116       0.73667097      -1.00210464
H        0.00000000       0.00000000       0.00000000      -0.38443685       0.11014915       0.52919412
H        0.00000000       0.00000000       0.00000000       0.38241452      -0.57190156       0.20211540
O        0.00000000       0.00000000       0.00000000       0.61175645       0.80606818      -0.68330068
H        0.00000000       0.00000000       0.00000000      -0.43271342      -0.23518544       0.54715645
H        0.00000000       0.00000000       0.00000000       0.44451398      -0.29777199       0.62067199
H        0.00000000       0.00000000       0.00000000      -0.94232577      -0.54802907      -0.21373290
7
Lattice="529.1772105638412 0.0 0.0 0.0 529.1772105638412 0.0 0.0 0.0 529.1772105638412" Properties=species:S:1:pos:R:3:forces_component_raw:R:3 ipi_comment="Step:       10860  Bead:       0 forces_component_raw{ase}  cell{ase}" pbc="T T T"
O        0.00000000       0.00000000       0.00000000      -1.15113497       0.29512274      -0.29540956
H        0.00000000       0.00000000       0.00000000       0.04823372       0.07567692       0.61763871
H        0.00000000       0.00000000       0.00000000       0.91879744      -0.80425829       0.38255081
O        0.00000000       0.00000000       0.00000000       0.23957437      -1.18299818       0.93342316
H        0.00000000       0.00000000       0.00000000       0.44160599       0.52974129      -0.57190585
H        0.00000000       0.00000000       0.00000000      -0.65281689       0.32411069      -0.40421057
H        0.00000000       0.00000000       0.00000000       0.15574026       0.76260472      -0.66208655
7
Lattice="529.1772105638412 0.0 0.0 0.0 529.1772105638412 0.0 0.0 0.0 529.1772105638412" Properties=species:S:1:pos:R:3:forces_component_raw:R:3 ipi_comment="Step:       10880  Bead:       0 forces_component_raw{ase}  cell{ase}" pbc="T T T"
O        0.00000000       0.00000000       0.00000000      -0.26390433       0.87211287       0.16194218
H        0.00000000       0.00000000       0.00000000      -0.16016054       0.31890237       0.05057988
H        0.00000000       0.00000000       0.00000000       0.52843976      -0.98565716      -0.30660868
O        0.00000000       0.00000000       0.00000000       0.25518617       1.40022099      -1.19751287
H        0.00000000       0.00000000       0.00000000      -0.20668404      -0.26109660       0.36939916
H        0.00000000       0.00000000       0.00000000       0.43240506      -0.71845770       0.46228007
H        0.00000000       0.00000000       0.00000000      -0.58528209      -0.62602466       0.45992020
7
Lattice="529.1772105638412 0.0 0.0 0.0 529.1772105638412 0.0 0.0 0.0 529.1772105638412" Properties=species:S:1:pos:R:3:forces_component_raw:R:3 ipi_comment="Step:       10900  Bead:       0 forces_component_raw{ase}  cell{ase}" pbc="T T T"
O        0.00000000       0.00000000       0.00000000      -0.13851552       0.70629358       0.35995966
H        0.00000000       0.00000000       0.00000000       0.08123216      -0.02889740      -0.23788485
H        0.00000000       0.00000000       0.00000000       0.14929637      -0.74638915       0.02105218
O        0.00000000       0.00000000       0.00000000       0.19216758      -0.40009451       0.72963077
H        0.00000000       0.00000000       0.00000000      -0.11932444      -0.49510509      -0.18599984
H        0.00000000       0.00000000       0.00000000      -0.59916496       0.45316276      -0.13671809
H        0.00000000       0.00000000       0.00000000       0.43430883       0.51102972      -0.55003989
7
Lattice="529.1772105638412 0.0 0.0 0.0 529.1772105638412 0.0 0.0 0.0 529.1772105638412" Properties=species:S:1:pos:R:3:forces_component_raw:R:3 ipi_comment="Step:       10920  Bead:       0 forces_component_raw{ase}  cell{ase}" pbc="T T T"
O        0.00000000       0.00000000       0.00000000      -0.19832988      -0.83532769       0.73926306
H        0.00000000       0.00000000       0.00000000       0.03332200       0.16449350      -0.60538137
H        0.00000000       0.00000000       0.00000000      -0.03415313      -0.19356364       0.16775715
O        0.00000000       0.00000000       0.00000000      -0.65088588       1.16660476      -0.17758107
H        0.00000000       0.00000000       0.00000000       0.35717875       0.50622875       0.22314678
H        0.00000000       0.00000000       0.00000000       1.13273025      -0.34134603      -0.15272552
H        0.00000000       0.00000000       0.00000000      -0.63986206      -0.46708965      -0.19447896
7
Lattice="529.1772105638412 0.0 0.0 0.0 529.1772105638412 0.0 0.0 0.0 529.1772105638412" Properties=species:S:1:pos:R:3:forces_component_raw:R:3 ipi_comment="Step:       10940  Bead:       0 forces_component_raw{ase}  cell{ase}" pbc="T T T"
O        0.00000000       0.00000000       0.00000000       0.16079982       0.04808711       0.56487799
H        0.00000000       0.00000000       0.00000000      -0.24920878      -0.53593862      -0.05793324
H        0.00000000       0.00000000       0.00000000       0.29536080       0.68001521      -0.05833158
O        0.00000000       0.00000000       0.00000000      -0.40739817      -1.29826308       0.28529179
H        0.00000000       0.00000000       0.00000000      -0.50524819      -0.64122999      -0.16878331
H        0.00000000       0.00000000       0.00000000       1.08564615       0.98187554      -0.44015026
H        0.00000000       0.00000000       0.00000000      -0.37995184       0.76545358      -0.12497137
7
Lattice="529.1772105638412 0.0 0.0 0.0 529.1772105638412 0.0 0.0 0.0 529.1772105638412" Properties=species:S:1:pos:R:3:forces_component_raw:R:3 ipi_comment="Step:       10960  Bead:       0 forces_component_raw{ase}  cell{ase}" pbc="T T T"
O        0.00000000       0.00000000       0.00000000      -0.87963939      -1.48237634      -0.08788955
H        0.00000000       0.00000000       0.00000000      -0.02269474       0.14134082      -0.26217762
H        0.00000000       0.00000000       0.00000000       0.61233896       1.36394167      -0.48876417
O        0.00000000       0.00000000       0.00000000      -0.90496624      -0.95630926       0.28295243
H        0.00000000       0.00000000       0.00000000       0.77058375       0.72984505       0.67498458
H        0.00000000       0.00000000       0.00000000       0.87665957       0.02449659      -0.07603440
H        0.00000000       0.00000000       0.00000000      -0.45228207       0.17906135      -0.04307137
7
Lattice="529.1772105638412 0.0 0.0 0.0 529.1772105638412 0.0 0.0 0.0 529.1772105638412" Properties=species:S:1:pos:R:3:forces_component_raw:R:3 ipi_comment="Step:       10980  Bead:       0 forces_component_raw{ase}  cell{ase}" pbc="T T T"
O        0.00000000       0.00000000       0.00000000       0.64337319      -0.01679127       1.30058146
H        0.00000000       0.00000000       0.00000000      -0.79981232      -0.88229585      -0.34570187
H        0.00000000       0.00000000       0.00000000       0.76809311       1.29863930      -0.41761634
O        0.00000000       0.00000000       0.00000000       0.38083392      -0.13031289       0.20201664
H        0.00000000       0.00000000       0.00000000      -0.76586461      -0.23399878      -0.86411059
H        0.00000000       0.00000000       0.00000000      -0.29290092      -0.01776236       0.01321846
H        0.00000000       0.00000000       0.00000000       0.06627762      -0.01747813       0.11161228
7
Lattice="529.1772105638412 0.0 0.0 0.0 529.1772105638412 0.0 0.0 0.0 529.1772105638412" Properties=species:S:1:pos:R:3:forces_component_raw:R:3 ipi_comment="Step:       11000  Bead:       0 forces_component_raw{ase}  cell{ase}" pbc="T T T"
O        0.00000000       0.00000000       0.00000000      -0.01118805      -0.82347715       1.37466193
H        0.00000000       0.00000000       0.00000000      -0.56263477       0.23157749      -1.29073525
H        0.00000000       0.00000000       0.00000000       0.15563101       0.06513387      -0.02246332
O        0.00000000       0.00000000       0.00000000       0.13541023       0.25717801      -0.55445421
H        0.00000000       0.00000000       0.00000000       0.81583905       0.41430980       0.21024138
H        0.00000000       0.00000000       0.00000000      -0.68253958      -0.23143461       0.37310207
H        0.00000000       0.00000000       0.00000000       0.14948189       0.08671258      -0.09035274
7
Lattice="529.1772105638412 0.0 0.0 0.0 529.1772105638412 0.0 0.0 0.0 529.1772105638412" Properties=species:S:1:pos:R:3:forces_component_raw:R:3 ipi_comment="Step:       11020  Bead:       0 forces_component_raw{ase}  cell{ase}" pbc="T T T"
O        0.00000000       0.00000000       0.00000000       0.94151378       0.44141072       0.06813639
H        0.00000000       0.00000000       0.00000000      -0.34351286      -0.05997221      -0.37896830
H        0.00000000       0.00000000       0.00000000      -0.29249677      -0.20740114       0.17483515
O        0.00000000       0.00000000       0.00000000       0.97445655      -0.02461395      -0.57172740
H        0.00000000       0.00000000       0.00000000      -0.88506693      -0.11132449       0.26625967
H        0.00000000       0.00000000       0.00000000      -0.66301954       0.12176484       0.18745381
H        0.00000000       0.00000000       0.00000000       0.26812592      -0.15986380       0.25401077
7
Lattice="529.1772105638412 0.0 0.0 0.0 529.1772105638412 0.0 0.0 0.0 529.1772105638412" Properties=species:S:1:pos:R:3:forces_component_raw:R:3 ipi_comment="Step:       11040  Bead:       0 forces_component_raw{ase}  cell{ase}" pbc="T T T"
O        0.00000000       0.00000000       0.00000000       0.38753018       0.38919473      -0.04925123
H        0.00000000       0.00000000       0.00000000       0.31217414       0.36186344      -0.00779408
H        0.00000000       0.00000000       0.00000000      -0.98264188      -0.55922341      -0.09557743
O        0.00000000       0.00000000       0.00000000      -0.87714786       0.93283594       0.21647385
H        0.00000000       0.00000000       0.00000000       0.57118869      -0.24313082      -0.36852041
H        0.00000000       0.00000000       0.00000000      -0.18708006      -0.09087992       0.39273027
H        0.00000000       0.00000000       0.00000000       0.77597678      -0.79065991      -0.08806095
7
Lattice="529.1772105638412 0.0 0.0 0.0 529.1772105638412 0.0 0.0 0.0 529.1772105638412" Properties=species:S:1:pos:R:3:forces_component_raw:R:3 ipi_comment="Step:       11060  Bead:       0 forces_component_raw{ase}  cell{ase}" pbc="T T T"
O        0.00000000       0.00000000       0.00000000       1.21699190       0.63630146      -1.60386563
H        0.00000000       0.00000000       0.00000000       0.03210333       0.08133072       0.72223383
H        0.00000000       0.00000000       0.00000000      -0.74940252      -0.19713914       0.23585331
O        0.00000000       0.00000000       0.00000000      -0.30062991       0.88115633       0.05491519
H        0.00000000       0.00000000       0.00000000      -0.95431614       0.05648798       0.39504552
H        0.00000000       0.00000000       0.00000000       0.12368453      -0.03816149      -0.12402397
H        0.00000000       0.00000000       0.00000000       0.63156879      -1.41997576       0.31984177
7
Lattice="529.1772105638412 0.0 0.0 0.0 529.1772105638412 0.0 0.0 0.0 529.1772105638412" Properties=species:S:1:pos:R:3:forces_component_raw:R:3 ipi_comment="Step:       11080  Bead:       0 forces_component_raw{ase}  cell{ase}" pbc="T T T"
O        0.00000000       0.00000000       0.00000000      -1.16955924       0.16159259      -0.46049291
H        0.00000000       0.00000000       0.00000000       0.62332988       0.27909875       0.58173078
H        0.00000000       0.00000000       0.00000000       0.38408032      -0.15635151      -0.37216076
O        0.00000000       0.00000000       0.00000000      -1.16827011       0.95207525       0.77384460
H        0.00000000       0.00000000       0.00000000       0.44984156      -0.42543757       0.17112112
H        0.00000000       0.00000000       0.00000000       0.59256888      -0.15961033      -0.39453802
H        0.00000000       0.00000000       0.00000000       0.28800872      -0.65136725      -0.29950485
7
Lattice="529.1772105638412 0.0 0.0 0.0 529.1772105638412 0.0 0.0 0.0 529.1772105638412" Properties=species:S:1:pos:R:3:forces_component_raw:R:3 ipi_comment="Step:       11100  Bead:       0 forces_component_raw{ase}  cell{ase}" pbc="T T T"
O        0.00000000       0.00000000       0.00000000      -0.46434352      -0.58893490      -0.13099676
H        0.00000000       0.00000000       0.00000000      -0.07668161      -0.08411318       0.43150398
H        0.00000000       0.00000000       0.00000000       0.51708037       0.31497821       0.07248391
O        0.00000000       0.00000000       0.00000000      -0.11129519      -0.38696915      -0.13872854
H        0.00000000       0.00000000       0.00000000      -0.01888499       0.30514854      -0.04157134
H        0.00000000       0.00000000       0.00000000       0.23452166      -0.04531372      -0.32922137
H        0.00000000       0.00000000       0.00000000      -0.08039674       0.48520425       0.13653010
7
Lattice="529.1772105638412 0.0 0.0 0.0 529.1772105638412 0.0 0.0 0.0 529.1772105638412" Properties=species:S:1:pos:R:3:forces_component_raw:R:3 ipi_comment="Step:       11120  Bead:       0 forces_component_raw{ase}  cell{ase}" pbc="T T T"
O        0.00000000       0.00000000       0.00000000       0.26714543      -0.35574266       1.22425628
H        0.00000000       0.00000000       0.00000000      -0.56408149      -0.16160244      -0.83770776
H        0.00000000       0.00000000       0.00000000       0.17133901       0.19196536       0.01965766
O        0.00000000       0.00000000       0.00000000       0.20781514      -0.70033395      -0.59545291
H        0.00000000       0.00000000       0.00000000       0.16826291      -0.02572122      -0.01907950
H        0.00000000       0.00000000       0.00000000      -0.11995721      -0.13745523      -0.05203617
H        0.00000000       0.00000000       0.00000000      -0.13052388       1.18889034       0.26036251
7
Lattice="529.1772105638412 0.0 0.0 0.0 529.1772105638412 0.0 0.0 0.0 529.1772105638412" Properties=species:S:1:pos:R:3:forces_component_raw:R:3 ipi_comment="Step:       11140  Bead:       0 forces_component_raw{ase}  cell{ase}" pbc="T T T"
O        0.00000000       0.00000000       0.00000000       0.05941412      -0.28059396       1.12828446
H        0.00000000       0.00000000       0.00000000      -0.41646561       0.09210129      -0.94567919
H        0.00000000       0.00000000       0.00000000       0.31809944       0.26834965      -0.07933146
O        0.00000000       0.00000000       0.00000000      -0.18322095      -2.68388677      -0.45371196
H        0.00000000       0.00000000       0.00000000      -0.01633080      -0.50958973       0.20397037
H        0.00000000       0.00000000       0.00000000      -0.14030945       0.39716384       0.08346453
H        0.00000000       0.00000000       0.00000000       0.37881336       2.71645594       0.06300327
7
Lattice="529.1772105638412 0.0 0.0 0.0 529.1772105638412 0.0 0.0 0.0 529.1772105638412" Properties=species:S:1:pos:R:3:forces_component_raw:R:3 ipi_comment="Step:       11160  Bead:       0 forces_component_raw{ase}  cell{ase}" pbc="T T T"
O        0.00000000       0.00000000       0.00000000      -0.23663783       0.03065246      -0.18761542
H        0.00000000       0.00000000       0.00000000      -0.30815235       0.08220755      -0.36060554
H        0.00000000       0.00000000       0.00000000       0.69208795       0.32307279       0.25372785
O        0.00000000       0.00000000       0.00000000       0.87179220      -1.81242252      -0.37056804
H        0.00000000       0.00000000       0.00000000      -0.27655166      -0.23381668      -0.23257384
H        0.00000000       0.00000000       0.00000000      -0.78409827      -0.15221763       0.40815881
H        0.00000000       0.00000000       0.00000000       0.04155988       1.76252389       0.48947620
7
Lattice="529.1772105638412 0.0 0.0 0.0 529.1772105638412 0.0 0.0 0.0 529.1772105638412" Properties=species:S:1:pos:R:3:forces_component_raw:R:3 ipi_comment="Step:       11180  Bead:       0 forces_component_raw{ase}  cell{ase}" pbc="T T T"
O        0.00000000       0.00000000       0.00000000      -0.72599846      -0.23472257      -0.52218181
H        0.00000000       0.00000000       0.00000000       0.34796059       0.17507274       0.19454826
H        0.00000000       0.00000000       0.00000000       0.25039536       0.04397103       0.04013884
O        0.00000000       0.00000000       0.00000000      -0.24359760      -1.04597605      -0.02421719
H        0.00000000       0.00000000       0.00000000       0.03790104       0.20485011       0.21266629
H        0.00000000       0.00000000       0.00000000       0.00156167       0.37308541       0.15619278
H        0.00000000       0.00000000       0.00000000       0.33177733       0.48371938      -0.05714715
7
Lattice="529.1772105638412 0.0 0.0 0.0 529.1772105638412 0.0 0.0 0.0 529.1772105638412" Properties=species:S:1:pos:R:3:forces_component_raw:R:3 ipi_comment="Step:       11200  Bead:       0 forces_component_raw{ase}  cell{ase}" pbc="T T T"
O        0.00000000       0.00000000       0.00000000      -1.22258485      -0.35573554      -1.02450216
H        0.00000000       0.00000000       0.00000000       0.91219652      -0.02125780       1.34186387
H        0.00000000       0.00000000       0.00000000       0.47518513       0.19576417      -0.24664615
O        0.00000000       0.00000000       0.00000000       0.14910688       1.03659392       0.65478850
H        0.00000000       0.00000000       0.00000000      -0.31478262       0.01767098      -0.06907117
H        0.00000000       0.00000000       0.00000000       0.24329412      -0.14131743      -0.25054130
H        0.00000000       0.00000000       0.00000000      -0.24241516      -0.73171806      -0.40589172
7
Lattice="529.1772105638412 0.0 0.0 0.0 529.1772105638412 0.0 0.0 0.0 529.1772105638412" Properties=species:S:1:pos:R:3:forces_component_raw:R:3 ipi_comment="Step:       11220  Bead:       0 forces_component_raw{ase}  cell{ase}" pbc="T T T"
O        0.00000000       0.00000000       0.00000000      -0.62133896      -0.49825585      -1.17658055
H        0.00000000       0.00000000       0.00000000       0.36835566       0.06248592       1.01164341
H        0.00000000       0.00000000       0.00000000       0.03745997      -0.00351202       0.39415360
O        0.00000000       0.00000000       0.00000000       0.67166037       1.14261270      -0.17599297
H        0.00000000       0.00000000       0.00000000       0.24686913       0.33056527       0.11606724
H        0.00000000       0.00000000       0.00000000      -0.08718812      -0.27120644      -0.10895380
H        0.00000000       0.00000000       0.00000000      -0.61581803      -0.76268959      -0.06033695
7
Lattice="529.1772105638412 0.0 0.0 0.0 529.1772105638412 0.0 0.0 0.0 529.1772105638412" Properties=species:S:1:pos:R:3:forces_component_raw:R:3 ipi_comment="Step:       11240  Bead:       0 forces_component_raw{ase}  cell{ase}" pbc="T T T"
O        0.00000000       0.00000000       0.00000000      -0.24487822       0.32759240      -0.22785103
H        0.00000000       0.00000000       0.00000000       0.81787527      -0.18266815       0.46040535
H        0.00000000       0.00000000       0.00000000      -0.53918940      -0.07259426      -0.27432478
O        0.00000000       0.00000000       0.00000000       0.01973324       0.38667756       0.77776945
H        0.00000000       0.00000000       0.00000000       0.06594339      -0.11067522       0.05668687
H        0.00000000       0.00000000       0.00000000       0.33378375       0.10604289      -0.03223693
H        0.00000000       0.00000000       0.00000000      -0.45326796      -0.45437527      -0.76044887
7
Lattice="529.1772105638412 0.0 0.0 0.0 529.1772105638412 0.0 0.0 0.0 529.1772105638412" Properties=species:S:1:pos:R:3:forces_component_raw:R:3 ipi_comment="Step:       11260  Bead:       0 forces_component_raw{ase}  cell{ase}" pbc="T T T"
O        0.00000000       0.00000000       0.00000000       0.45202267       0.35923919      -0.50841332
H        0.00000000       0.00000000       0.00000000      -0.34616762      -0.14583723       0.08165780
H        0.00000000       0.00000000       0.00000000      -0.04314482       0.02867182       0.12454980
O        0.00000000       0.00000000       0.00000000       0.49727282      -0.40477854      -0.48087925
H        0.00000000       0.00000000       0.00000000       0.22216053       0.04670512       0.22116926
H        0.00000000       0.00000000       0.00000000      -0.47051740       0.00972232       0.13731533
H        0.00000000       0.00000000       0.00000000      -0.31162614       0.10627732       0.42460030
7
Lattice="529.1772105638412 0.0 0.0 0.0 529.1772105638412 0.0 0.0 0.0 529.1772105638412" Properties=species:S:1:pos:R:3:forces_component_raw:R:3 ipi_comment="Step:       11280  Bead:       0 forces_component_raw{ase}  cell{ase}" pbc="T T T"
O        0.00000000       0.00000000       0.00000000       1.35196483      -1.06016326       1.00272393
H        0.00000000       0.00000000       0.00000000      -0.65553737       0.45983818      -1.13958574
H        0.00000000       0.00000000       0.00000000      -0.81649924       0.38270798       0.27145886
O        0.00000000       0.00000000       0.00000000       0.42717129      -0.30486646       1.30565477
H        0.00000000       0.00000000       0.00000000       0.06625265       0.54919446      -0.22609744
H        0.00000000       0.00000000       0.00000000       0.20752811      -0.00770709      -0.75663084
H        0.00000000       0.00000000       0.00000000      -0.58088005      -0.01900366      -0.45752385
7
Lattice="529.1772105638412 0.0 0.0 0.0 529.1772105638412 0.0 0.0 0.0 529.1772105638412" Properties=species:S:1:pos:R:3:forces_component_raw:R:3 ipi_comment="Step:       11300  Bead:       0 forces_component_raw{ase}  cell{ase}" pbc="T T T"
O        0.00000000       0.00000000       0.00000000       1.51532984      -1.52521074       0.96388000
H        0.00000000       0.00000000       0.00000000      -1.14170611       1.65287423      -1.43938649
H        0.00000000       0.00000000       0.00000000      -0.72589111      -0.02663869       0.78604746
O        0.00000000       0.00000000       0.00000000       0.83393735       1.50622356      -1.24810028
H        0.00000000       0.00000000       0.00000000       0.10369901      -1.32673085       0.84308517
H        0.00000000       0.00000000       0.00000000      -0.64455146      -0.24798298      -0.41316182
H        0.00000000       0.00000000       0.00000000       0.05918223      -0.03253469       0.50763589
7
Lattice="529.1772105638412 0.0 0.0 0.0 529.1772105638412 0.0 0.0 0.0 529.1772105638412" Properties=species:S:1:pos:R:3:forces_component_raw:R:3 ipi_comment="Step:       11320  Bead:       0 forces_component_raw{ase}  cell{ase}" pbc="T T T"
O        0.00000000       0.00000000       0.00000000       1.16284728      -3.61384679       1.88541472
H        0.00000000       0.00000000       0.00000000      -0.92693413       1.98503316      -1.26781082
H        0.00000000       0.00000000       0.00000000      -0.52271164       0.59539855       0.22086641
O        0.00000000       0.00000000       0.00000000      -0.35515970      -0.23715386       0.37104458
H        0.00000000       0.00000000       0.00000000       0.02188474       1.04023838      -0.73776400
H        0.00000000       0.00000000       0.00000000      -0.11291134       0.08260579      -0.22505109
H        0.00000000       0.00000000       0.00000000       0.73298472       0.14772461      -0.24670006
7
Lattice="529.1772105638412 0.0 0.0 0.0 529.1772105638412 0.0 0.0 0.0 529.1772105638412" Properties=species:S:1:pos:R:3:forces_component_raw:R:3 ipi_comment="Step:       11340  Bead:       0 forces_component_raw{ase}  cell{ase}" pbc="T T T"
O        0.00000000       0.00000000       0.00000000       0.84652353      -0.88321841      -0.01135993
H        0.00000000       0.00000000       0.00000000      -1.14177704       1.19208360      -0.22317150
H        0.00000000       0.00000000       0.00000000       0.18106671      -0.37305877       0.30346111
O        0.00000000       0.00000000       0.00000000      -2.50264049       1.49511111      -1.00428248
H        0.00000000       0.00000000       0.00000000       0.13204107      -1.08592558       1.01718641
H        0.00000000       0.00000000       0.00000000       0.97937596      -0.04693260       0.49741864
H        0.00000000       0.00000000       0.00000000       1.50541032      -0.29805955      -0.57925242
7
Lattice="529.1772105638412 0.0 0.0 0.0 529.1772105638412 0.0 0.0 0.0 529.1772105638412" Properties=species:S:1:pos:R:3:forces_component_raw:R:3 ipi_comment="Step:       11360  Bead:       0 forces_component_raw{ase}  cell{ase}" pbc="T T T"
O        0.00000000       0.00000000       0.00000000       0.24679488      -1.09072566       0.67182577
H        0.00000000       0.00000000       0.00000000      -0.27405125       0.76765967      -0.51647174
H        0.00000000       0.00000000       0.00000000       0.36088455       0.36275590      -0.46540600
O        0.00000000       0.00000000       0.00000000      -1.31464720       0.03399321       0.90961397
H        0.00000000       0.00000000       0.00000000      -0.36595869       0.46109635      -0.14764926
H        0.00000000       0.00000000       0.00000000       0.26224941      -0.41102871       0.26154238
H        0.00000000       0.00000000       0.00000000       1.08472812      -0.12375072      -0.71345508
7
Lattice="529.1772105638412 0.0 0.0 0.0 529.1772105638412 0.0 0.0 0.0 529.1772105638412" Properties=species:S:1:pos:R:3:forces_component_raw:R:3 ipi_comment="Step:       11380  Bead:       0 forces_component_raw{ase}  cell{ase}" pbc="T T T"
O        0.00000000       0.00000000       0.00000000      -1.80628491       1.40826190      -0.63681483
H        0.00000000       0.00000000       0.00000000       0.37241441      -0.45300183       0.63118869
H        0.00000000       0.00000000       0.00000000       0.97556591      -0.70961398      -0.01484405
O        0.00000000       0.00000000       0.00000000      -0.36140066       0.30526629       0.07464995
H        0.00000000       0.00000000       0.00000000       0.60017395       0.13662921      -0.26553759
H        0.00000000       0.00000000       0.00000000      -0.02764499      -0.61342412       0.44187033
H        0.00000000       0.00000000       0.00000000       0.24717626      -0.07411754      -0.23051252
7
Lattice="529.1772105638412 0.0 0.0 0.0 529.1772105638412 0.0 0.0 0.0 529.1772105638412" Properties=species:S:1:pos:R:3:forces_component_raw:R:3 ipi_comment="Step:       11400  Bead:       0 forces_component_raw{ase}  cell{ase}" pbc="T T T"
O        0.00000000       0.00000000       0.00000000      -1.84451390       1.65420199      -0.72188395
H        0.00000000       0.00000000       0.00000000       1.93938137      -1.44382358       0.94654024
H        0.00000000       0.00000000       0.00000000       0.35426453       0.40778500      -0.77075988
O        0.00000000       0.00000000       0.00000000       0.37712127      -0.89189840      -0.27554250
H        0.00000000       0.00000000       0.00000000      -0.17027977       0.06166311      -0.06165826
H        0.00000000       0.00000000       0.00000000      -0.04449531      -0.44566146       0.16170877
H        0.00000000       0.00000000       0.00000000      -0.61147797       0.65773362       0.72159565
7
Lattice="529.1772105638412 0.0 0.0 0.0 529.1772105638412 0.0 0.0 0.0 529.1772105638412" Properties=species:S:1:pos:R:3:forces_component_raw:R:3 ipi_comment="Step:       11420  Bead:       0 forces_component_raw{ase}  cell{ase}" pbc="T T T"
O        0.00000000       0.00000000       0.00000000      -0.98234356       1.03152251      -0.92814082
H        0.00000000       0.00000000       0.00000000       1.21748460      -0.97179771       0.92339134
H        0.00000000       0.00000000       0.00000000      -0.07073867       0.06769934       0.02271858
O        0.00000000       0.00000000       0.00000000       0.25481033      -0.45334602      -0.91632372
H        0.00000000       0.00000000       0.00000000      -0.16432655      -0.53724694      -0.02815402
H        0.00000000       0.00000000       0.00000000       0.20363964       0.44104052      -0.12967306
H        0.00000000       0.00000000       0.00000000      -0.45852584       0.42212820       1.05618191
7
Lattice="529.1772105638412 0.0 0.0 0.0 529.1772105638412 0.0 0.0 0.0 529.1772105638412" Properties=species:S:1:pos:R:3:forces_component_raw:R:3 ipi_comment="Step:       11440  Bead:       0 forces_component_raw{ase}  cell{ase}" pbc="T T T"
O        0.00000000       0.00000000       0.00000000      -0.82396740      -0.29424366      -0.31153384
H        0.00000000       0.00000000       0.00000000       0.51684511      -0.35131109       0.48521704
H        0.00000000       0.00000000       0.00000000      -0.11632681       0.00121412       0.18311057
O        0.00000000       0.00000000       0.00000000      -0.00783166      -0.22816527      -1.32182551
H        0.00000000       0.00000000       0.00000000       0.36689034       0.30203193       0.28039441
H        0.00000000       0.00000000       0.00000000       0.26055437       0.68489552       0.49773243
H        0.00000000       0.00000000       0.00000000      -0.19616395      -0.11442146       0.18690482
7
Lattice="529.1772105638412 0.0 0.0 0.0 529.1772105638412 0.0 0.0 0.0 529.1772105638412" Properties=species:S:1:pos:R:3:forces_component_raw:R:3 ipi_comment="Step:       11460  Bead:       0 forces_component_raw{ase}  cell{ase}" pbc="T T T"
O        0.00000000       0.00000000       0.00000000       1.09684730      -0.43365118       0.90292645
H        0.00000000       0.00000000       0.00000000      -0.67108959       0.08594231      -0.75123573
H        0.00000000       0.00000000       0.00000000      -0.59196794       0.11556077       0.17838517
O        0.00000000       0.00000000       0.00000000       0.10800386       0.26998264       1.39154244
H        0.00000000       0.00000000       0.00000000      -0.03577433      -0.17287836      -0.20935890
H        0.00000000       0.00000000       0.00000000      -0.02777018       0.02255901      -0.55338770
H        0.00000000       0.00000000       0.00000000       0.12175077       0.11248466      -0.95887172
7
Lattice="529.1772105638412 0.0 0.0 0.0 529.1772105638412 0.0 0.0 0.0 529.1772105638412" Properties=species:S:1:pos:R:3:forces_component_raw:R:3 ipi_comment="Step:       11480  Bead:       0 forces_component_raw{ase}  cell{ase}" pbc="T T T"
O        0.00000000       0.00000000       0.00000000       1.84221602      -0.79057098      -0.08784375
H        0.00000000       0.00000000       0.00000000      -1.38651848       0.85254842      -0.82227624
H        0.00000000       0.00000000       0.00000000      -0.24008563       0.04516104       0.53545278
O        0.00000000       0.00000000       0.00000000       1.23495436       0.86110062       1.56446481
H        0.00000000       0.00000000       0.00000000      -0.19911133       0.02672878       0.58834612
H        0.00000000       0.00000000       0.00000000      -0.90239734      -0.99934960      -0.20365423
H        0.00000000       0.00000000       0.00000000      -0.34905750       0.00438163      -1.57448924
7
Lattice="529.1772105638412 0.0 0.0 0.0 529.1772105638412 0.0 0.0 0.0 529.1772105638412" Properties=species:S:1:pos:R:3:forces_component_raw:R:3 ipi_comment="Step:       11500  Bead:       0 forces_component_raw{ase}  cell{ase}" pbc="T T T"
O        0.00000000       0.00000000       0.00000000       0.24742973      -1.95414329       2.05013228
H        0.00000000       0.00000000       0.00000000      -0.35528901       1.34212303      -1.56151688
H        0.00000000       0.00000000       0.00000000      -0.33035529       0.34800416      -0.20630589
O        0.00000000       0.00000000       0.00000000       0.92234141       0.28017202       1.27483893
H        0.00000000       0.00000000       0.00000000       0.32986915       0.30592462      -0.61140472
H        0.00000000       0.00000000       0.00000000      -0.83161164      -0.40144748      -0.46130726
H        0.00000000       0.00000000       0.00000000       0.01761562       0.07936709      -0.48443619
7
Lattice="529.1772105638412 0.0 0.0 0.0 529.1772105638412 0.0 0.0 0.0 529.1772105638412" Properties=species:S:1:pos:R:3:forces_component_raw:R:3 ipi_comment="Step:       11520  Bead:       0 forces_component_raw{ase}  cell{ase}" pbc="T T T"
O        0.00000000       0.00000000       0.00000000       1.33807600      -0.88955128       0.07968506
H        0.00000000       0.00000000       0.00000000      -1.80181981       1.46445942      -0.22519371
H        0.00000000       0.00000000       0.00000000       0.65445846      -0.54949761       0.07852839
O        0.00000000       0.00000000       0.00000000       0.40165791       0.98622829      -0.92776203
H        0.00000000       0.00000000       0.00000000      -0.18782274      -0.47735775       0.56067264
H        0.00000000       0.00000000       0.00000000      -0.76813853      -0.58888036       0.08192627
H        0.00000000       0.00000000       0.00000000       0.36358845       0.05459965       0.35214326
7
Lattice="529.1772105638412 0.0 0.0 0.0 529.1772105638412 0.0 0.0 0.0 529.1772105638412" Properties=species:S:1:pos:R:3:forces_component_raw:R:3 ipi_comment="Step:       11540  Bead:       0 forces_component_raw{ase}  cell{ase}" pbc="T T T"
O        0.00000000       0.00000000       0.00000000      -0.33252993      -1.56935263       1.68568015
H        0.00000000       0.00000000       0.00000000      -0.29742891       0.52677083      -0.49585414
H        0.00000000       0.00000000       0.00000000       0.41144434       0.32381624      -0.90623486
O        0.00000000       0.00000000       0.00000000       0.17560166       0.09133354      -0.92278147
H        0.00000000       0.00000000       0.00000000       0.23174018       0.61336744      -0.14568223
H        0.00000000       0.00000000       0.00000000      -0.30934671      -0.06857803       0.30494243
H        0.00000000       0.00000000       0.00000000       0.12051913       0.08264259       0.47993016
7
Lattice="529.1772105638412 0.0 0.0 0.0 529.1772105638412 0.0 0.0 0.0 529.1772105638412" Properties=species:S:1:pos:R:3:forces_component_raw:R:3 ipi_comment="Step:       11560  Bead:       0 forces_component_raw{ase}  cell{ase}" pbc="T T T"
O        0.00000000       0.00000000       0.00000000      -0.44543499       1.32847226       0.06076781
H        0.00000000       0.00000000       0.00000000       0.01003635      -0.10469782       0.42752025
H        0.00000000       0.00000000       0.00000000       0.44217306      -0.77257157      -0.29691607
O        0.00000000       0.00000000       0.00000000      -0.89953548      -0.14775637       0.01533231
H        0.00000000       0.00000000       0.00000000      -0.14440450      -0.23709804      -0.54905105
H        0.00000000       0.00000000       0.00000000       0.54750377       0.14280698      -0.37175870
H        0.00000000       0.00000000       0.00000000       0.48966181      -0.20915547       0.71410555
7
Lattice="529.1772105638412 0.0 0.0 0.0 529.1772105638412 0.0 0.0 0.0 529.1772105638412" Properties=species:S:1:pos:R:3:forces_component_raw:R:3 ipi_comment="Step:       11580  Bead:       0 forces_component_raw{ase}  cell{ase}" pbc="T T T"
O        0.00000000       0.00000000       0.00000000      -0.91172493       1.27411914       0.22817963
H        0.00000000       0.00000000       0.00000000       0.64697278      -1.39072061      -0.05606017
H        0.00000000       0.00000000       0.00000000       0.20668474       0.13118455      -0.63028896
O        0.00000000       0.00000000       0.00000000      -1.98966122      -0.14551008      -0.98592466
H        0.00000000       0.00000000       0.00000000       0.22076120       0.42556983       0.92487598
H        0.00000000       0.00000000       0.00000000       1.34061909      -0.17408386      -0.39847070
H        0.00000000       0.00000000       0.00000000       0.48634821      -0.12055892       0.91768873
7
Lattice="529.1772105638412 0.0 0.0 0.0 529.1772105638412 0.0 0.0 0.0 529.1772105638412" Properties=species:S:1:pos:R:3:forces_component_raw:R:3 ipi_comment="Step:       11600  Bead:       0 forces_component_raw{ase}  cell{ase}" pbc="T T T"
O        0.00000000       0.00000000       0.00000000      -0.43728975       1.66135133       0.07205391
H        0.00000000       0.00000000       0.00000000       0.39384449      -1.15249980      -0.17615408
H        0.00000000       0.00000000       0.00000000      -0.06006609      -0.09969074       0.23172858
O        0.00000000       0.00000000       0.00000000      -1.76350642       0.87766898       0.55162656
H        0.00000000       0.00000000       0.00000000       0.08621613      -0.32927477      -0.41506764
H        0.00000000       0.00000000       0.00000000       1.44107223      -0.40842760      -0.80024648
H        0.00000000       0.00000000       0.00000000       0.33972922      -0.54912740       0.53605908
7
Lattice="529.1772105638412 0.0 0.0 0.0 529.1772105638412 0.0 0.0 0.0 529.1772105638412" Properties=species:S:1:pos:R:3:forces_component_raw:R:3 ipi_comment="Step:       11620  Bead:       0 forces_component_raw{ase}  cell{ase}" pbc="T T T"
O        0.00000000       0.00000000       0.00000000       0.15670589      -1.10437823      -1.07838023
H        0.00000000       0.00000000       0.00000000      -0.16897531       0.42534396       0.24634835
H        0.00000000       0.00000000       0.00000000      -0.00893727       0.28767282       0.64484453
O        0.00000000       0.00000000       0.00000000       0.46101600      -0.09519771       0.02542040
H        0.00000000       0.00000000       0.00000000      -0.13706076       0.48005891       0.14356473
H        0.00000000       0.00000000       0.00000000      -0.00200611      -0.03499922       0.05567408
H        0.00000000       0.00000000       0.00000000      -0.30074239       0.04149938      -0.03747192
7
Lattice="529.1772105638412 0.0 0.0 0.0 529.1772105638412 0.0 0.0 0.0 529.1772105638412" Properties=species:S:1:pos:R:3:forces_component_raw:R:3 ipi_comment="Step:       11640  Bead:       0 forces_component_raw{ase}  cell{ase}" pbc="T T T"
O        0.00000000       0.00000000       0.00000000       0.28220123      -1.60752690      -1.73108793
H        0.00000000       0.00000000       0.00000000      -0.34697437       1.35480142       0.59106237
H        0.00000000       0.00000000       0.00000000       0.03584924       0.07851303       0.90338969
O        0.00000000       0.00000000       0.00000000       0.26523259      -0.15449190       0.24487002
H        0.00000000       0.00000000       0.00000000       0.17944543      -0.44462651       0.60470235
H        0.00000000       0.00000000       0.00000000       0.02010241      -0.10839875      -0.04474600
H        0.00000000       0.00000000       0.00000000      -0.43585655       0.88172984      -0.56819022
7
Lattice="529.1772105638412 0.0 0.0 0.0 529.1772105638412 0.0 0.0 0.0 529.1772105638412" Properties=species:S:1:pos:R:3:forces_component_raw:R:3 ipi_comment="Step:       11660  Bead:       0 forces_component_raw{ase}  cell{ase}" pbc="T T T"
O        0.00000000       0.00000000       0.00000000       0.80152482      -1.23637450      -0.12805587
H        0.00000000       0.00000000       0.00000000      -0.19310717       1.40967155      -0.06079766
H        0.00000000       0.00000000       0.00000000      -0.15777633       0.04840523       0.47217706
O        0.00000000       0.00000000       0.00000000       0.98901808      -0.17386437      -0.03255928
H        0.00000000       0.00000000       0.00000000      -0.55464292      -0.14550644      -0.49784005
H        0.00000000       0.00000000       0.00000000      -0.30693021      -0.32827255       0.40203035
H        0.00000000       0.00000000       0.00000000      -0.57808632       0.42594096      -0.15495455
7
Lattice="529.1772105638412 0.0 0.0 0.0 529.1772105638412 0.0 0.0 0.0 529.1772105638412" Properties=species:S:1:pos:R:3:forces_component_raw:R:3 ipi_comment="Step:       11680  Bead:       0 forces_component_raw{ase}  cell{ase}" pbc="T T T"
O        0.00000000       0.00000000       0.00000000      -0.00750685      -1.35634136       0.31926221
H        0.00000000       0.00000000       0.00000000      -0.16642439       1.22892428       0.21071899
H        0.00000000       0.00000000       0.00000000       0.00038544      -0.28842685      -0.41186702
O        0.00000000       0.00000000       0.00000000       0.19960120       0.02540892      -0.21231842
H        0.00000000       0.00000000       0.00000000       0.36751801       0.53312183      -0.10533197
H        0.00000000       0.00000000       0.00000000      -0.83517242      -0.09660891       0.37178105
H        0.00000000       0.00000000       0.00000000       0.44159892      -0.04607795      -0.17224491
7
Lattice="529.1772105638412 0.0 0.0 0.0 529.1772105638412 0.0 0.0 0.0 529.1772105638412" Properties=species:S:1:pos:R:3:forces_component_raw:R:3 ipi_comment="Step:       11700  Bead:       0 forces_component_raw{ase}  cell{ase}" pbc="T T T"
O        0.00000000       0.00000000       0.00000000       0.28221294       0.40737546       0.16890538
H        0.00000000       0.00000000       0.00000000       0.03480133       0.33115447      -0.01923621
H        0.00000000       0.00000000       0.00000000      -0.13600943      -0.41405988      -0.38595405
O        0.00000000       0.00000000       0.00000000       0.31030852       0.57538378      -0.97603607
H        0.00000000       0.00000000       0.00000000      -0.23364776      -0.26588813       0.25168055
H        0.00000000       0.00000000       0.00000000      -0.65886426       0.04090613       0.49268204
H        0.00000000       0.00000000       0.00000000       0.40119857      -0.67487192       0.46795833
7
Lattice="529.1772105638412 0.0 0.0 0.0 529.1772105638412 0.0 0.0 0.0 529.1772105638412" Properties=species:S:1:pos:R:3:forces_component_raw:R:3 ipi_comment="Step:       11720  Bead:       0 forces_component_raw{ase}  cell{ase}" pbc="T T T"
O        0.00000000       0.00000000       0.00000000      -0.44357991      -0.44327951       1.62898183
H        0.00000000       0.00000000       0.00000000       0.15286243       0.30703563      -0.58468264
H        0.00000000       0.00000000       0.00000000       0.04441699       0.19235891      -0.76431483
O        0.00000000       0.00000000       0.00000000      -0.76241970      -0.15084603      -0.26946220
H        0.00000000       0.00000000       0.00000000       0.32954457       0.25624159      -0.32413304
H        0.00000000       0.00000000       0.00000000       0.09439531       0.26226071      -0.16259769
H        0.00000000       0.00000000       0.00000000       0.58478022      -0.42377141       0.47620860
7
Lattice="529.1772105638412 0.0 0.0 0.0 529.1772105638412 0.0 0.0 0.0 529.1772105638412" Properties=species:S:1:pos:R:3:forces_component_raw:R:3 ipi_comment="Step:       11740  Bead:       0 forces_component_raw{ase}  cell{ase}" pbc="T T T"
O        0.00000000       0.00000000       0.00000000       0.23469846       1.36419273       0.39908171
H        0.00000000       0.00000000       0.00000000      -0.29111043      -0.86503220       0.27728230
H        0.00000000       0.00000000       0.00000000      -0.08715816      -0.61218310      -0.37536651
O        0.00000000       0.00000000       0.00000000      -0.87484443       0.24467634      -0.83139169
H        0.00000000       0.00000000       0.00000000       0.03247455      -0.06845091      -0.05792385
H        0.00000000       0.00000000       0.00000000       0.25963545       0.16128725      -0.06645188
H        0.00000000       0.00000000       0.00000000       0.72630447      -0.22449036       0.65476990
7
Lattice="529.1772105638412 0.0 0.0 0.0 529.1772105638412 0.0 0.0 0.0 529.1772105638412" Properties=species:S:1:pos:R:3:forces_component_raw:R:3 ipi_comment="Step:       11760  Bead:       0 forces_component_raw{ase}  cell{ase}" pbc="T T T"
O        0.00000000       0.00000000       0.00000000       0.09827563       0.02211326       0.67016548
H        0.00000000       0.00000000       0.00000000      -0.42668471      -1.07716847      -0.97395998
H        0.00000000       0.00000000       0.00000000       0.19596383       0.63808853       0.59984285
O        0.00000000       0.00000000       0.00000000       0.00338492       0.72636438      -0.42789012
H        0.00000000       0.00000000       0.00000000      -0.15012252      -0.16204581       0.06240414
H        0.00000000       0.00000000       0.00000000      -0.18736729       0.15288508      -0.00463094
H        0.00000000       0.00000000       0.00000000       0.46655017      -0.30023694       0.07406852
7
Lattice="529.1772105638412 0.0 0.0 0.0 529.1772105638412 0.0 0.0 0.0 529.1772105638412" Properties=species:S:1:pos:R:3:forces_component_raw:R:3 ipi_comment="Step:       11780  Bead:       0 forces_component_raw{ase}  cell{ase}" pbc="T T T"
O        0.00000000       0.00000000       0.00000000       1.52235294       1.01458872      -0.93118531
H        0.00000000       0.00000000       0.00000000      -1.12609911      -1.25014353      -0.33079958
H        0.00000000       0.00000000       0.00000000      -0.36319637       0.15766475       0.93435812
O        0.00000000       0.00000000       0.00000000       0.65131843      -0.37388286       0.11800379
H        0.00000000       0.00000000       0.00000000      -0.11265724       0.09936069       0.22707316
H        0.00000000       0.00000000       0.00000000      -0.12109631      -0.04324383       0.16262461
H        0.00000000       0.00000000       0.00000000      -0.45062238       0.39565596      -0.18007475
7
Lattice="529.1772105638412 0.0 0.0 0.0 529.1772105638412 0.0 0.0 0.0 529.1772105638412" Properties=species:S:1:pos:R:3:forces_component_raw:R:3 ipi_comment="Step:       11800  Bead:       0 forces_component_raw{ase}  cell{ase}" pbc="T T T"
O        0.00000000       0.00000000       0.00000000       0.57175636       0.12022802      -0.25627127
H        0.00000000       0.00000000       0.00000000      -0.50109929      -0.34152433      -0.21961424
H        0.00000000       0.00000000       0.00000000      -0.10069702       0.15644193       0.73925388
O        0.00000000       0.00000000       0.00000000       0.55673307      -0.97151280       0.55584008
H        0.00000000       0.00000000       0.00000000       0.01824844       0.20345180      -0.50345135
H        0.00000000       0.00000000       0.00000000       0.06293029      -0.01493993      -0.00092783
H        0.00000000       0.00000000       0.00000000      -0.60787195       0.84785533      -0.31482941
7
Lattice="529.1772105638412 0.0 0.0 0.0 529.1772105638412 0.0 0.0 0.0 529.1772105638412" Properties=species:S:1:pos:R:3:forces_component_raw:R:3 ipi_comment="Step:       11820  Bead:       0 forces_component_raw{ase}  cell{ase}" pbc="T T T"
O        0.00000000       0.00000000       0.00000000      -0.02942160       0.57785356      -1.33990872
H        0.00000000       0.00000000       0.00000000      -0.17822331      -0.28493697      -0.22850132
H        0.00000000       0.00000000       0.00000000       0.19584686       0.38947401       0.96105945
O        0.00000000       0.00000000       0.00000000       0.25843543      -1.51822675       0.92081291
H        0.00000000       0.00000000       0.00000000       0.23950048      -0.11511309       0.15983614
H        0.00000000       0.00000000       0.00000000      -0.09150183       0.17888737      -0.10882723
H        0.00000000       0.00000000       0.00000000      -0.39463595       0.77206177      -0.36447132
7
Lattice="529.1772105638412 0.0 0.0 0.0 529.1772105638412 0.0 0.0 0.0 529.1772105638412" Properties=species:S:1:pos:R:3:forces_component_raw:R:3 ipi_comment="Step:       11840  Bead:       0 forces_component_raw{ase}  cell{ase}" pbc="T T T"
O        0.00000000       0.00000000       0.00000000      -0.18828444      -0.05712119      -0.44021854
H        0.00000000       0.00000000       0.00000000       0.46284589       0.38531751      -0.18917254
H        0.00000000       0.00000000       0.00000000      -0.03521350      -0.02848393       0.34530205
O        0.00000000       0.00000000       0.00000000       0.71142858      -0.32622182      -0.02107778
H        0.00000000       0.00000000       0.00000000      -0.41528928       0.01441282       0.30461139
H        0.00000000       0.00000000       0.00000000      -0.05205196      -0.10663778      -0.01000209
H        0.00000000       0.00000000       0.00000000      -0.48343527       0.11873446       0.01055754
7
Lattice="529.1772105638412 0.0 0.0 0.0 529.1772105638412 0.0 0.0 0.0 529.1772105638412" Properties=species:S:1:pos:R:3:forces_component_raw:R:3 ipi_comment="Step:       11860  Bead:       0 forces_component_raw{ase}  cell{ase}" pbc="T T T"
O        0.00000000       0.00000000       0.00000000      -0.78961659      -0.38156620       0.94197512
H        0.00000000       0.00000000       0.00000000       0.93996501       0.54704142       0.03964540
H        0.00000000       0.00000000       0.00000000      -0.52144092      -0.46962291      -0.56348062
O        0.00000000       0.00000000       0.00000000      -1.17213011       0.77282369      -0.72235918
H        0.00000000       0.00000000       0.00000000       0.78361696      -0.24360359       0.12673235
H        0.00000000       0.00000000       0.00000000       0.23843688       0.01954809       0.08216357
H        0.00000000       0.00000000       0.00000000       0.52116865      -0.24462041       0.09532341
7
Lattice="529.1772105638412 0.0 0.0 0.0 529.1772105638412 0.0 0.0 0.0 529.1772105638412" Properties=species:S:1:pos:R:3:forces_component_raw:R:3 ipi_comment="Step:       11880  Bead:       0 forces_component_raw{ase}  cell{ase}" pbc="T T T"
O        0.00000000       0.00000000       0.00000000      -0.02623695      -0.70470977       2.24268842
H        0.00000000       0.00000000       0.00000000       0.68540585       0.32171741      -0.30245736
H        0.00000000       0.00000000       0.00000000      -0.52865160      -0.29804766      -1.28231895
O        0.00000000       0.00000000       0.00000000       0.41140264       1.29726720      -0.61900759
H        0.00000000       0.00000000       0.00000000      -0.74896008       0.10571489      -0.06702481
H        0.00000000       0.00000000       0.00000000      -0.41000879       0.00781427      -0.31191343
H        0.00000000       0.00000000       0.00000000       0.61704880      -0.72975642       0.34003383
7
Lattice="529.1772105638412 0.0 0.0 0.0 529.1772105638412 0.0 0.0 0.0 529.1772105638412" Properties=species:S:1:pos:R:3:forces_component_raw:R:3 ipi_comment="Step:       11900  Bead:       0 forces_component_raw{ase}  cell{ase}" pbc="T T T"
O        0.00000000       0.00000000       0.00000000      -0.32688516      -0.04455859       0.61162979
H        0.00000000       0.00000000       0.00000000       0.62989384      -0.17954883       0.37102425
H        0.00000000       0.00000000       0.00000000      -0.70290804       0.19207037      -1.34858632
O        0.00000000       0.00000000       0.00000000      -0.12478718       1.14862752       0.52049470
H        0.00000000       0.00000000       0.00000000       0.73971951       0.13154814       0.37425360
H        0.00000000       0.00000000       0.00000000      -0.81114233      -0.80043984      -0.30131418
H        0.00000000       0.00000000       0.00000000       0.59610927      -0.44769862      -0.22750175
7
Lattice="529.1772105638412 0.0 0.0 0.0 529.1772105638412 0.0 0.0 0.0 529.1772105638412" Properties=species:S:1:pos:R:3:forces_component_raw:R:3 ipi_comment="Step:       11920  Bead:       0 forces_component_raw{ase}  cell{ase}" pbc="T T T"
O        0.00000000       0.00000000       0.00000000       1.61548329       0.48774159       0.73907745
H        0.00000000       0.00000000       0.00000000      -0.81548596      -0.10122694      -0.18453589
H        0.00000000       0.00000000       0.00000000      -0.22571060       0.11526854      -0.77703709
O        0.00000000       0.00000000       0.00000000       1.36361766       0.06117420       1.28191531
H        0.00000000       0.00000000       0.00000000      -0.98044503      -0.00634816      -0.59767121
H        0.00000000       0.00000000       0.00000000      -1.01866615      -0.58945936      -0.47690016
H        0.00000000       0.00000000       0.00000000       0.06120670       0.03285012       0.01515153
7
Lattice="529.1772105638412 0.0 0.0 0.0 529.1772105638412 0.0 0.0 0.0 529.1772105638412" Properties=species:S:1:pos:R:3:forces_component_raw:R:3 ipi_comment="Step:       11940  Bead:       0 forces_component_raw{ase}  cell{ase}" pbc="T T T"
O        0.00000000       0.00000000       0.00000000       0.47796911       0.90046436      -0.94042373
H        0.00000000       0.00000000       0.00000000      -0.75910455      -0.65047431       0.29192314
H        0.00000000       0.00000000       0.00000000       0.03206033      -0.05944626       0.32734591
O        0.00000000       0.00000000       0.00000000       0.18952692       0.83795393      -0.66823548
H        0.00000000       0.00000000       0.00000000       0.93187708      -0.38877618       0.84534848
H        0.00000000       0.00000000       0.00000000      -0.78352797      -0.99644554       0.37620035
H        0.00000000       0.00000000       0.00000000      -0.08880091       0.35672402      -0.23215881
7
Lattice="529.1772105638412 0.0 0.0 0.0 529.1772105638412 0.0 0.0 0.0 529.1772105638412" Properties=species:S:1:pos:R:3:forces_component_raw:R:3 ipi_comment="Step:       11960  Bead:       0 forces_component_raw{ase}  cell{ase}" pbc="T T T"
O        0.00000000       0.00000000       0.00000000       0.35885087       0.19485068       0.08006626
H        0.00000000       0.00000000       0.00000000      -0.91690284      -0.53516704      -0.46074054
H        0.00000000       0.00000000       0.00000000       0.94340033      -0.25123590       1.20902002
O        0.00000000       0.00000000       0.00000000       0.51065123       0.51504344      -0.19733667
H        0.00000000       0.00000000       0.00000000      -0.74433935       0.43432036      -0.82871866
H        0.00000000       0.00000000       0.00000000      -0.47652263      -0.16899255      -0.10254222
H        0.00000000       0.00000000       0.00000000       0.32486236      -0.18881908       0.30025175
7
Lattice="529.1772105638412 0.0 0.0 0.0 529.1772105638412 0.0 0.0 0.0 529.1772105638412" Properties=species:S:1:pos:R:3:forces_component_raw:R:3 ipi_comment="Step:       11980  Bead:       0 forces_component_raw{ase}  cell{ase}" pbc="T T T"
O        0.00000000       0.00000000       0.00000000      -1.95815444       0.12984520      -1.55400849
H        0.00000000       0.00000000       0.00000000       0.03992024      -0.27461010       0.15572879
H        0.00000000       0.00000000       0.00000000       1.40251136      -0.31292987       1.33260060
O        0.00000000       0.00000000       0.00000000      -1.53635788       0.13661921      -0.93814695
H        0.00000000       0.00000000       0.00000000       0.91068435       0.20778091       0.43763214
H        0.00000000       0.00000000       0.00000000       0.58064008       0.23624674      -0.00546682
H        0.00000000       0.00000000       0.00000000       0.56075645      -0.12295209       0.57166088
7
Lattice="529.1772105638412 0.0 0.0 0.0 529.1772105638412 0.0 0.0 0.0 529.1772105638412" Properties=species:S:1:pos:R:3:forces_component_raw:R:3 ipi_comment="Step:       12000  Bead:       0 forces_component_raw{ase}  cell{ase}" pbc="T T T"
O        0.00000000       0.00000000       0.00000000      -0.60710478       0.04875198      -1.28963399
H        0.00000000       0.00000000       0.00000000       0.05361468       0.52561474       0.28644374
H        0.00000000       0.00000000       0.00000000       0.86349654      -0.32061830       1.05070484
O        0.00000000       0.00000000       0.00000000      -0.98055572      -0.24660039      -0.97871411
H        0.00000000       0.00000000       0.00000000      -0.76581812      -0.43054903      -0.28788501
H        0.00000000       0.00000000       0.00000000       1.16979218       0.73467720      -0.06243271
H        0.00000000       0.00000000       0.00000000       0.26657510      -0.31127614       1.28151715
7
Lattice="529.1772105638412 0.0 0.0 0.0 529.1772105638412 0.0 0.0 0.0 529.1772105638412" Properties=species:S:1:pos:R:3:forces_component_raw:R:3 ipi_comment="Step:       12020  Bead:       0 forces_component_raw{ase}  cell{ase}" pbc="T T T"
O        0.00000000       0.00000000       0.00000000       0.38650590       0.46967393      -0.16039796
H        0.00000000       0.00000000       0.00000000      -0.15249443      -0.16723087      -0.18778038
H        0.00000000       0.00000000       0.00000000      -0.20428231       0.12907453       0.08412308
O        0.00000000       0.00000000       0.00000000      -0.65588731      -1.32044578      -0.18871993
H        0.00000000       0.00000000       0.00000000       0.25566471       0.22310033       0.31572098
H        0.00000000       0.00000000       0.00000000       0.09188139      -0.02842647      -0.10903469
H        0.00000000       0.00000000       0.00000000       0.27861217       0.69425416       0.24608885
7
Lattice="529.1772105638412 0.0 0.0 0.0 529.1772105638412 0.0 0.0 0.0 529.1772105638412" Properties=species:S:1:pos:R:3:forces_component_raw:R:3 ipi_comment="Step:       12040  Bead:       0 forces_component_raw{ase}  cell{ase}" pbc="T T T"
O        0.00000000       0.00000000       0.00000000       0.34252340       0.95685309       1.13638652
H        0.00000000       0.00000000       0.00000000       0.13258281      -0.06128633      -0.13055509
H        0.00000000       0.00000000       0.00000000      -0.48519930      -0.31489697      -0.69977898
O        0.00000000       0.00000000       0.00000000       0.42393276       0.65003902       0.18787104
H        0.00000000       0.00000000       0.00000000       0.25557655      -0.57303310      -0.59176695
H        0.00000000       0.00000000       0.00000000      -0.26070207      -0.41719639       0.44366989
H        0.00000000       0.00000000       0.00000000      -0.40871421      -0.24047908      -0.34582636
7
Lattice="529.1772105638412 0.0 0.0 0.0 529.1772105638412 0.0 0.0 0.0 529.1772105638412" Properties=species:S:1:pos:R:3:forces_component_raw:R:3 ipi_comment="Step:       12060  Bead:       0 forces_component_raw{ase}  cell{ase}" pbc="T T T"
O        0.00000000       0.00000000       0.00000000       0.45202828      -1.15462554       0.95043743
H        0.00000000       0.00000000       0.00000000      -0.04888092      -0.17144530       0.09288538
H        0.00000000       0.00000000       0.00000000      -0.18677525       0.65730441      -1.46084488
O        0.00000000       0.00000000       0.00000000       0.98325098       0.10727958       0.36854458
H        0.00000000       0.00000000       0.00000000      -0.52335882       0.76402348       0.69517136
H        0.00000000       0.00000000       0.00000000      -0.71186650      -0.46450347      -0.35197103
H        0.00000000       0.00000000       0.00000000       0.03560218       0.26196680      -0.29422283
7
Lattice="529.1772105638412 0.0 0.0 0.0 529.1772105638412 0.0 0.0 0.0 529.1772105638412" Properties=species:S:1:pos:R:3:forces_component_raw:R:3 ipi_comment="Step:       12080  Bead:       0 forces_component_raw{ase}  cell{ase}" pbc="T T T"
O        0.00000000       0.00000000       0.00000000      -0.05234212      -0.99207306       1.07988799
H        0.00000000       0.00000000       0.00000000      -0.36501750       0.90896464       0.56922525
H        0.00000000       0.00000000       0.00000000       0.29071391      -0.38490450      -0.84957969
O        0.00000000       0.00000000       0.00000000       0.71283925       2.18401433       0.20242432
H        0.00000000       0.00000000       0.00000000       0.20199080      -0.70739776      -0.71370995
H        0.00000000       0.00000000       0.00000000      -0.41430611      -0.56864256       0.14007670
H        0.00000000       0.00000000       0.00000000      -0.37387806      -0.43996096      -0.42832458
7
Lattice="529.1772105638412 0.0 0.0 0.0 529.1772105638412 0.0 0.0 0.0 529.1772105638412" Properties=species:S:1:pos:R:3:forces_component_raw:R:3 ipi_comment="Step:       12100  Bead:       0 forces_component_raw{ase}  cell{ase}" pbc="T T T"
O        0.00000000       0.00000000       0.00000000       1.21744561      -1.38457704      -1.08766532
H        0.00000000       0.00000000       0.00000000      -0.39562717       1.06436837       0.11597778
H        0.00000000       0.00000000       0.00000000      -0.77954596      -0.04871944       0.95126516
O        0.00000000       0.00000000       0.00000000      -0.54277790      -1.28353000       0.38404843
H        0.00000000       0.00000000       0.00000000       0.14249678       0.56833601       0.50725520
H        0.00000000       0.00000000       0.00000000       0.39056197       0.45204479      -0.17483509
H        0.00000000       0.00000000       0.00000000      -0.03255323       0.63207710      -0.69604600
7
Lattice="529.1772105638412 0.0 0.0 0.0 529.1772105638412 0.0 0.0 0.0 529.1772105638412" Properties=species:S:1:pos:R:3:forces_component_raw:R:3 ipi_comment="Step:       12120  Bead:       0 forces_component_raw{ase}  cell{ase}" pbc="T T T"
O        0.00000000       0.00000000       0.00000000       1.75710750       0.43843696      -1.37245679
H        0.00000000       0.00000000       0.00000000      -0.35603255       0.69201058       0.13923946
H        0.00000000       0.00000000       0.00000000      -1.42987860      -0.61356527       1.13563895
O        0.00000000       0.00000000       0.00000000      -1.33742404      -0.81542635      -0.93981701
H        0.00000000       0.00000000       0.00000000      -0.39398447      -0.74734509      -0.26405531
H        0.00000000       0.00000000       0.00000000       1.71016789       1.95943714       1.08978868
H        0.00000000       0.00000000       0.00000000       0.05004427      -0.91354823       0.21166208
7
Lattice="529.1772105638412 0.0 0.0 0.0 529.1772105638412 0.0 0.0 0.0 529.1772105638412" Properties=species:S:1:pos:R:3:forces_component_raw:R:3 ipi_comment="Step:       12140  Bead:       0 forces_component_raw{ase}  cell{ase}" pbc="T T T"
O        0.00000000       0.00000000       0.00000000       0.42257586       0.91315967      -0.82095653
H        0.00000000       0.00000000       0.00000000       0.36660078      -0.13767266      -0.37899816
H        0.00000000       0.00000000       0.00000000      -1.18826449      -0.50353980       0.82711309
O        0.00000000       0.00000000       0.00000000      -1.88602472      -3.31661821      -1.19604731
H        0.00000000       0.00000000       0.00000000       0.34844282       0.43086723       0.61743772
H        0.00000000       0.00000000       0.00000000       1.59313894       2.20383883       0.67460632
H        0.00000000       0.00000000       0.00000000       0.34353066       0.40996486       0.27684489
7
Lattice="529.1772105638412 0.0 0.0 0.0 529.1772105638412 0.0 0.0 0.0 529.1772105638412" Properties=species:S:1:pos:R:3:forces_component_raw:R:3 ipi_comment="Step:       12160  Bead:       0 forces_component_raw{ase}  cell{ase}" pbc="T T T"
O        0.00000000       0.00000000       0.00000000       0.91687256       0.36138702      -0.15898901
H        0.00000000       0.00000000       0.00000000       0.26316267      -0.26508388      -0.13270786
H        0.00000000       0.00000000       0.00000000      -0.74101442      -0.33583036       0.29560900
O        0.00000000       0.00000000       0.00000000      -0.03717025      -0.05215764       0.29625055
H        0.00000000       0.00000000       0.00000000      -0.58375907      -0.08865410      -0.09388076
H        0.00000000       0.00000000       0.00000000       0.56320900       0.73250586       0.59169787
H        0.00000000       0.00000000       0.00000000      -0.38130066      -0.35216683      -0.79797971
7
Lattice="529.1772105638412 0.0 0.0 0.0 529.1772105638412 0.0 0.0 0.0 529.1772105638412" Properties=species:S:1:pos:R:3:forces_component_raw:R:3 ipi_comment="Step:       12180  Bead:       0 forces_component_raw{ase}  cell{ase}" pbc="T T T"
O        0.00000000       0.00000000       0.00000000      -1.00079978       0.21288469       0.97507817
H        0.00000000       0.00000000       0.00000000       1.10423637      -0.52290756      -0.76154894
H        0.00000000       0.00000000       0.00000000      -0.13630244      -0.26557759       0.09118404
O        0.00000000       0.00000000       0.00000000      -0.04208665       0.55208075       0.82986862
H        0.00000000       0.00000000       0.00000000       0.57102823       0.09644657      -0.10729818
H        0.00000000       0.00000000       0.00000000      -0.34002382      -0.43680957      -0.39683423
H        0.00000000       0.00000000       0.00000000      -0.15605184       0.36388278      -0.63044953
7
Lattice="529.1772105638412 0.0 0.0 0.0 529.1772105638412 0.0 0.0 0.0 529.1772105638412" Properties=species:S:1:pos:R:3:forces_component_raw:R:3 ipi_comment="Step:       12200  Bead:       0 forces_component_raw{ase}  cell{ase}" pbc="T T T"
O        0.00000000       0.00000000       0.00000000       0.44836772      -1.40313161       0.23961577
H        0.00000000       0.00000000       0.00000000       0.50568879       0.13620819      -0.07813290
H        0.00000000       0.00000000       0.00000000      -0.37456185       0.86397827       0.10917868
O        0.00000000       0.00000000       0.00000000       0.47297084       1.70618856       1.66510678
H        0.00000000       0.00000000       0.00000000      -0.25207049      -0.22187455      -0.15620522
H        0.00000000       0.00000000       0.00000000      -0.63362706      -1.26852465      -0.57846236
H        0.00000000       0.00000000       0.00000000      -0.16676806       0.18715560      -1.20110083
7
Lattice="529.1772105638412 0.0 0.0 0.0 529.1772105638412 0.0 0.0 0.0 529.1772105638412" Properties=species:S:1:pos:R:3:forces_component_raw:R:3 ipi_comment="Step:       12220  Bead:       0 forces_component_raw{ase}  cell{ase}" pbc="T T T"
O        0.00000000       0.00000000       0.00000000      -0.67968798       0.57913995      -0.15862012
H        0.00000000       0.00000000       0.00000000      -0.57490182      -0.51162958       0.08015442
H        0.00000000       0.00000000       0.00000000       0.91367442       0.20905517      -0.10887785
O        0.00000000       0.00000000       0.00000000       0.52860862       1.45225764       0.46307457
H        0.00000000       0.00000000       0.00000000       0.35712081       0.17616877       0.21004146
H        0.00000000       0.00000000       0.00000000      -0.39483297      -1.80228007      -0.11905608
H        0.00000000       0.00000000       0.00000000      -0.14998105      -0.10271183      -0.36671633
7
Lattice="529.1772105638412 0.0 0.0 0.0 529.1772105638412 0.0 0.0 0.0 529.1772105638412" Properties=species:S:1:pos:R:3:forces_component_raw:R:3 ipi_comment="Step:       12240  Bead:       0 forces_component_raw{ase}  cell{ase}" pbc="T T T"
O        0.00000000       0.00000000       0.00000000       0.59413839      -0.31443024      -0.67836136
H        0.00000000       0.00000000       0.00000000      -0.74610812       0.90810549       0.22784127
H        0.00000000       0.00000000       0.00000000      -0.31874320       0.16732314       0.20249826
O        0.00000000       0.00000000       0.00000000       0.81640494       0.25609899       0.30069238
H        0.00000000       0.00000000       0.00000000      -0.15654913      -0.06013200      -0.12767714
H        0.00000000       0.00000000       0.00000000      -0.35918278      -1.07262862      -0.85573757
H        0.00000000       0.00000000       0.00000000       0.17003988       0.11566323       0.93074405
7
Lattice="529.1772105638412 0.0 0.0 0.0 529.1772105638412 0.0 0.0 0.0 529.1772105638412" Properties=species:S:1:pos:R:3:forces_component_raw:R:3 ipi_comment="Step:       12260  Bead:       0 forces_component_raw{ase}  cell{ase}" pbc="T T T"
O        0.00000000       0.00000000       0.00000000      -0.14818955      -0.29727086      -0.10803609
H        0.00000000       0.00000000       0.00000000      -0.22407532      -0.20736155      -0.06826534
H        0.00000000       0.00000000       0.00000000       0.45454759      -0.27468702       0.24504463
O        0.00000000       0.00000000       0.00000000       0.49084345       1.48602891      -0.95065159
H        0.00000000       0.00000000       0.00000000      -0.49100614       1.11305583      -0.24052334
H        0.00000000       0.00000000       0.00000000      -0.16987756      -0.79011536      -0.00621808
H        0.00000000       0.00000000       0.00000000       0.08775771      -1.02964998       1.12864971
7
Lattice="529.1772105638412 0.0 0.0 0.0 529.1772105638412 0.0 0.0 0.0 529.1772105638412" Properties=species:S:1:pos:R:3:forces_component_raw:R:3 ipi_comment="Step:       12280  Bead:       0 forces_component_raw{ase}  cell{ase}" pbc="T T T"
O        0.00000000       0.00000000       0.00000000      -0.21547538      -0.18835098      -0.58174080
H        0.00000000       0.00000000       0.00000000      -0.20832384       0.67978025      -0.02195963
H        0.00000000       0.00000000       0.00000000      -0.17733523       0.60573173       0.14922515
O        0.00000000       0.00000000       0.00000000       1.02186465      -1.22221935      -1.45459593
H        0.00000000       0.00000000       0.00000000      -0.27879757      -0.15083854      -0.13736236
H        0.00000000       0.00000000       0.00000000      -0.13418248       0.81718874       0.31310648
H        0.00000000       0.00000000       0.00000000      -0.00775008      -0.54129171       1.73332692
7
Lattice="529.1772105638412 0.0 0.0 0.0 529.1772105638412 0.0 0.0 0.0 529.1772105638412" Properties=species:S:1:pos:R:3:forces_component_raw:R:3 ipi_comment="Step:       12300  Bead:       0 forces_component_raw{ase}  cell{ase}" pbc="T T T"
O        0.00000000       0.00000000       0.00000000      -1.33155930       0.78318465      -0.10507689
H        0.00000000       0.00000000       0.00000000       0.85512376      -0.40650949       0.02558628
H        0.00000000       0.00000000       0.00000000       0.35465267      -0.18178701       0.02060241
O        0.00000000       0.00000000       0.00000000       0.06701177       0.22041738      -2.80179477
H        0.00000000       0.00000000       0.00000000       0.91592640      -1.11583376       0.60827375
H        0.00000000       0.00000000       0.00000000      -0.61564362       1.15620137       1.24476779
H        0.00000000       0.00000000       0.00000000      -0.24551162      -0.45567310       1.00764144
7
Lattice="529.1772105638412 0.0 0.0 0.0 529.1772105638412 0.0 0.0 0.0 529.1772105638412" Properties=species:S:1:pos:R:3:forces_component_raw:R:3 ipi_comment="Step:       12320  Bead:       0 forces_component_raw{ase}  cell{ase}" pbc="T T T"
O        0.00000000       0.00000000       0.00000000       0.78344011      -1.12722981       0.94650603
H        0.00000000       0.00000000       0.00000000       0.98238397       0.27052140       0.10488351
H        0.00000000       0.00000000       0.00000000      -0.53951120      -0.43611106      -0.20290782
O        0.00000000       0.00000000       0.00000000       0.74038088      -1.19197858      -0.49588591
H        0.00000000       0.00000000       0.00000000      -1.01153708       1.00693584      -0.80180150
H        0.00000000       0.00000000       0.00000000      -0.90534425       1.11779440       0.69768727
H        0.00000000       0.00000000       0.00000000      -0.04981226       0.36006776      -0.24848163
7
Lattice="529.1772105638412 0.0 0.0 0.0 529.1772105638412 0.0 0.0 0.0 529.1772105638412" Properties=species:S:1:pos:R:3:forces_component_raw:R:3 ipi_comment="Step:       12340  Bead:       0 forces_component_raw{ase}  cell{ase}" pbc="T T T"
O        0.00000000       0.00000000       0.00000000      -0.61892295       0.64220935       0.14852959
H        0.00000000       0.00000000       0.00000000       0.61652029      -0.02424550       0.01704047
H        0.00000000       0.00000000       0.00000000      -0.03032103      -0.98002911      -0.17243618
O        0.00000000       0.00000000       0.00000000      -1.19879437      -0.46508056       0.72347588
H        0.00000000       0.00000000       0.00000000       0.53478480      -0.05795434       0.49986810
H        0.00000000       0.00000000       0.00000000      -0.00961807      -0.12381257       0.20434773
H        0.00000000       0.00000000       0.00000000       0.70635134       1.00891268      -1.42082548
7
Lattice="529.1772105638412 0.0 0.0 0.0 529.1772105638412 0.0 0.0 0.0 529.1772105638412" Properties=species:S:1:pos:R:3:forces_component_raw:R:3 ipi_comment="Step:       12360  Bead:       0 forces_component_raw{ase}  cell{ase}" pbc="T T T"
O        0.00000000       0.00000000       0.00000000       0.58046430       0.65976548       0.08528702
H        0.00000000       0.00000000       0.00000000      -0.09202975       0.07988951       0.13418201
H        0.00000000       0.00000000       0.00000000      -0.46888170      -0.33008954      -0.25503081
O        0.00000000       0.00000000       0.00000000      -0.63228512      -1.66969276       1.37869168
H        0.00000000       0.00000000       0.00000000      -0.12516113      -0.11960587      -0.14940009
H        0.00000000       0.00000000       0.00000000      -0.11022753       0.07370628       0.10294610
H        0.00000000       0.00000000       0.00000000       0.84812081       1.30602694      -1.29667580
7
Lattice="529.1772105638412 0.0 0.0 0.0 529.1772105638412 0.0 0.0 0.0 529.1772105638412" Properties=species:S:1:pos:R:3:forces_component_raw:R:3 ipi_comment="Step:       12380  Bead:       0 forces_component_raw{ase}  cell{ase}" pbc="T T T"
O        0.00000000       0.00000000       0.00000000       0.16000100       1.20523691       0.13279295
H        0.00000000       0.00000000       0.00000000      -0.24323145      -0.21273106      -0.04296447
H        0.00000000       0.00000000       0.00000000      -0.03294107      -0.58299011      -0.29154140
O        0.00000000       0.00000000       0.00000000      -0.15265548      -1.18421138       1.08655417
H        0.00000000       0.00000000       0.00000000      -0.16866796      -0.11418445      -0.02890659
H        0.00000000       0.00000000       0.00000000       0.06164217       0.07767232      -0.33132586
H        0.00000000       0.00000000       0.00000000       0.37585288       0.81120765      -0.52460879
7
Lattice="529.1772105638412 0.0 0.0 0.0 529.1772105638412 0.0 0.0 0.0 529.1772105638412" Properties=species:S:1:pos:R:3:forces_component_raw:R:3 ipi_comment="Step:       12400  Bead:       0 forces_component_raw{ase}  cell{ase}" pbc="T T T"
O        0.00000000       0.00000000       0.00000000      -0.10682155      -0.89036745      -0.74365932
H        0.00000000       0.00000000       0.00000000      -0.11652941       0.35259432       0.01392627
H        0.00000000       0.00000000       0.00000000       0.05469942       0.31541038       0.51298320
O        0.00000000       0.00000000       0.00000000       0.34880650       0.17904347       0.20083223
H        0.00000000       0.00000000       0.00000000       0.05923802       0.25219089       0.08518056
H        0.00000000       0.00000000       0.00000000      -0.05788299       0.05131602      -0.30246583
H        0.00000000       0.00000000       0.00000000      -0.18150994      -0.26018766       0.23320299
7
Lattice="529.1772105638412 0.0 0.0 0.0 529.1772105638412 0.0 0.0 0.0 529.1772105638412" Properties=species:S:1:pos:R:3:forces_component_raw:R:3 ipi_comment="Step:       12420  Bead:       0 forces_component_raw{ase}  cell{ase}" pbc="T T T"
O        0.00000000       0.00000000       0.00000000       0.80377817      -1.03801871      -0.48086611
H        0.00000000       0.00000000       0.00000000      -0.57394719      -0.10029131      -0.16176026
H        0.00000000       0.00000000       0.00000000       0.16780674       0.93487609       0.79900217
O        0.00000000       0.00000000       0.00000000       0.08403562       1.92533994      -0.51760495
H        0.00000000       0.00000000       0.00000000      -0.21107055      -0.33785570      -0.06580123
H        0.00000000       0.00000000       0.00000000       0.26904339      -0.28341621      -0.62439603
H        0.00000000       0.00000000       0.00000000      -0.53964609      -1.10063410       1.05142629
7
Lattice="529.1772105638412 0.0 0.0 0.0 529.1772105638412 0.0 0.0 0.0 529.1772105638412" Properties=species:S:1:pos:R:3:forces_component_raw:R:3 ipi_comment="Step:       12440  Bead:       0 forces_component_raw{ase}  cell{ase}" pbc="T T T"
O        0.00000000       0.00000000       0.00000000       0.06001779      -0.94471371      -0.34702063
H        0.00000000       0.00000000       0.00000000      -0.45380136      -0.29977438      -0.32238317
H        0.00000000       0.00000000       0.00000000       0.40639600       0.87129593       0.69105864
O        0.00000000       0.00000000       0.00000000      -0.89382011       2.17693735      -1.18615794
H        0.00000000       0.00000000       0.00000000       0.36818141       0.13645622       0.21278434
H        0.00000000       0.00000000       0.00000000       0.93542433      -0.62707669      -0.64040399
H        0.00000000       0.00000000       0.00000000      -0.42239794      -1.31312490       1.59212256
7
Lattice="529.1772105638412 0.0 0.0 0.0 529.1772105638412 0.0 0.0 0.0 529.1772105638412" Properties=species:S:1:pos:R:3:forces_component_raw:R:3 ipi_comment="Step:       12460  Bead:       0 forces_component_raw{ase}  cell{ase}" pbc="T T T"
O        0.00000000       0.00000000       0.00000000       0.50713968      -1.34304369      -0.42171392
H        0.00000000       0.00000000       0.00000000      -0.27056062       0.26070857       0.04946026
H        0.00000000       0.00000000       0.00000000      -0.62604338       1.33288527       0.47085273
O        0.00000000       0.00000000       0.00000000       0.09653655       0.98684389      -1.09673286
H        0.00000000       0.00000000       0.00000000      -0.00570302       0.16617161      -0.11539274
H        0.00000000       0.00000000       0.00000000       1.09185767      -0.39221856      -0.54840976
H        0.00000000       0.00000000       0.00000000      -0.79322684      -1.01134706       1.66193629
7
Lattice="529.1772105638412 0.0 0.0 0.0 529.1772105638412 0.0 0.0 0.0 529.1772105638412" Properties=species:S:1:pos:R:3:forces_component_raw:R:3 ipi_comment="Step:       12480  Bead:       0 forces_component_raw{ase}  cell{ase}" pbc="T T T"
O        0.00000000       0.00000000       0.00000000      -0.98124784       0.48269838      -0.16634655
H        0.00000000       0.00000000       0.00000000       0.05413271      -0.57922018      -0.16441119
H        0.00000000       0.00000000       0.00000000       0.22086190       0.89255250       0.26921442
O        0.00000000       0.00000000       0.00000000       0.22745967       0.53671527      -0.92334938
H        0.00000000       0.00000000       0.00000000       0.14102960      -0.23953590      -0.16613387
H        0.00000000       0.00000000       0.00000000       0.66669059      -0.09961581      -0.22734664
H        0.00000000       0.00000000       0.00000000      -0.32892656      -0.99359417       1.37837327
7
Lattice="529.1772105638412 0.0 0.0 0.0 529.1772105638412 0.0 0.0 0.0 529.1772105638412" Properties=species:S:1:pos:R:3:forces_component_raw:R:3 ipi_comment="Step:       12500  Bead:       0 forces_component_raw{ase}  cell{ase}" pbc="T T T"
O        0.00000000       0.00000000       0.00000000       0.27467793       0.17047066      -0.55144441
H        0.00000000       0.00000000       0.00000000      -0.10025841       0.38096327       0.39835990
H        0.00000000       0.00000000       0.00000000      -0.31574249      -0.59566593      -0.10399508
O        0.00000000       0.00000000       0.00000000       0.07212687      -0.54532027      -0.14859308
H        0.00000000       0.00000000       0.00000000      -0.11178586       0.53993762       0.19479948
H        0.00000000       0.00000000       0.00000000      -0.02681547       0.08569002       0.15365517
H        0.00000000       0.00000000       0.00000000       0.20779738      -0.03607546       0.05721802
7
Lattice="529.1772105638412 0.0 0.0 0.0 529.1772105638412 0.0 0.0 0.0 529.1772105638412" Properties=species:S:1:pos:R:3:forces_component_raw:R:3 ipi_comment="Step:       12520  Bead:       0 forces_component_raw{ase}  cell{ase}" pbc="T T T"
O        0.00000000       0.00000000       0.00000000      -1.13731981       2.20812464       1.10483146
H        0.00000000       0.00000000       0.00000000       0.97935331      -0.16701967      -0.01375214
H        0.00000000       0.00000000       0.00000000       0.34538716      -1.44126869      -1.22887063
O        0.00000000       0.00000000       0.00000000       1.08332753      -0.72367132       1.62549305
H        0.00000000       0.00000000       0.00000000      -0.18581837      -0.34109926      -0.13701537
H        0.00000000       0.00000000       0.00000000      -0.97817719      -0.19434190       0.26581448
H        0.00000000       0.00000000       0.00000000      -0.10675284       0.65927637      -1.61650086
7
Lattice="529.1772105638412 0.0 0.0 0.0 529.1772105638412 0.0 0.0 0.0 529.1772105638412" Properties=species:S:1:pos:R:3:forces_component_raw:R:3 ipi_comment="Step:       12540  Bead:       0 forces_component_raw{ase}  cell{ase}" pbc="T T T"
O        0.00000000       0.00000000       0.00000000       0.28124386       1.44629526       1.01949334
H        0.00000000       0.00000000       0.00000000       0.57928765       0.73181248       0.42050731
H        0.00000000       0.00000000       0.00000000      -0.56274378      -2.19681550      -1.39484454
O        0.00000000       0.00000000       0.00000000       0.70022351      -0.21497454       1.40046859
H        0.00000000       0.00000000       0.00000000      -0.02933975      -0.23972915       0.10868487
H        0.00000000       0.00000000       0.00000000      -0.59447491      -0.10457277       0.16933838
H        0.00000000       0.00000000       0.00000000      -0.37419653       0.57798422      -1.72364819
7
Lattice="529.1772105638412 0.0 0.0 0.0 529.1772105638412 0.0 0.0 0.0 529.1772105638412" Properties=species:S:1:pos:R:3:forces_component_raw:R:3 ipi_comment="Step:       12560  Bead:       0 forces_component_raw{ase}  cell{ase}" pbc="T T T"
O        0.00000000       0.00000000       0.00000000      -1.39514101       1.02811015       0.31234038
H        0.00000000       0.00000000       0.00000000       0.80376029       0.07616603       0.10541064
H        0.00000000       0.00000000       0.00000000       0.48288831      -1.35112405      -0.55140162
O        0.00000000       0.00000000       0.00000000      -0.35829935      -0.20172647       0.72878629
H        0.00000000       0.00000000       0.00000000      -0.00204946       0.05658676       0.29778341
H        0.00000000       0.00000000       0.00000000       0.53564608       0.00154966       0.13995037
H        0.00000000       0.00000000       0.00000000      -0.06680486       0.39043775      -1.03286958
7
Lattice="529.1772105638412 0.0 0.0 0.0 529.1772105638412 0.0 0.0 0.0 529.1772105638412" Properties=species:S:1:pos:R:3:forces_component_raw:R:3 ipi_comment="Step:       12580  Bead:       0 forces_component_raw{ase}  cell{ase}" pbc="T T T"
O        0.00000000       0.00000000       0.00000000       0.93755013      -0.44985497       0.25611600
H        0.00000000       0.00000000       0.00000000      -0.36604378       0.20070666      -0.03655916
H        0.00000000       0.00000000       0.00000000      -0.53740829       0.37531054       0.04801737
O        0.00000000       0.00000000       0.00000000      -0.21617259      -0.23280245       1.52801395
H        0.00000000       0.00000000       0.00000000      -0.25955963       0.05216711      -0.65590143
H        0.00000000       0.00000000       0.00000000       0.81015921      -0.03426865      -0.99815107
H        0.00000000       0.00000000       0.00000000      -0.36852503       0.08874176      -0.14153564
7
Lattice="529.1772105638412 0.0 0.0 0.0 529.1772105638412 0.0 0.0 0.0 529.1772105638412" Properties=species:S:1:pos:R:3:forces_component_raw:R:3 ipi_comment="Step:       12600  Bead:       0 forces_component_raw{ase}  cell{ase}" pbc="T T T"
O        0.00000000       0.00000000       0.00000000       0.01759261      -0.02360511       0.31791866
H        0.00000000       0.00000000       0.00000000      -0.32458350      -0.73551297      -0.72041607
H        0.00000000       0.00000000       0.00000000      -0.02201873       0.74453247       0.35665292
O        0.00000000       0.00000000       0.00000000      -2.12485242       1.79482246      -0.36769900
H        0.00000000       0.00000000       0.00000000       0.85504651      -0.33424112       0.50697148
H        0.00000000       0.00000000       0.00000000       1.40219224      -1.02862764      -0.93803334
H        0.00000000       0.00000000       0.00000000       0.19662339      -0.41736826       0.84460533
7
Lattice="529.1772105638412 0.0 0.0 0.0 529.1772105638412 0.0 0.0 0.0 529.1772105638412" Properties=species:S:1:pos:R:3:forces_component_raw:R:3 ipi_comment="Step:       12620  Bead:       0 forces_component_raw{ase}  cell{ase}" pbc="T T T"
O        0.00000000       0.00000000       0.00000000       2.08022690      -0.90774322       2.20069504
H        0.00000000       0.00000000       0.00000000      -0.26363429      -0.17866741      -1.42766154
H        0.00000000       0.00000000       0.00000000      -0.66104901       0.84444952      -0.42522526
O        0.00000000       0.00000000       0.00000000      -1.29676235       0.96635556       0.38576698
H        0.00000000       0.00000000       0.00000000      -1.15302539       0.44038552      -0.41033366
H        0.00000000       0.00000000       0.00000000       0.90404028      -0.45401806      -2.03551436
H        0.00000000       0.00000000       0.00000000       0.39020389      -0.71076185       1.71227324
7
Lattice="529.1772105638412 0.0 0.0 0.0 529.1772105638412 0.0 0.0 0.0 529.1772105638412" Properties=species:S:1:pos:R:3:forces_component_raw:R:3 ipi_comment="Step:       12640  Bead:       0 forces_component_raw{ase}  cell{ase}" pbc="T T T"
O        0.00000000       0.00000000       0.00000000      -1.19158626       0.13556993       0.29772708
H        0.00000000       0.00000000       0.00000000      -0.44113433      -0.98518634      -1.19967723
H        0.00000000       0.00000000       0.00000000       0.73255974       0.91044611       0.55954015
O        0.00000000       0.00000000       0.00000000      -1.56604207       1.33870840      -0.51383221
H        0.00000000       0.00000000       0.00000000       0.84398329       0.29251286       0.49011332
H        0.00000000       0.00000000       0.00000000       0.49869490      -0.44105709      -0.69829011
H        0.00000000       0.00000000       0.00000000       1.12352467      -1.25099385       1.06441927
7
Lattice="529.1772105638412 0.0 0.0 0.0 529.1772105638412 0.0 0.0 0.0 529.1772105638412" Properties=species:S:1:pos:R:3:forces_component_raw:R:3 ipi_comment="Step:       12660  Bead:       0 forces_component_raw{ase}  cell{ase}" pbc="T T T"
O        0.00000000       0.00000000       0.00000000      -0.02641699       0.08326426       1.64981974
H        0.00000000       0.00000000       0.00000000      -0.06132348       0.15775378      -1.03732360
H        0.00000000       0.00000000       0.00000000      -0.07800657       0.76539934      -0.61557794
O        0.00000000       0.00000000       0.00000000       0.63520950      -0.22781879      -0.80839253
H        0.00000000       0.00000000       0.00000000      -0.56003487      -0.81963378      -0.22928786
H        0.00000000       0.00000000       0.00000000      -0.45843026       0.48273087      -0.25384980
H        0.00000000       0.00000000       0.00000000       0.54900265      -0.44169554       1.29461217
7
Lattice="529.1772105638412 0.0 0.0 0.0 529.1772105638412 0.0 0.0 0.0 529.1772105638412" Properties=species:S:1:pos:R:3:forces_component_raw:R:3 ipi_comment="Step:       12680  Bead:       0 forces_component_raw{ase}  cell{ase}" pbc="T T T"
O        0.00000000       0.00000000       0.00000000      -0.27780712       0.65881837      -0.78713733
H        0.00000000       0.00000000       0.00000000      -0.49862594      -0.37523162       0.06808572
H        0.00000000       0.00000000       0.00000000       0.58394402      -1.12692213       0.55415636
O        0.00000000       0.00000000       0.00000000       0.19642437      -0.29447591      -1.00790465
H        0.00000000       0.00000000       0.00000000       0.17477030       0.80796457       0.25349793
H        0.00000000       0.00000000       0.00000000      -0.46960646       0.50258422       1.82668519
H        0.00000000       0.00000000       0.00000000       0.29090077      -0.17273742      -0.90738327
7
Lattice="529.1772105638412 0.0 0.0 0.0 529.1772105638412 0.0 0.0 0.0 529.1772105638412" Properties=species:S:1:pos:R:3:forces_component_raw:R:3 ipi_comment="Step:       12700  Bead:       0 forces_component_raw{ase}  cell{ase}" pbc="T T T"
O        0.00000000       0.00000000       0.00000000       0.55488730       0.23345047       0.09870145
H        0.00000000       0.00000000       0.00000000       0.75738859       0.67484570       0.37286145
H        0.00000000       0.00000000       0.00000000      -1.02872241      -0.51227069      -0.25334209
O        0.00000000       0.00000000       0.00000000       2.10207510      -2.25557089       0.41123909
H        0.00000000       0.00000000       0.00000000      -0.74020815      -0.57606590      -0.51654530
H        0.00000000       0.00000000       0.00000000      -1.30198539       1.63100541       1.29424668
H        0.00000000       0.00000000       0.00000000      -0.34343490       0.80460590      -1.40716148
7
Lattice="529.1772105638412 0.0 0.0 0.0 529.1772105638412 0.0 0.0 0.0 529.1772105638412" Properties=species:S:1:pos:R:3:forces_component_raw:R:3 ipi_comment="Step:       12720  Bead:       0 forces_component_raw{ase}  cell{ase}" pbc="T T T"
O        0.00000000       0.00000000       0.00000000       0.17380464       0.94410622       0.01668504
H        0.00000000       0.00000000       0.00000000      -0.32058576      -0.44989336       0.01649205
H        0.00000000       0.00000000       0.00000000       0.33394700      -1.15302873       0.16986254
O        0.00000000       0.00000000       0.00000000      -1.44942785       0.09867841       0.61579240
H        0.00000000       0.00000000       0.00000000       1.34296465      -0.54303599       0.36707059
H        0.00000000       0.00000000       0.00000000      -0.35234147       0.42211336       0.92521709
H        0.00000000       0.00000000       0.00000000       0.27163884       0.68106026      -2.11111975
7
Lattice="529.1772105638412 0.0 0.0 0.0 529.1772105638412 0.0 0.0 0.0 529.1772105638412" Properties=species:S:1:pos:R:3:forces_component_raw:R:3 ipi_comment="Step:       12740  Bead:       0 forces_component_raw{ase}  cell{ase}" pbc="T T T"
O        0.00000000       0.00000000       0.00000000       1.73893190      -0.47757262      -0.13105486
H        0.00000000       0.00000000       0.00000000       0.36900321      -0.34726861       0.08252972
H        0.00000000       0.00000000       0.00000000      -0.28368133       0.09721583       0.17136440
O        0.00000000       0.00000000       0.00000000      -0.57664776      -0.59259355       2.01924110
H        0.00000000       0.00000000       0.00000000      -1.74173081       0.39641893      -0.10015231
H        0.00000000       0.00000000       0.00000000       0.22170247      -0.35309485      -0.35344860
H        0.00000000       0.00000000       0.00000000       0.27242225       1.27689481      -1.68847931
7
Lattice="529.1772105638412 0.0 0.0 0.0 529.1772105638412 0.0 0.0 0.0 529.1772105638412" Properties=species:S:1:pos:R:3:forces_component_raw:R:3 ipi_comment="Step:       12760  Bead:       0 forces_component_raw{ase}  cell{ase}" pbc="T T T"
O        0.00000000       0.00000000       0.00000000      -0.19805695      -0.60395384       0.46637309
H        0.00000000       0.00000000       0.00000000       0.02613685       0.22254154      -0.10181539
H        0.00000000       0.00000000       0.00000000      -0.24079780       0.42799163      -0.40543807
O        0.00000000       0.00000000       0.00000000      -1.60143638       0.44925416       1.51800156
H        0.00000000       0.00000000       0.00000000       1.20904470      -0.44345364       0.32757759
H        0.00000000       0.00000000       0.00000000       0.39441735      -0.74196416      -0.92864329
H        0.00000000       0.00000000       0.00000000       0.41069216       0.68958426      -0.87605542
7
Lattice="529.1772105638412 0.0 0.0 0.0 529.1772105638412 0.0 0.0 0.0 529.1772105638412" Properties=species:S:1:pos:R:3:forces_component_raw:R:3 ipi_comment="Step:       12780  Bead:       0 forces_component_raw{ase}  cell{ase}" pbc="T T T"
O        0.00000000       0.00000000       0.00000000      -1.53274751       0.09345992      -0.21306330
H        0.00000000       0.00000000       0.00000000       0.68040145      -0.13567215       0.40254563
H        0.00000000       0.00000000       0.00000000       0.12324467       0.82057375      -0.30696687
O        0.00000000       0.00000000       0.00000000       1.25581622      -0.84379995       0.83498848
H        0.00000000       0.00000000       0.00000000      -0.28116685       0.20571028       0.03408615
H        0.00000000       0.00000000       0.00000000       0.02628427      -0.07612716      -1.21497298
H        0.00000000       0.00000000       0.00000000      -0.27183247      -0.06414457       0.46338287
7
Lattice="529.1772105638412 0.0 0.0 0.0 529.1772105638412 0.0 0.0 0.0 529.1772105638412" Properties=species:S:1:pos:R:3:forces_component_raw:R:3 ipi_comment="Step:       12800  Bead:       0 forces_component_raw{ase}  cell{ase}" pbc="T T T"
O        0.00000000       0.00000000       0.00000000       0.01511893       0.27419680       0.76523853
H        0.00000000       0.00000000       0.00000000       0.33708331       0.36504197      -0.33411694
H        0.00000000       0.00000000       0.00000000      -0.60701281      -0.07308534      -0.44506902
O        0.00000000       0.00000000       0.00000000      -0.39961323       2.50895930       0.90343797
H        0.00000000       0.00000000       0.00000000       0.51556140      -0.68795437      -0.19269940
H        0.00000000       0.00000000       0.00000000       0.02534509      -1.07252503      -1.07088709
H        0.00000000       0.00000000       0.00000000       0.11351741      -1.31463337       0.37409604
7
Lattice="529.1772105638412 0.0 0.0 0.0 529.1772105638412 0.0 0.0 0.0 529.1772105638412" Properties=species:S:1:pos:R:3:forces_component_raw:R:3 ipi_comment="Step:       12820  Bead:       0 forces_component_raw{ase}  cell{ase}" pbc="T T T"
O        0.00000000       0.00000000       0.00000000      -0.94614697       0.45956951      -0.72730339
H        0.00000000       0.00000000       0.00000000       0.07336275       0.00392142       0.18155305
H        0.00000000       0.00000000       0.00000000       0.25858313      -0.63661981       0.35837862
O        0.00000000       0.00000000       0.00000000       0.11345094       0.49859986      -0.41077447
H        0.00000000       0.00000000       0.00000000       0.26814464       0.76776022       0.44227198
H        0.00000000       0.00000000       0.00000000       0.55515933      -0.29391062      -1.92648721
H        0.00000000       0.00000000       0.00000000      -0.32255381      -0.79932058       2.08236123
7
Lattice="529.1772105638412 0.0 0.0 0.0 529.1772105638412 0.0 0.0 0.0 529.1772105638412" Properties=species:S:1:pos:R:3:forces_component_raw:R:3 ipi_comment="Step:       12840  Bead:       0 forces_component_raw{ase}  cell{ase}" pbc="T T T"
O        0.00000000       0.00000000       0.00000000       0.93647319      -0.45292962      -0.08906597
H        0.00000000       0.00000000       0.00000000       0.38984090      -0.05557922       0.10641802
H        0.00000000       0.00000000       0.00000000      -0.07771280      -0.03428441       0.10172762
O        0.00000000       0.00000000       0.00000000      -1.91425968       3.43679763      -1.47950030
H        0.00000000       0.00000000       0.00000000      -0.43987158      -0.21437587      -0.18094660
H        0.00000000       0.00000000       0.00000000       0.46546403      -0.80424094       0.04516366
H        0.00000000       0.00000000       0.00000000       0.64006591      -1.87538755       1.49620366
7
Lattice="529.1772105638412 0.0 0.0 0.0 529.1772105638412 0.0 0.0 0.0 529.1772105638412" Properties=species:S:1:pos:R:3:forces_component_raw:R:3 ipi_comment="Step:       12860  Bead:       0 forces_component_raw{ase}  cell{ase}" pbc="T T T"
O        0.00000000       0.00000000       0.00000000       0.61213815      -1.24865496       0.12003431
H        0.00000000       0.00000000       0.00000000       0.72766781       0.31318381       0.03622004
H        0.00000000       0.00000000       0.00000000      -0.06706885      -0.19955722       0.03495978
O        0.00000000       0.00000000       0.00000000      -0.85996676       0.63897836      -2.05301834
H        0.00000000       0.00000000       0.00000000       0.37373480      -0.14587051       0.11188568
H        0.00000000       0.00000000       0.00000000      -0.27650321       0.63247812      -0.37081599
H        0.00000000       0.00000000       0.00000000      -0.51000190       0.00944227       2.12073446
7
Lattice="529.1772105638412 0.0 0.0 0.0 529.1772105638412 0.0 0.0 0.0 529.1772105638412" Properties=species:S:1:pos:R:3:forces_component_raw:R:3 ipi_comment="Step:       12880  Bead:       0 forces_component_raw{ase}  cell{ase}" pbc="T T T"
O        0.00000000       0.00000000       0.00000000       0.06338152      -0.29508248       0.05747739
H        0.00000000       0.00000000       0.00000000      -0.29768476       0.19013405       0.03472615
H        0.00000000       0.00000000       0.00000000       0.25966054      -0.15491144       0.02901280
O        0.00000000       0.00000000       0.00000000      -0.27861524       0.42647269      -2.42370868
H        0.00000000       0.00000000       0.00000000       0.02567509       0.15601435       0.13166183
H        0.00000000       0.00000000       0.00000000      -0.09191975       0.57617903       1.42444253
H        0.00000000       0.00000000       0.00000000       0.31950280      -0.89880610       0.74638802
7
Lattice="529.1772105638412 0.0 0.0 0.0 529.1772105638412 0.0 0.0 0.0 529.1772105638412" Properties=species:S:1:pos:R:3:forces_component_raw:R:3 ipi_comment="Step:       12900  Bead:       0 forces_component_raw{ase}  cell{ase}" pbc="T T T"
O        0.00000000       0.00000000       0.00000000      -0.19814298       0.21876532       0.03951038
H        0.00000000       0.00000000       0.00000000      -0.67793048      -0.08593389       0.13394567
H        0.00000000       0.00000000       0.00000000       0.20881775       0.49129564      -0.01207751
O        0.00000000       0.00000000       0.00000000       1.92730904      -2.31463600       0.60749984
H        0.00000000       0.00000000       0.00000000      -0.52332771      -0.27606356      -0.40550608
H        0.00000000       0.00000000       0.00000000      -0.35422829       1.29001379       0.16403765
H        0.00000000       0.00000000       0.00000000      -0.38249734       0.67655879      -0.52741003
7
Lattice="529.1772105638412 0.0 0.0 0.0 529.1772105638412 0.0 0.0 0.0 529.1772105638412" Properties=species:S:1:pos:R:3:forces_component_raw:R:3 ipi_comment="Step:       12920  Bead:       0 forces_component_raw{ase}  cell{ase}" pbc="T T T"
O        0.00000000       0.00000000       0.00000000       0.44005397      -0.08068135      -0.21915230
H        0.00000000       0.00000000       0.00000000      -0.85880786      -0.26447633       0.27042434
H        0.00000000       0.00000000       0.00000000      -0.13300994       0.56927753      -0.04121135
O        0.00000000       0.00000000       0.00000000      -0.52874005       0.08852673       0.69178265
H        0.00000000       0.00000000       0.00000000       0.98959005      -0.24584800      -0.10320525
H        0.00000000       0.00000000       0.00000000       0.19852243       0.24392408       0.98718143
H        0.00000000       0.00000000       0.00000000      -0.10760865      -0.31072274      -1.58581949
7
Lattice="529.1772105638412 0.0 0.0 0.0 529.1772105638412 0.0 0.0 0.0 529.1772105638412" Properties=species:S:1:pos:R:3:forces_component_raw:R:3 ipi_comment="Step:       12940  Bead:       0 forces_component_raw{ase}  cell{ase}" pbc="T T T"
O        0.00000000       0.00000000       0.00000000      -0.81290150       0.14566717      -0.03974035
H        0.00000000       0.00000000       0.00000000       0.30755609      -0.42478135       0.03449935
H        0.00000000       0.00000000       0.00000000      -0.26406133       1.02655649      -0.34515971
O        0.00000000       0.00000000       0.00000000       1.71512950      -2.51938153       1.74531031
H        0.00000000       0.00000000       0.00000000      -0.30109268      -0.12406111       0.14966801
H        0.00000000       0.00000000       0.00000000      -0.22583884       0.96835715       0.25588697
H        0.00000000       0.00000000       0.00000000      -0.41879121       0.92764330      -1.80046463
7
Lattice="529.1772105638412 0.0 0.0 0.0 529.1772105638412 0.0 0.0 0.0 529.1772105638412" Properties=species:S:1:pos:R:3:forces_component_raw:R:3 ipi_comment="Step:       12960  Bead:       0 forces_component_raw{ase}  cell{ase}" pbc="T T T"
O        0.00000000       0.00000000       0.00000000      -0.43605912      -1.28724408       0.17756584
H        0.00000000       0.00000000       0.00000000       0.47107115       0.61784017      -0.41565496
H        0.00000000       0.00000000       0.00000000      -0.49921632       0.57680595       0.14709422
O        0.00000000       0.00000000       0.00000000       0.45985386      -0.85753292       1.47562147
H        0.00000000       0.00000000       0.00000000       0.37399453       0.58212364       0.01547989
H        0.00000000       0.00000000       0.00000000       0.19350565       0.13057447       0.91816980
H        0.00000000       0.00000000       0.00000000      -0.56314999       0.23743287      -2.31827641
7
Lattice="529.1772105638412 0.0 0.0 0.0 529.1772105638412 0.0 0.0 0.0 529.1772105638412" Properties=species:S:1:pos:R:3:forces_component_raw:R:3 ipi_comment="Step:       12980  Bead:       0 forces_component_raw{ase}  cell{ase}" pbc="T T T"
O        0.00000000       0.00000000       0.00000000      -0.30447140      -0.45305649       0.44281560
H        0.00000000       0.00000000       0.00000000       0.87992543      -0.10356712      -0.36990404
H        0.00000000       0.00000000       0.00000000       0.32329843       0.24223119       0.03800207
O        0.00000000       0.00000000       0.00000000      -0.02397183      -0.29049888       0.65849048
H        0.00000000       0.00000000       0.00000000      -0.09313004      -0.48141399      -0.26780737
H        0.00000000       0.00000000       0.00000000      -0.55170864       0.59731162      -0.09988153
H        0.00000000       0.00000000       0.00000000      -0.22994193       0.48899376      -0.40171507
7
Lattice="529.1772105638412 0.0 0.0 0.0 529.1772105638412 0.0 0.0 0.0 529.1772105638412" Properties=species:S:1:pos:R:3:forces_component_raw:R:3 ipi_comment="Step:       13000  Bead:       0 forces_component_raw{ase}  cell{ase}" pbc="T T T"
O        0.00000000       0.00000000       0.00000000      -0.13410783      -0.83016288      -0.18703574
H        0.00000000       0.00000000       0.00000000       0.32724872       0.55611730      -0.11012185
H        0.00000000       0.00000000       0.00000000       0.03395325      -0.18901742       0.37507445
O        0.00000000       0.00000000       0.00000000      -0.84014702       0.23101458      -2.13531781
H        0.00000000       0.00000000       0.00000000       0.15284374       0.13507743       0.31221139
H        0.00000000       0.00000000       0.00000000      -0.01650855       0.40850782       0.80043715
H        0.00000000       0.00000000       0.00000000       0.47671765      -0.31153685       0.94475258
7
Lattice="529.1772105638412 0.0 0.0 0.0 529.1772105638412 0.0 0.0 0.0 529.1772105638412" Properties=species:S:1:pos:R:3:forces_component_raw:R:3 ipi_comment="Step:       13020  Bead:       0 forces_component_raw{ase}  cell{ase}" pbc="T T T"
O        0.00000000       0.00000000       0.00000000       0.62256140       0.97783518       0.32872588
H        0.00000000       0.00000000       0.00000000      -0.43723062      -0.04318935      -0.03148865
H        0.00000000       0.00000000       0.00000000      -0.00090098      -0.67382544      -0.03897928
O        0.00000000       0.00000000       0.00000000       0.90184027      -0.42581898      -1.69380093
H        0.00000000       0.00000000       0.00000000      -0.55601084      -0.52820182      -0.37211305
H        0.00000000       0.00000000       0.00000000      -0.50709093       0.51101923       0.08089840
H        0.00000000       0.00000000       0.00000000      -0.02316830       0.18218121       1.72675753
7
Lattice="529.1772105638412 0.0 0.0 0.0 529.1772105638412 0.0 0.0 0.0 529.1772105638412" Properties=species:S:1:pos:R:3:forces_component_raw:R:3 ipi_comment="Step:       13040  Bead:       0 forces_component_raw{ase}  cell{ase}" pbc="T T T"
O        0.00000000       0.00000000       0.00000000       0.72042966       1.35929835      -0.40132976
H        0.00000000       0.00000000       0.00000000      -1.49041677      -0.20147650       0.03139858
H        0.00000000       0.00000000       0.00000000       0.02241346      -0.69090307       0.28017873
O        0.00000000       0.00000000       0.00000000      -0.19243866      -0.07678050      -1.59430719
H        0.00000000       0.00000000       0.00000000       0.08169779      -0.22252953      -0.11527745
H        0.00000000       0.00000000       0.00000000       0.17980579       0.06005572       0.56652689
H        0.00000000       0.00000000       0.00000000       0.67850882      -0.22766464       1.23281002
7
Lattice="529.1772105638412 0.0 0.0 0.0 529.1772105638412 0.0 0.0 0.0 529.1772105638412" Properties=species:S:1:pos:R:3:forces_component_raw:R:3 ipi_comment="Step:       13060  Bead:       0 forces_component_raw{ase}  cell{ase}" pbc="T T T"
O        0.00000000       0.00000000       0.00000000       0.81782592       0.95602530      -0.26972646
H        0.00000000       0.00000000       0.00000000      -1.25012017      -0.70686561      -0.07034519
H        0.00000000       0.00000000       0.00000000      -0.16482167      -0.02667451       0.01515985
O        0.00000000       0.00000000       0.00000000       0.94126797      -0.64010978       0.67997557
H        0.00000000       0.00000000       0.00000000       0.04072350       0.39602095       0.23504514
H        0.00000000       0.00000000       0.00000000       0.02887958      -0.24100123      -0.55512500
H        0.00000000       0.00000000       0.00000000      -0.41375515       0.26260480      -0.03498402
7
Lattice="529.1772105638412 0.0 0.0 0.0 529.1772105638412 0.0 0.0 0.0 529.1772105638412" Properties=species:S:1:pos:R:3:forces_component_raw:R:3 ipi_comment="Step:       13080  Bead:       0 forces_component_raw{ase}  cell{ase}" pbc="T T T"
O        0.00000000       0.00000000       0.00000000       0.68332100       0.15136959       0.62793428
H        0.00000000       0.00000000       0.00000000      -0.04494662      -0.58525622       0.01825199
H        0.00000000       0.00000000       0.00000000      -0.44949699       0.66687173      -0.74711800
O        0.00000000       0.00000000       0.00000000      -0.06680119       0.99280280       1.36073005
H        0.00000000       0.00000000       0.00000000       0.09434537      -0.50064731      -0.05240244
H        0.00000000       0.00000000       0.00000000       0.15747653      -0.27748141      -0.19895214
H        0.00000000       0.00000000       0.00000000      -0.37389815      -0.44765926      -1.00844395
7
Lattice="529.1772105638412 0.0 0.0 0.0 529.1772105638412 0.0 0.0 0.0 529.1772105638412" Properties=species:S:1:pos:R:3:forces_component_raw:R:3 ipi_comment="Step:       13100  Bead:       0 forces_component_raw{ase}  cell{ase}" pbc="T T T"
O        0.00000000       0.00000000       0.00000000      -0.58514923      -2.22771478       1.72021795
H        0.00000000       0.00000000       0.00000000       0.69884050       0.70383704       0.19143359
H        0.00000000       0.00000000       0.00000000       0.56492859       0.61474192      -1.29561162
O        0.00000000       0.00000000       0.00000000      -0.29102406       1.19587541       1.24730790
H        0.00000000       0.00000000       0.00000000       0.07941853       0.85606963      -0.16042618
H        0.00000000       0.00000000       0.00000000       0.50942946      -0.68675673      -0.37107909
H        0.00000000       0.00000000       0.00000000      -0.97644365      -0.45605236      -1.33184243
7
Lattice="529.1772105638412 0.0 0.0 0.0 529.1772105638412 0.0 0.0 0.0 529.1772105638412" Properties=species:S:1:pos:R:3:forces_component_raw:R:3 ipi_comment="Step:       13120  Bead:       0 forces_component_raw{ase}  cell{ase}" pbc="T T T"
O        0.00000000       0.00000000       0.00000000      -0.82949019      -0.27265668       1.82225347
H        0.00000000       0.00000000       0.00000000       0.66040623       0.12183243      -0.00292867
H        0.00000000       0.00000000       0.00000000       0.55259538       0.10856707      -1.41811943
O        0.00000000       0.00000000       0.00000000      -0.63492656       0.90520549       0.15409344
H        0.00000000       0.00000000       0.00000000       0.11258427      -0.33130249      -0.08123414
H        0.00000000       0.00000000       0.00000000       0.27638829      -0.54174376      -0.45148686
H        0.00000000       0.00000000       0.00000000      -0.13755746       0.01009798      -0.02257761
7
Lattice="529.1772105638412 0.0 0.0 0.0 529.1772105638412 0.0 0.0 0.0 529.1772105638412" Properties=species:S:1:pos:R:3:forces_component_raw:R:3 ipi_comment="Step:       13140  Bead:       0 forces_component_raw{ase}  cell{ase}" pbc="T T T"
O        0.00000000       0.00000000       0.00000000      -0.60965759      -0.43249390       1.41564274
H        0.00000000       0.00000000       0.00000000       0.07191360       0.20999120      -0.11766017
H        0.00000000       0.00000000       0.00000000       0.41776994       0.26303876      -1.22172427
O        0.00000000       0.00000000       0.00000000      -0.45357052      -0.29828137      -0.27715659
H        0.00000000       0.00000000       0.00000000      -0.16727842      -0.09362014      -0.22189403
H        0.00000000       0.00000000       0.00000000       0.12692627       0.08992890       0.05284262
H        0.00000000       0.00000000       0.00000000       0.61389673       0.26143652       0.36994952
7
Lattice="529.1772105638412 0.0 0.0 0.0 529.1772105638412 0.0 0.0 0.0 529.1772105638412" Properties=species:S:1:pos:R:3:forces_component_raw:R:3 ipi_comment="Step:       13160  Bead:       0 forces_component_raw{ase}  cell{ase}" pbc="T T T"
O        0.00000000       0.00000000       0.00000000       0.26485288       0.14111106      -0.67017317
H        0.00000000       0.00000000       0.00000000      -0.91319907       0.23158546       0.19873893
H        0.00000000       0.00000000       0.00000000       0.07151392      -0.03291209       0.06020513
O        0.00000000       0.00000000       0.00000000       0.96306801      -1.91415310      -0.58857250
H        0.00000000       0.00000000       0.00000000      -0.15940699       0.33375076       0.08082401
H        0.00000000       0.00000000       0.00000000      -0.55637920       0.46316335       0.48638767
H        0.00000000       0.00000000       0.00000000       0.32955048       0.77745456       0.43258989
7
Lattice="529.1772105638412 0.0 0.0 0.0 529.1772105638412 0.0 0.0 0.0 529.1772105638412" Properties=species:S:1:pos:R:3:forces_component_raw:R:3 ipi_comment="Step:       13180  Bead:       0 forces_component_raw{ase}  cell{ase}" pbc="T T T"
O        0.00000000       0.00000000       0.00000000       0.40878192       0.32745659      -1.80331135
H        0.00000000       0.00000000       0.00000000      -0.59471429       0.39111647       0.52278531
H        0.00000000       0.00000000       0.00000000      -0.05805281      -0.50304389       1.11812878
O        0.00000000       0.00000000       0.00000000      -0.12930647      -1.09446335      -1.19911814
H        0.00000000       0.00000000       0.00000000       0.75349790      -0.80714941       0.23141095
H        0.00000000       0.00000000       0.00000000      -0.99606824       1.37385905       0.80830968
H        0.00000000       0.00000000       0.00000000       0.61586189       0.31222448       0.32179469
7
Lattice="529.1772105638412 0.0 0.0 0.0 529.1772105638412 0.0 0.0 0.0 529.1772105638412" Properties=species:S:1:pos:R:3:forces_component_raw:R:3 ipi_comment="Step:       13200  Bead:       0 forces_component_raw{ase}  cell{ase}" pbc="T T T"
O        0.00000000       0.00000000       0.00000000      -0.12656778       0.88972020      -2.67555714
H        0.00000000       0.00000000       0.00000000       0.32651976      -0.01166193       0.41943961
H        0.00000000       0.00000000       0.00000000      -0.35924780      -0.69732011       1.42351556
O        0.00000000       0.00000000       0.00000000       1.22227681      -2.53116894      -0.31974816
H        0.00000000       0.00000000       0.00000000      -0.31428462       0.33464754       0.29561144
H        0.00000000       0.00000000       0.00000000      -0.92618478       1.64047909       0.70300293
H        0.00000000       0.00000000       0.00000000       0.17748839       0.37530404       0.15373583
7
Lattice="529.1772105638412 0.0 0.0 0.0 529.1772105638412 0.0 0.0 0.0 529.1772105638412" Properties=species:S:1:pos:R:3:forces_component_raw:R:3 ipi_comment="Step:       13220  Bead:       0 forces_component_raw{ase}  cell{ase}" pbc="T T T"
O        0.00000000       0.00000000       0.00000000      -0.36263877       0.64680582       0.69700587
H        0.00000000       0.00000000       0.00000000       0.29001340      -0.47675350      -0.46785474
H        0.00000000       0.00000000       0.00000000       0.05157264      -0.15667085       0.28652668
O        0.00000000       0.00000000       0.00000000      -0.13177791      -0.56586087       0.10539785
H        0.00000000       0.00000000       0.00000000       0.18833688      -0.06225537      -0.76845002
H        0.00000000       0.00000000       0.00000000      -0.05063066       0.80263740       0.18337888
H        0.00000000       0.00000000       0.00000000       0.01512451      -0.18790275      -0.03600453
7
Lattice="529.1772105638412 0.0 0.0 0.0 529.1772105638412 0.0 0.0 0.0 529.1772105638412" Properties=species:S:1:pos:R:3:forces_component_raw:R:3 ipi_comment="Step:       13240  Bead:       0 forces_component_raw{ase}  cell{ase}" pbc="T T T"
O        0.00000000       0.00000000       0.00000000      -0.17265751       0.73750234       0.93940598
H        0.00000000       0.00000000       0.00000000       0.81039876      -1.12930799      -0.49031234
H        0.00000000       0.00000000       0.00000000       0.03978312       0.17601244      -0.41827601
O        0.00000000       0.00000000       0.00000000      -0.07467112       1.52291370      -0.51849395
H        0.00000000       0.00000000       0.00000000      -0.24886440      -0.15834987       0.62251943
H        0.00000000       0.00000000       0.00000000       0.27005476      -0.83012462       0.05305844
H        0.00000000       0.00000000       0.00000000      -0.62404359      -0.31864607      -0.18790144
7
Lattice="529.1772105638412 0.0 0.0 0.0 529.1772105638412 0.0 0.0 0.0 529.1772105638412" Properties=species:S:1:pos:R:3:forces_component_raw:R:3 ipi_comment="Step:       13260  Bead:       0 forces_component_raw{ase}  cell{ase}" pbc="T T T"
O        0.00000000       0.00000000       0.00000000      -0.46168032       0.60386664       1.22655690
H        0.00000000       0.00000000       0.00000000       0.60887712      -0.67028392      -0.35239682
H        0.00000000       0.00000000       0.00000000       0.29488996      -0.04133931      -0.34890390
O        0.00000000       0.00000000       0.00000000       0.42731303       1.34453655      -0.39242989
H        0.00000000       0.00000000       0.00000000      -0.03031100      -0.28553054       0.05652138
H        0.00000000       0.00000000       0.00000000      -0.07777454      -0.73336053      -0.08809136
H        0.00000000       0.00000000       0.00000000      -0.76131427      -0.21788865      -0.10125642
7
Lattice="529.1772105638412 0.0 0.0 0.0 529.1772105638412 0.0 0.0 0.0 529.1772105638412" Properties=species:S:1:pos:R:3:forces_component_raw:R:3 ipi_comment="Step:       13280  Bead:       0 forces_component_raw{ase}  cell{ase}" pbc="T T T"
O        0.00000000       0.00000000       0.00000000      -1.08561409       0.68009234       0.77539480
H        0.00000000       0.00000000       0.00000000       0.50032729      -0.46658272      -0.35419372
H        0.00000000       0.00000000       0.00000000       0.30845040      -0.16159326      -0.34823182
O        0.00000000       0.00000000       0.00000000       0.30161882       0.43164063       0.25542709
H        0.00000000       0.00000000       0.00000000       0.01305807       0.42278010      -0.16241652
H        0.00000000       0.00000000       0.00000000       0.34720984      -0.53814006      -0.07691707
H        0.00000000       0.00000000       0.00000000      -0.38505036      -0.36819699      -0.08906280
7
Lattice="529.1772105638412 0.0 0.0 0.0 529.1772105638412 0.0 0.0 0.0 529.1772105638412" Properties=species:S:1:pos:R:3:forces_component_raw:R:3 ipi_comment="Step:       13300  Bead:       0 forces_component_raw{ase}  cell{ase}" pbc="T T T"
O        0.00000000       0.00000000       0.00000000      -0.94294322       0.55534446      -0.06758508
H        0.00000000       0.00000000       0.00000000       0.44393498      -0.23676251       0.03940886
H        0.00000000       0.00000000       0.00000000       0.28094232      -0.23541552      -0.35894346
O        0.00000000       0.00000000       0.00000000       0.06840256       0.17958441       0.21543010
H        0.00000000       0.00000000       0.00000000      -0.25612941      -0.27033868       0.41823244
H        0.00000000       0.00000000       0.00000000      -0.32463306      -0.10401905      -0.29265481
H        0.00000000       0.00000000       0.00000000       0.73042596       0.11160696       0.04611200
7
Lattice="529.1772105638412 0.0 0.0 0.0 529.1772105638412 0.0 0.0 0.0 529.1772105638412" Properties=species:S:1:pos:R:3:forces_component_raw:R:3 ipi_comment="Step:       13320  Bead:       0 forces_component_raw{ase}  cell{ase}" pbc="T T T"
O        0.00000000       0.00000000       0.00000000       0.78719801      -0.48740655      -0.25491726
H        0.00000000       0.00000000       0.00000000      -0.72783971       0.21418071      -0.20486695
H        0.00000000       0.00000000       0.00000000      -0.40196562       0.19907382       0.14289829
O        0.00000000       0.00000000       0.00000000      -1.04444862      -1.39706016       0.87119419
H        0.00000000       0.00000000       0.00000000       0.27572674       0.65893358      -0.15670474
H        0.00000000       0.00000000       0.00000000       0.01309824       0.30990976       0.03148995
H        0.00000000       0.00000000       0.00000000       1.09823108       0.50236887      -0.42909336
7
Lattice="529.1772105638412 0.0 0.0 0.0 529.1772105638412 0.0 0.0 0.0 529.1772105638412" Properties=species:S:1:pos:R:3:forces_component_raw:R:3 ipi_comment="Step:       13340  Bead:       0 forces_component_raw{ase}  cell{ase}" pbc="T T T"
O        0.00000000       0.00000000       0.00000000      -0.05790656      -0.22779095      -2.20115853
H        0.00000000       0.00000000       0.00000000      -0.58347416       0.28135225       1.06061673
H        0.00000000       0.00000000       0.00000000       0.42711851       0.33520576       0.60171950
O        0.00000000       0.00000000       0.00000000      -0.64847171       0.26306659       0.51246399
H        0.00000000       0.00000000       0.00000000      -0.34262362      -0.66645807       0.04728952
H        0.00000000       0.00000000       0.00000000       0.00948328      -0.23507306      -0.08808403
H        0.00000000       0.00000000       0.00000000       1.19587422       0.24969739       0.06715278
7
Lattice="529.1772105638412 0.0 0.0 0.0 529.1772105638412 0.0 0.0 0.0 529.1772105638412" Properties=species:S:1:pos:R:3:forces_component_raw:R:3 ipi_comment="Step:       13360  Bead:       0 forces_component_raw{ase}  cell{ase}" pbc="T T T"
O        0.00000000       0.00000000       0.00000000       1.09373653      -0.56698305      -0.90285647
H        0.00000000       0.00000000       0.00000000      -1.13078547       0.13837129       0.72640634
H        0.00000000       0.00000000       0.00000000       0.09541547       0.37915784       0.69495607
O        0.00000000       0.00000000       0.00000000      -0.27325770       0.48128486      -0.16992179
H        0.00000000       0.00000000       0.00000000       0.33766189       0.13741678      -0.70936501
H        0.00000000       0.00000000       0.00000000       0.26773334      -0.37535155       0.50110734
H        0.00000000       0.00000000       0.00000000      -0.39050415      -0.19389629      -0.14032625
7
Lattice="529.1772105638412 0.0 0.0 0.0 529.1772105638412 0.0 0.0 0.0 529.1772105638412" Properties=species:S:1:pos:R:3:forces_component_raw:R:3 ipi_comment="Step:       13380  Bead:       0 forces_component_raw{ase}  cell{ase}" pbc="T T T"
O        0.00000000       0.00000000       0.00000000       0.92000264       0.57892811      -1.12116242
H        0.00000000       0.00000000       0.00000000      -0.43696874      -0.14254186       1.14079213
H        0.00000000       0.00000000       0.00000000      -0.01318614      -0.27612966      -0.11677927
O        0.00000000       0.00000000       0.00000000       1.28637362       1.87466026      -0.20685378
H        0.00000000       0.00000000       0.00000000       0.03955263      -0.42358768       0.51787675
H        0.00000000       0.00000000       0.00000000      -0.16515851      -0.34289303       0.19007497
H        0.00000000       0.00000000       0.00000000      -1.63061524      -1.26843620      -0.40394831
7
Lattice="529.1772105638412 0.0 0.0 0.0 529.1772105638412 0.0 0.0 0.0 529.1772105638412" Properties=species:S:1:pos:R:3:forces_component_raw:R:3 ipi_comment="Step:       13400  Bead:       0 forces_component_raw{ase}  cell{ase}" pbc="T T T"
O        0.00000000       0.00000000       0.00000000       0.85958344       0.12436017       1.19636381
H        0.00000000       0.00000000       0.00000000      -0.17788285      -0.16039017      -0.27067912
H        0.00000000       0.00000000       0.00000000      -0.40398991      -0.26619372      -0.22106227
O        0.00000000       0.00000000       0.00000000       0.89535654       1.40128100       0.22069541
H        0.00000000       0.00000000       0.00000000       0.18562922       0.43319318      -0.68127775
H        0.00000000       0.00000000       0.00000000       0.33770642       0.13611436       0.25531769
H        0.00000000       0.00000000       0.00000000      -1.69640279      -1.66836477      -0.49935776
7
Lattice="529.1772105638412 0.0 0.0 0.0 529.1772105638412 0.0 0.0 0.0 529.1772105638412" Properties=species:S:1:pos:R:3:forces_component_raw:R:3 ipi_comment="Step:       13420  Bead:       0 forces_component_raw{ase}  cell{ase}" pbc="T T T"
O        0.00000000       0.00000000       0.00000000      -1.74549950       0.90255296      -0.04836782
H        0.00000000       0.00000000       0.00000000       1.22266519      -0.28044105       0.00222772
H        0.00000000       0.00000000       0.00000000       0.30621719      -0.65152925      -0.50600845
O        0.00000000       0.00000000       0.00000000       1.83380998       1.02646184       1.17777372
H        0.00000000       0.00000000       0.00000000      -0.41896546      -0.02626412       0.52183229
H        0.00000000       0.00000000       0.00000000      -0.26937175       0.14014548      -0.46103349
H        0.00000000       0.00000000       0.00000000      -0.92885548      -1.11092568      -0.68642402
7
Lattice="529.1772105638412 0.0 0.0 0.0 529.1772105638412 0.0 0.0 0.0 529.1772105638412" Properties=species:S:1:pos:R:3:forces_component_raw:R:3 ipi_comment="Step:       13440  Bead:       0 forces_component_raw{ase}  cell{ase}" pbc="T T T"
O        0.00000000       0.00000000       0.00000000      -1.50924719       2.11661292       0.60256553
H        0.00000000       0.00000000       0.00000000       1.08779454      -1.28407848      -0.46243179
H        0.00000000       0.00000000       0.00000000      -0.36039159      -0.48583388      -0.43817169
O        0.00000000       0.00000000       0.00000000       0.55597663      -0.60225386       0.87189019
H        0.00000000       0.00000000       0.00000000      -0.07930980      -0.21323046      -0.40663925
H        0.00000000       0.00000000       0.00000000       0.37981886       0.81224054      -0.53709996
H        0.00000000       0.00000000       0.00000000      -0.07464141      -0.34345698       0.36988717
7
Lattice="529.1772105638412 0.0 0.0 0.0 529.1772105638412 0.0 0.0 0.0 529.1772105638412" Properties=species:S:1:pos:R:3:forces_component_raw:R:3 ipi_comment="Step:       13460  Bead:       0 forces_component_raw{ase}  cell{ase}" pbc="T T T"
O        0.00000000       0.00000000       0.00000000      -1.44678665       1.08347357      -0.54537380
H        0.00000000       0.00000000       0.00000000       0.70134854      -0.40662763       0.32812435
H        0.00000000       0.00000000       0.00000000       0.14194283      -0.69500601      -0.16852248
O        0.00000000       0.00000000       0.00000000      -0.05748516      -2.48335815       1.89693511
H        0.00000000       0.00000000       0.00000000       0.29935736       0.68788260      -0.20715432
H        0.00000000       0.00000000       0.00000000       0.21496628       0.26476157      -0.95435178
H        0.00000000       0.00000000       0.00000000       0.14665675       1.54887414      -0.34965718
7
Lattice="529.1772105638412 0.0 0.0 0.0 529.1772105638412 0.0 0.0 0.0 529.1772105638412" Properties=species:S:1:pos:R:3:forces_component_raw:R:3 ipi_comment="Step:       13480  Bead:       0 forces_component_raw{ase}  cell{ase}" pbc="T T T"
O        0.00000000       0.00000000       0.00000000       0.93782062      -1.03590596       0.38505152
H        0.00000000       0.00000000       0.00000000      -0.50540435       0.87272608      -0.29266721
H        0.00000000       0.00000000       0.00000000      -0.27262127       0.22962159      -0.22377256
O        0.00000000       0.00000000       0.00000000      -1.84110952      -1.20994401      -1.38944221
H        0.00000000       0.00000000       0.00000000       0.42495000      -0.63298273       0.78248727
H        0.00000000       0.00000000       0.00000000       0.18484104       0.47040004      -0.07655537
H        0.00000000       0.00000000       0.00000000       1.07152343       1.30608511       0.81489843
7
Lattice="529.1772105638412 0.0 0.0 0.0 529.1772105638412 0.0 0.0 0.0 529.1772105638412" Properties=species:S:1:pos:R:3:forces_component_raw:R:3 ipi_comment="Step:       13500  Bead:       0 forces_component_raw{ase}  cell{ase}" pbc="T T T"
O        0.00000000       0.00000000       0.00000000       1.16949344      -2.22045088       0.46062142
H        0.00000000       0.00000000       0.00000000      -0.00997299       1.79608167       0.01441026
H        0.00000000       0.00000000       0.00000000      -0.06365259       0.06488034       0.20319921
O        0.00000000       0.00000000       0.00000000      -0.52307403      -1.19243861       0.55289936
H        0.00000000       0.00000000       0.00000000      -0.71055937       0.52166361      -0.72000986
H        0.00000000       0.00000000       0.00000000       0.00437035      -0.33818650       0.29207611
H        0.00000000       0.00000000       0.00000000       0.13339515       1.36845041      -0.80319643
7
Lattice="529.1772105638412 0.0 0.0 0.0 529.1772105638412 0.0 0.0 0.0 529.1772105638412" Properties=species:S:1:pos:R:3:forces_component_raw:R:3 ipi_comment="Step:       13520  Bead:       0 forces_component_raw{ase}  cell{ase}" pbc="T T T"
O        0.00000000       0.00000000       0.00000000       0.76320636      -0.61794341       1.28313947
H        0.00000000       0.00000000       0.00000000      -0.32310638       1.02799940      -0.72230983
H        0.00000000       0.00000000       0.00000000      -0.10579600      -0.07035664      -0.32296199
O        0.00000000       0.00000000       0.00000000      -2.40362788      -0.45866680      -1.98553014
H        0.00000000       0.00000000       0.00000000       1.30480600      -0.35954323       0.46701673
H        0.00000000       0.00000000       0.00000000       0.42185941      -0.16058341       1.58264339
H        0.00000000       0.00000000       0.00000000       0.34265867       0.63909400      -0.30199760
7
Lattice="529.1772105638412 0.0 0.0 0.0 529.1772105638412 0.0 0.0 0.0 529.1772105638412" Properties=species:S:1:pos:R:3:forces_component_raw:R:3 ipi_comment="Step:       13540  Bead:       0 forces_component_raw{ase}  cell{ase}" pbc="T T T"
O        0.00000000       0.00000000       0.00000000       0.41076660      -0.81121397       0.08444963
H        0.00000000       0.00000000       0.00000000       0.08682258       0.62554753      -0.08600646
H        0.00000000       0.00000000       0.00000000      -0.31899965      -0.45404965      -0.39335230
O        0.00000000       0.00000000       0.00000000       1.29444433       0.19485667      -2.29388381
H        0.00000000       0.00000000       0.00000000      -0.79564566       0.81191659       0.54963315
H        0.00000000       0.00000000       0.00000000      -0.56428278      -0.25976539       2.41035963
H        0.00000000       0.00000000       0.00000000      -0.11310534      -0.10729185      -0.27119964
7
Lattice="529.1772105638412 0.0 0.0 0.0 529.1772105638412 0.0 0.0 0.0 529.1772105638412" Properties=species:S:1:pos:R:3:forces_component_raw:R:3 ipi_comment="Step:       13560  Bead:       0 forces_component_raw{ase}  cell{ase}" pbc="T T T"
O        0.00000000       0.00000000       0.00000000      -1.81816435      -0.39077669       0.27763999
H        0.00000000       0.00000000       0.00000000      -0.20450716       0.40143305      -0.55813384
H        0.00000000       0.00000000       0.00000000       0.60907364       0.23906595       0.19206685
O        0.00000000       0.00000000       0.00000000       1.25699163       0.18154527      -2.26071024
H        0.00000000       0.00000000       0.00000000       0.60884988      -0.29291159      -0.57919169
H        0.00000000       0.00000000       0.00000000       0.23556423       0.44106740       2.21289969
H        0.00000000       0.00000000       0.00000000      -0.68780780      -0.57942343       0.71542943
7
Lattice="529.1772105638412 0.0 0.0 0.0 529.1772105638412 0.0 0.0 0.0 529.1772105638412" Properties=species:S:1:pos:R:3:forces_component_raw:R:3 ipi_comment="Step:       13580  Bead:       0 forces_component_raw{ase}  cell{ase}" pbc="T T T"
O        0.00000000       0.00000000       0.00000000      -0.92289376      -0.85019905      -0.45415241
H        0.00000000       0.00000000       0.00000000      -0.18467401       0.02402163      -0.32667428
H        0.00000000       0.00000000       0.00000000      -0.09426761       0.27987108      -0.00866728
O        0.00000000       0.00000000       0.00000000       3.21661449       0.76364261      -0.82270944
H        0.00000000       0.00000000       0.00000000      -0.35524607       0.71214688       0.59508258
H        0.00000000       0.00000000       0.00000000      -0.91285753      -0.15890676       0.96099669
H        0.00000000       0.00000000       0.00000000      -0.74667573      -0.77057648       0.05612415
7
Lattice="529.1772105638412 0.0 0.0 0.0 529.1772105638412 0.0 0.0 0.0 529.1772105638412" Properties=species:S:1:pos:R:3:forces_component_raw:R:3 ipi_comment="Step:       13600  Bead:       0 forces_component_raw{ase}  cell{ase}" pbc="T T T"
O        0.00000000       0.00000000       0.00000000       0.09535193       0.03669736      -0.22048599
H        0.00000000       0.00000000       0.00000000      -0.25092542      -0.28687319       0.08548792
H        0.00000000       0.00000000       0.00000000       0.21279989       0.69110924       0.17520705
O        0.00000000       0.00000000       0.00000000      -0.11871290       0.21486947       0.37327194
H        0.00000000       0.00000000       0.00000000      -0.11973216      -0.63201356      -0.28952307
H        0.00000000       0.00000000       0.00000000       0.49542952       0.05455190      -0.77948696
H        0.00000000       0.00000000       0.00000000      -0.31421083      -0.07834110       0.65552908
7
Lattice="529.1772105638412 0.0 0.0 0.0 529.1772105638412 0.0 0.0 0.0 529.1772105638412" Properties=species:S:1:pos:R:3:forces_component_raw:R:3 ipi_comment="Step:       13620  Bead:       0 forces_component_raw{ase}  cell{ase}" pbc="T T T"
O        0.00000000       0.00000000       0.00000000      -0.51434589       0.38438544      -0.45113081
H        0.00000000       0.00000000       0.00000000       1.01378679      -0.84099853       0.85604954
H        0.00000000       0.00000000       0.00000000       0.31809008       0.28278086       0.21278590
O        0.00000000       0.00000000       0.00000000      -1.75200010       0.36966977       1.60741520
H        0.00000000       0.00000000       0.00000000       1.16858351       0.44741804       0.11319513
H        0.00000000       0.00000000       0.00000000      -0.00201045      -0.55068636      -2.14636279
H        0.00000000       0.00000000       0.00000000      -0.23210394      -0.09256907      -0.19195226
7
Lattice="529.1772105638412 0.0 0.0 0.0 529.1772105638412 0.0 0.0 0.0 529.1772105638412" Properties=species:S:1:pos:R:3:forces_component_raw:R:3 ipi_comment="Step:       13640  Bead:       0 forces_component_raw{ase}  cell{ase}" pbc="T T T"
O        0.00000000       0.00000000       0.00000000       2.01545048       2.18772483       0.91982961
H        0.00000000       0.00000000       0.00000000       0.57181996      -1.67996145       0.63692707
H        0.00000000       0.00000000       0.00000000      -0.48136309      -0.04577005      -0.25443438
O        0.00000000       0.00000000       0.00000000       0.22131664       0.52085924       0.35041481
H        0.00000000       0.00000000       0.00000000      -1.62348295      -0.37701446      -0.45292801
H        0.00000000       0.00000000       0.00000000      -0.39152125      -0.48571155      -1.48930645
H        0.00000000       0.00000000       0.00000000      -0.31222001      -0.12012640       0.28949714
7
Lattice="529.1772105638412 0.0 0.0 0.0 529.1772105638412 0.0 0.0 0.0 529.1772105638412" Properties=species:S:1:pos:R:3:forces_component_raw:R:3 ipi_comment="Step:       13660  Bead:       0 forces_component_raw{ase}  cell{ase}" pbc="T T T"
O        0.00000000       0.00000000       0.00000000      -0.96118129       0.63129431      -0.57223928
H        0.00000000       0.00000000       0.00000000       0.65754235      -0.50055683       0.21263593
H        0.00000000       0.00000000       0.00000000      -0.12447403      -0.32815090       0.24649939
O        0.00000000       0.00000000       0.00000000      -0.20064789       0.36545569      -0.50692415
H        0.00000000       0.00000000       0.00000000       1.14504731       0.14403787      -0.24176621
H        0.00000000       0.00000000       0.00000000       0.56970358       0.03511814       0.01655936
H        0.00000000       0.00000000       0.00000000      -1.08598995      -0.34719837       0.84523493
7
Lattice="529.1772105638412 0.0 0.0 0.0 529.1772105638412 0.0 0.0 0.0 529.1772105638412" Properties=species:S:1:pos:R:3:forces_component_raw:R:3 ipi_comment="Step:       13680  Bead:       0 forces_component_raw{ase}  cell{ase}" pbc="T T T"
O        0.00000000       0.00000000       0.00000000      -0.58109248      -0.61683476      -1.90623010
H        0.00000000       0.00000000       0.00000000      -0.24862464       0.09364086       0.24544519
H        0.00000000       0.00000000       0.00000000      -0.05976104       0.23335880       0.51481331
O        0.00000000       0.00000000       0.00000000       2.62783862       0.38759133      -1.43434024
H        0.00000000       0.00000000       0.00000000      -0.38955587       0.18357949       0.86553562
H        0.00000000       0.00000000       0.00000000      -0.21904945       0.39424199       0.70214743
H        0.00000000       0.00000000       0.00000000      -1.12975526      -0.67557776       1.01262856
7
Lattice="529.1772105638412 0.0 0.0 0.0 529.1772105638412 0.0 0.0 0.0 529.1772105638412" Properties=species:S:1:pos:R:3:forces_component_raw:R:3 ipi_comment="Step:       13700  Bead:       0 forces_component_raw{ase}  cell{ase}" pbc="T T T"
O        0.00000000       0.00000000       0.00000000       0.08976504       0.40006203      -0.02781224
H        0.00000000       0.00000000       0.00000000       0.11802089      -0.23165298       0.09741654
H        0.00000000       0.00000000       0.00000000      -0.41757536      -0.22447714       0.20131519
O        0.00000000       0.00000000       0.00000000       1.41057062      -0.80333394      -1.60982705
H        0.00000000       0.00000000       0.00000000      -0.29692376      -0.02157920      -0.76987863
H        0.00000000       0.00000000       0.00000000      -0.08158088       1.16708470       1.49900341
H        0.00000000       0.00000000       0.00000000      -0.82227653      -0.28610367       0.60978288
7
Lattice="529.1772105638412 0.0 0.0 0.0 529.1772105638412 0.0 0.0 0.0 529.1772105638412" Properties=species:S:1:pos:R:3:forces_component_raw:R:3 ipi_comment="Step:       13720  Bead:       0 forces_component_raw{ase}  cell{ase}" pbc="T T T"
O        0.00000000       0.00000000       0.00000000      -1.23283208      -0.64284915       0.11155019
H        0.00000000       0.00000000       0.00000000      -0.32157371       0.43378934      -0.47991452
H        0.00000000       0.00000000       0.00000000       0.48262072       0.19782493      -0.12765345
O        0.00000000       0.00000000       0.00000000       2.02732420      -0.25673798      -1.58312822
H        0.00000000       0.00000000       0.00000000      -0.03351843      -0.27306026       0.15955019
H        0.00000000       0.00000000       0.00000000      -0.64685917       0.82685381       1.70513082
H        0.00000000       0.00000000       0.00000000      -0.27516162      -0.28582078       0.21446481
7
Lattice="529.1772105638412 0.0 0.0 0.0 529.1772105638412 0.0 0.0 0.0 529.1772105638412" Properties=species:S:1:pos:R:3:forces_component_raw:R:3 ipi_comment="Step:       13740  Bead:       0 forces_component_raw{ase}  cell{ase}" pbc="T T T"
O        0.00000000       0.00000000       0.00000000       1.14268399      -0.90926933       1.08244765
H        0.00000000       0.00000000       0.00000000      -0.79528678       0.55821270      -0.58112663
H        0.00000000       0.00000000       0.00000000      -0.20092899       0.25800151      -0.27567110
O        0.00000000       0.00000000       0.00000000      -2.05068922      -1.21242428      -1.03640294
H        0.00000000       0.00000000       0.00000000       0.73071617       0.21697104       0.27028218
H        0.00000000       0.00000000       0.00000000       0.10276383       0.72203720       0.98835814
H        0.00000000       0.00000000       0.00000000       1.07074082       0.36647111      -0.44788718
7
Lattice="529.1772105638412 0.0 0.0 0.0 529.1772105638412 0.0 0.0 0.0 529.1772105638412" Properties=species:S:1:pos:R:3:forces_component_raw:R:3 ipi_comment="Step:       13760  Bead:       0 forces_component_raw{ase}  cell{ase}" pbc="T T T"
O        0.00000000       0.00000000       0.00000000       1.29542935      -0.02382623       0.86795253
H        0.00000000       0.00000000       0.00000000      -0.21321994       0.75089955      -0.68550456
H        0.00000000       0.00000000       0.00000000       0.31056255      -0.21538127       0.30239338
O        0.00000000       0.00000000       0.00000000      -2.07760549      -0.53914225       1.33496023
H        0.00000000       0.00000000       0.00000000      -0.63028014      -0.39884150      -0.20391391
H        0.00000000       0.00000000       0.00000000      -0.12840796       0.09634326       0.21353903
H        0.00000000       0.00000000       0.00000000       1.44352174       0.32994855      -1.82942665
7
Lattice="529.1772105638412 0.0 0.0 0.0 529.1772105638412 0.0 0.0 0.0 529.1772105638412" Properties=species:S:1:pos:R:3:forces_component_raw:R:3 ipi_comment="Step:       13780  Bead:       0 forces_component_raw{ase}  cell{ase}" pbc="T T T"
O        0.00000000       0.00000000       0.00000000       1.42453182       1.02048815       0.02825016
H        0.00000000       0.00000000       0.00000000      -0.05962037      -0.54588419       0.24050662
H        0.00000000       0.00000000       0.00000000      -0.55187565      -0.30749106      -0.03548419
O        0.00000000       0.00000000       0.00000000      -2.56885005       0.28784722       1.97176242
H        0.00000000       0.00000000       0.00000000       0.83112252       0.13558936       0.36567426
H        0.00000000       0.00000000       0.00000000      -0.21320657      -0.99228889      -1.03653717
H        0.00000000       0.00000000       0.00000000       1.13789821       0.40173945      -1.53417206
7
Lattice="529.1772105638412 0.0 0.0 0.0 529.1772105638412 0.0 0.0 0.0 529.1772105638412" Properties=species:S:1:pos:R:3:forces_component_raw:R:3 ipi_comment="Step:       13800  Bead:       0 forces_component_raw{ase}  cell{ase}" pbc="T T T"
O        0.00000000       0.00000000       0.00000000      -1.14663399       0.69804382      -1.05615878
H        0.00000000       0.00000000       0.00000000       0.61927056      -0.07117221       0.22867663
H        0.00000000       0.00000000       0.00000000      -0.02379578      -0.95519835       0.53762686
O        0.00000000       0.00000000       0.00000000       0.76213092       1.67599106       2.76633812
H        0.00000000       0.00000000       0.00000000      -0.09115636       0.47950679       0.02869764
H        0.00000000       0.00000000       0.00000000      -0.65965611      -1.83150864      -1.59494543
H        0.00000000       0.00000000       0.00000000       0.53984082       0.00433740      -0.91023499
7
Lattice="529.1772105638412 0.0 0.0 0.0 529.1772105638412 0.0 0.0 0.0 529.1772105638412" Properties=species:S:1:pos:R:3:forces_component_raw:R:3 ipi_comment="Step:       13820  Bead:       0 forces_component_raw{ase}  cell{ase}" pbc="T T T"
O        0.00000000       0.00000000       0.00000000      -0.75606668       0.64582938      -0.67351175
H        0.00000000       0.00000000       0.00000000      -0.06893535      -0.53377414       0.23883146
H        0.00000000       0.00000000       0.00000000      -0.28442368      -0.12130460      -0.10560811
O        0.00000000       0.00000000       0.00000000       2.14143324       1.35328675       0.74153280
H        0.00000000       0.00000000       0.00000000      -0.11774573      -0.37593469       0.14941558
H        0.00000000       0.00000000       0.00000000      -0.24095561      -1.14095521      -1.07308316
H        0.00000000       0.00000000       0.00000000      -0.67330647       0.17285231       0.72242320
7
Lattice="529.1772105638412 0.0 0.0 0.0 529.1772105638412 0.0 0.0 0.0 529.1772105638412" Properties=species:S:1:pos:R:3:forces_component_raw:R:3 ipi_comment="Step:       13840  Bead:       0 forces_component_raw{ase}  cell{ase}" pbc="T T T"
O        0.00000000       0.00000000       0.00000000      -1.07048249      -1.95108700      -0.03261329
H        0.00000000       0.00000000       0.00000000      -0.07821818       0.79766280      -0.26364616
H        0.00000000       0.00000000       0.00000000       0.34403980       0.68526578       0.22419092
O        0.00000000       0.00000000       0.00000000       2.28246069      -0.36137599      -0.82221461
H        0.00000000       0.00000000       0.00000000       0.12193860       0.39828688      -0.24346727
H        0.00000000       0.00000000       0.00000000       0.05139568      -0.22867486      -0.12638834
H        0.00000000       0.00000000       0.00000000      -1.65113414       0.65992242       1.26413882
7
Lattice="529.1772105638412 0.0 0.0 0.0 529.1772105638412 0.0 0.0 0.0 529.1772105638412" Properties=species:S:1:pos:R:3:forces_component_raw:R:3 ipi_comment="Step:       13860  Bead:       0 forces_component_raw{ase}  cell{ase}" pbc="T T T"
O        0.00000000       0.00000000       0.00000000       0.46012318      -1.86426139       0.41458064
H        0.00000000       0.00000000       0.00000000      -0.94389844       0.83575225      -0.88904095
H        0.00000000       0.00000000       0.00000000       0.30885965       1.34645033       0.33507595
O        0.00000000       0.00000000       0.00000000       1.53086198      -1.50938559      -1.23238659
H        0.00000000       0.00000000       0.00000000       0.00575069      -0.53458440       0.15494359
H        0.00000000       0.00000000       0.00000000      -0.06673089       1.22397757       0.84752143
H        0.00000000       0.00000000       0.00000000      -1.29496622       0.50205124       0.36930585
7
Lattice="529.1772105638412 0.0 0.0 0.0 529.1772105638412 0.0 0.0 0.0 529.1772105638412" Properties=species:S:1:pos:R:3:forces_component_raw:R:3 ipi_comment="Step:       13880  Bead:       0 forces_component_raw{ase}  cell{ase}" pbc="T T T"
O        0.00000000       0.00000000       0.00000000      -0.15242472      -2.49009872      -0.35992488
H        0.00000000       0.00000000       0.00000000       0.24665234       1.51059902      -0.24052668
H        0.00000000       0.00000000       0.00000000       0.58970368       0.85207498       0.97966922
O        0.00000000       0.00000000       0.00000000      -1.49121964      -1.68622208      -1.04754710
H        0.00000000       0.00000000       0.00000000      -0.12854661       0.30254796      -0.17566706
H        0.00000000       0.00000000       0.00000000       0.52424216       1.26324678       0.62900275
H        0.00000000       0.00000000       0.00000000       0.41159272       0.24785212       0.21499375
7
Lattice="529.1772105638412 0.0 0.0 0.0 529.1772105638412 0.0 0.0 0.0 529.1772105638412" Properties=species:S:1:pos:R:3:forces_component_raw:R:3 ipi_comment="Step:       13900  Bead:       0 forces_component_raw{ase}  cell{ase}" pbc="T T T"
O        0.00000000       0.00000000       0.00000000       0.71681798      -0.54489279       1.43972338
H        0.00000000       0.00000000       0.00000000      -0.43920815       0.06108606      -1.01099086
H        0.00000000       0.00000000       0.00000000      -0.10207659       0.85393095      -0.39707631
O        0.00000000       0.00000000       0.00000000      -0.96573478      -0.23595634      -0.34980148
H        0.00000000       0.00000000       0.00000000      -0.11118897      -0.64536220      -0.02787985
H        0.00000000       0.00000000       0.00000000       0.06844574       1.49427128       0.29975501
H        0.00000000       0.00000000       0.00000000       0.83294487      -0.98307711       0.04627018
7
Lattice="529.1772105638412 0.0 0.0 0.0 529.1772105638412 0.0 0.0 0.0 529.1772105638412" Properties=species:S:1:pos:R:3:forces_component_raw:R:3 ipi_comment="Step:       13920  Bead:       0 forces_component_raw{ase}  cell{ase}" pbc="T T T"
O        0.00000000       0.00000000       0.00000000      -1.06742788       0.20143634      -1.32718063
H        0.00000000       0.00000000       0.00000000       0.73556674       0.08680129       0.83653903
H        0.00000000       0.00000000       0.00000000      -0.01443255      -0.74209923       0.17389883
O        0.00000000       0.00000000       0.00000000      -1.25378084      -0.16176587      -1.07541478
H        0.00000000       0.00000000       0.00000000       0.03229305       0.53027296       0.35049963
H        0.00000000       0.00000000       0.00000000       0.32519591       1.06390977       0.25135598
H        0.00000000       0.00000000       0.00000000       1.24258578      -0.97855532       0.79030186
7
Lattice="529.1772105638412 0.0 0.0 0.0 529.1772105638412 0.0 0.0 0.0 529.1772105638412" Properties=species:S:1:pos:R:3:forces_component_raw:R:3 ipi_comment="Step:       13940  Bead:       0 forces_component_raw{ase}  cell{ase}" pbc="T T T"
O        0.00000000       0.00000000       0.00000000       0.58636278       1.93740428       1.15802372
H        0.00000000       0.00000000       0.00000000       0.17946546      -1.51983965      -0.06362829
H        0.00000000       0.00000000       0.00000000      -0.62738526      -0.15947625      -1.13403821
O        0.00000000       0.00000000       0.00000000      -0.14168823       1.71160174      -1.35052586
H        0.00000000       0.00000000       0.00000000      -0.42121357      -0.62665051       0.01567765
H        0.00000000       0.00000000       0.00000000       0.08905135       0.09838787      -0.05540705
H        0.00000000       0.00000000       0.00000000       0.33540732      -1.44142747       1.42989791
7
Lattice="529.1772105638412 0.0 0.0 0.0 529.1772105638412 0.0 0.0 0.0 529.1772105638412" Properties=species:S:1:pos:R:3:forces_component_raw:R:3 ipi_comment="Step:       13960  Bead:       0 forces_component_raw{ase}  cell{ase}" pbc="T T T"
O        0.00000000       0.00000000       0.00000000      -1.76143325       1.57930756       0.05330324
H        0.00000000       0.00000000       0.00000000       1.03829861      -0.66556633       0.65870512
H        0.00000000       0.00000000       0.00000000       0.37216672      -1.20209754      -0.56119514
O        0.00000000       0.00000000       0.00000000       0.28574365       0.73068625      -0.53607428
H        0.00000000       0.00000000       0.00000000       0.31668568       0.63389671      -0.35312665
H        0.00000000       0.00000000       0.00000000      -0.32288939      -0.48581135      -0.12379257
H        0.00000000       0.00000000       0.00000000       0.07142794      -0.59041512       0.86218023
7
Lattice="529.1772105638412 0.0 0.0 0.0 529.1772105638412 0.0 0.0 0.0 529.1772105638412" Properties=species:S:1:pos:R:3:forces_component_raw:R:3 ipi_comment="Step:       13980  Bead:       0 forces_component_raw{ase}  cell{ase}" pbc="T T T"
O        0.00000000       0.00000000       0.00000000       0.49857527       1.04590750       0.84014315
H        0.00000000       0.00000000       0.00000000      -0.07386252      -0.58109439      -0.35829026
H        0.00000000       0.00000000       0.00000000      -0.44271007      -0.36878011      -0.48486346
O        0.00000000       0.00000000       0.00000000       0.46424508       1.10149217      -0.79081869
H        0.00000000       0.00000000       0.00000000       0.15215796      -0.37018910       0.51109111
H        0.00000000       0.00000000       0.00000000      -0.16487381      -0.79459274       0.11034435
H        0.00000000       0.00000000       0.00000000      -0.43353197      -0.03274333       0.17239386
7
Lattice="529.1772105638412 0.0 0.0 0.0 529.1772105638412 0.0 0.0 0.0 529.1772105638412" Properties=species:S:1:pos:R:3:forces_component_raw:R:3 ipi_comment="Step:       14000  Bead:       0 forces_component_raw{ase}  cell{ase}" pbc="T T T"
O        0.00000000       0.00000000       0.00000000       0.76039851      -1.38072229      -1.06180489
H        0.00000000       0.00000000       0.00000000      -0.89148838       1.02428925       0.80018228
H        0.00000000       0.00000000       0.00000000       0.55988652       0.21668294       0.43268791
O        0.00000000       0.00000000       0.00000000       0.92189646       0.61575055       0.50045210
H        0.00000000       0.00000000       0.00000000      -0.37399966       0.46142665      -0.23577794
H        0.00000000       0.00000000       0.00000000      -0.78899473      -1.00513160       0.01072812
H        0.00000000       0.00000000       0.00000000      -0.18769860       0.06770432      -0.44646776
7
Lattice="529.1772105638412 0.0 0.0 0.0 529.1772105638412 0.0 0.0 0.0 529.1772105638412" Properties=species:S:1:pos:R:3:forces_component_raw:R:3 ipi_comment="Step:       14020  Bead:       0 forces_component_raw{ase}  cell{ase}" pbc="T T T"
O        0.00000000       0.00000000       0.00000000       1.23757315      -0.70323128      -0.64657378
H        0.00000000       0.00000000       0.00000000      -0.68669057       0.14534766       0.04964238
H        0.00000000       0.00000000       0.00000000      -0.14260682       0.60005468       0.60781646
O        0.00000000       0.00000000       0.00000000      -0.46931052       0.26189885       0.05109832
H        0.00000000       0.00000000       0.00000000       0.31733304      -0.05328367       0.21081844
H        0.00000000       0.00000000       0.00000000      -0.15945503      -0.73508537       0.52776599
H        0.00000000       0.00000000       0.00000000      -0.09684344       0.48429921      -0.80056775
7
Lattice="529.1772105638412 0.0 0.0 0.0 529.1772105638412 0.0 0.0 0.0 529.1772105638412" Properties=species:S:1:pos:R:3:forces_component_raw:R:3 ipi_comment="Step:       14040  Bead:       0 forces_component_raw{ase}  cell{ase}" pbc="T T T"
O        0.00000000       0.00000000       0.00000000       0.02581444      -0.12682855      -0.34392130
H        0.00000000       0.00000000       0.00000000      -0.06612521       0.28950840       0.37453085
H        0.00000000       0.00000000       0.00000000       0.13903061       0.03013730      -0.06375170
O        0.00000000       0.00000000       0.00000000       1.37646914      -0.37679362       1.53604937
H        0.00000000       0.00000000       0.00000000       0.06807245      -0.20859861      -0.14423779
H        0.00000000       0.00000000       0.00000000      -0.54491115       0.13984785      -0.50941819
H        0.00000000       0.00000000       0.00000000      -0.99835038       0.25272721      -0.84925121
7
Lattice="529.1772105638412 0.0 0.0 0.0 529.1772105638412 0.0 0.0 0.0 529.1772105638412" Properties=species:S:1:pos:R:3:forces_component_raw:R:3 ipi_comment="Step:       14060  Bead:       0 forces_component_raw{ase}  cell{ase}" pbc="T T T"
O        0.00000000       0.00000000       0.00000000       0.63456071       0.35809225       0.31898049
H        0.00000000       0.00000000       0.00000000       0.37330592      -0.13819635      -0.12262544
H        0.00000000       0.00000000       0.00000000      -0.26309910      -0.06630543      -0.33893466
O        0.00000000       0.00000000       0.00000000      -1.07890117      -1.12184334       0.68255001
H        0.00000000       0.00000000       0.00000000      -0.45838413      -0.07444182       0.26260191
H        0.00000000       0.00000000       0.00000000       0.70172221       0.35526496      -0.23432243
H        0.00000000       0.00000000       0.00000000       0.09079564       0.68742967      -0.56824970
7
Lattice="529.1772105638412 0.0 0.0 0.0 529.1772105638412 0.0 0.0 0.0 529.1772105638412" Properties=species:S:1:pos:R:3:forces_component_raw:R:3 ipi_comment="Step:       14080  Bead:       0 forces_component_raw{ase}  cell{ase}" pbc="T T T"
O        0.00000000       0.00000000       0.00000000      -0.69584066       0.95266921       1.75425196
H        0.00000000       0.00000000       0.00000000       0.71467316      -0.39348084      -0.23587701
H        0.00000000       0.00000000       0.00000000       0.04842058      -0.37778241      -1.44732702
O        0.00000000       0.00000000       0.00000000      -0.39186284      -0.43314570       0.04228020
H        0.00000000       0.00000000       0.00000000       0.51592052      -0.02230751       0.08246098
H        0.00000000       0.00000000       0.00000000      -0.19090645       0.75533641      -0.71463204
H        0.00000000       0.00000000       0.00000000      -0.00040442      -0.48128915       0.51884294
7
Lattice="529.1772105638412 0.0 0.0 0.0 529.1772105638412 0.0 0.0 0.0 529.1772105638412" Properties=species:S:1:pos:R:3:forces_component_raw:R:3 ipi_comment="Step:       14100  Bead:       0 forces_component_raw{ase}  cell{ase}" pbc="T T T"
O        0.00000000       0.00000000       0.00000000      -0.16290543       0.16557232       1.71532274
H        0.00000000       0.00000000       0.00000000      -0.16416335      -0.13885826      -0.29649532
H        0.00000000       0.00000000       0.00000000      -0.04885891      -0.13970056      -1.56616855
O        0.00000000       0.00000000       0.00000000      -0.71058524       0.96854502       0.31483039
H        0.00000000       0.00000000       0.00000000      -0.17159432       0.11850062       0.29497606
H        0.00000000       0.00000000       0.00000000       0.57567716       0.02434009      -0.41203663
H        0.00000000       0.00000000       0.00000000       0.68242997      -0.99839926      -0.05042873
7
Lattice="529.1772105638412 0.0 0.0 0.0 529.1772105638412 0.0 0.0 0.0 529.1772105638412" Properties=species:S:1:pos:R:3:forces_component_raw:R:3 ipi_comment="Step:       14120  Bead:       0 forces_component_raw{ase}  cell{ase}" pbc="T T T"
O        0.00000000       0.00000000       0.00000000      -0.63623130      -0.39758492       0.62587142
H        0.00000000       0.00000000       0.00000000      -0.15041584       0.07404983       0.02752805
H        0.00000000       0.00000000       0.00000000       0.33468801      -0.04200107      -0.57768256
O        0.00000000       0.00000000       0.00000000       0.68165207       1.12325561       0.61311507
H        0.00000000       0.00000000       0.00000000      -0.20714518       0.28500676      -0.28152591
H        0.00000000       0.00000000       0.00000000       0.02754899       0.25601086      -0.33227652
H        0.00000000       0.00000000       0.00000000      -0.05009669      -1.29873693      -0.07502958
7
Lattice="529.1772105638412 0.0 0.0 0.0 529.1772105638412 0.0 0.0 0.0 529.1772105638412" Properties=species:S:1:pos:R:3:forces_component_raw:R:3 ipi_comment="Step:       14140  Bead:       0 forces_component_raw{ase}  cell{ase}" pbc="T T T"
O        0.00000000       0.00000000       0.00000000       0.87854415      -0.68017090      -0.40017313
H        0.00000000       0.00000000       0.00000000      -0.95195544       0.57457304       0.11643216
H        0.00000000       0.00000000       0.00000000      -0.09116435       0.13057382       0.21223906
O        0.00000000       0.00000000       0.00000000      -0.44376958       2.03229094      -0.63048512
H        0.00000000       0.00000000       0.00000000       0.13215716      -0.27971155       0.27682829
H        0.00000000       0.00000000       0.00000000      -0.16062692      -0.58506018       0.49626309
H        0.00000000       0.00000000       0.00000000       0.63681501      -1.19249511      -0.07110426
7
Lattice="529.1772105638412 0.0 0.0 0.0 529.1772105638412 0.0 0.0 0.0 529.1772105638412" Properties=species:S:1:pos:R:3:forces_component_raw:R:3 ipi_comment="Step:       14160  Bead:       0 forces_component_raw{ase}  cell{ase}" pbc="T T T"
O        0.00000000       0.00000000       0.00000000       0.45997736      -0.36730608      -0.15482961
H        0.00000000       0.00000000       0.00000000      -0.36837030       0.49387848       0.58986306
H        0.00000000       0.00000000       0.00000000       0.14062798      -0.13890033      -0.13248172
O        0.00000000       0.00000000       0.00000000      -0.12043577       1.02444577      -0.62944466
H        0.00000000       0.00000000       0.00000000       0.30145752       0.47476971      -0.43426085
H        0.00000000       0.00000000       0.00000000      -0.91191620      -1.24962306       0.51090902
H        0.00000000       0.00000000       0.00000000       0.49865955      -0.23726457       0.25024474
7
Lattice="529.1772105638412 0.0 0.0 0.0 529.1772105638412 0.0 0.0 0.0 529.1772105638412" Properties=species:S:1:pos:R:3:forces_component_raw:R:3 ipi_comment="Step:       14180  Bead:       0 forces_component_raw{ase}  cell{ase}" pbc="T T T"
O        0.00000000       0.00000000       0.00000000       0.55505490       0.69463843       0.15199016
H        0.00000000       0.00000000       0.00000000       0.64064413      -0.28003812      -0.18673447
H        0.00000000       0.00000000       0.00000000      -0.21820587      -0.14482245      -0.16108233
O        0.00000000       0.00000000       0.00000000      -0.13659209       0.99377752      -0.23656380
H        0.00000000       0.00000000       0.00000000      -0.54838860      -0.51092988       0.27644292
H        0.00000000       0.00000000       0.00000000      -0.22279544      -0.84706325       0.18303900
H        0.00000000       0.00000000       0.00000000      -0.06971706       0.09443766      -0.02709153
7
Lattice="529.1772105638412 0.0 0.0 0.0 529.1772105638412 0.0 0.0 0.0 529.1772105638412" Properties=species:S:1:pos:R:3:forces_component_raw:R:3 ipi_comment="Step:       14200  Bead:       0 forces_component_raw{ase}  cell{ase}" pbc="T T T"
O        0.00000000       0.00000000       0.00000000      -0.80678684       0.53528917       0.65619320
H        0.00000000       0.00000000       0.00000000       0.92808259      -0.71698362      -1.17246771
H        0.00000000       0.00000000       0.00000000      -0.15956490       0.14866632       0.45218951
O        0.00000000       0.00000000       0.00000000      -0.22771639      -0.48890838       0.43964300
H        0.00000000       0.00000000       0.00000000       0.39910179       0.42586714      -0.17865744
H        0.00000000       0.00000000       0.00000000      -0.27868417      -0.06434554      -0.07492372
H        0.00000000       0.00000000       0.00000000       0.14556778       0.16041476      -0.12197688
7
Lattice="529.1772105638412 0.0 0.0 0.0 529.1772105638412 0.0 0.0 0.0 529.1772105638412" Properties=species:S:1:pos:R:3:forces_component_raw:R:3 ipi_comment="Step:       14220  Bead:       0 forces_component_raw{ase}  cell{ase}" pbc="T T T"
O        0.00000000       0.00000000       0.00000000      -1.58929670       0.32299954       0.11254730
H        0.00000000       0.00000000       0.00000000       0.58992154      -0.32172376      -0.36911446
H        0.00000000       0.00000000       0.00000000       0.33381739      -0.01060789       0.33378989
O        0.00000000       0.00000000       0.00000000       1.34320236      -0.16668879      -0.49461997
H        0.00000000       0.00000000       0.00000000       0.06652239      -0.35606280       0.18200722
H        0.00000000       0.00000000       0.00000000      -0.16372123       0.14447767       0.41694450
H        0.00000000       0.00000000       0.00000000      -0.58044565       0.38760609      -0.18155444
7
Lattice="529.1772105638412 0.0 0.0 0.0 529.1772105638412 0.0 0.0 0.0 529.1772105638412" Properties=species:S:1:pos:R:3:forces_component_raw:R:3 ipi_comment="Step:       14240  Bead:       0 forces_component_raw{ase}  cell{ase}" pbc="T T T"
O        0.00000000       0.00000000       0.00000000      -0.27876183      -0.25033388      -0.84605140
H        0.00000000       0.00000000       0.00000000      -0.67643595       0.01113884       0.18087375
H        0.00000000       0.00000000       0.00000000       0.45580846       0.12248251       1.01371300
O        0.00000000       0.00000000       0.00000000       1.56228233      -0.42234844       0.49238199
H        0.00000000       0.00000000       0.00000000      -0.13894393       0.14212242      -0.23911014
H        0.00000000       0.00000000       0.00000000      -0.44927952       0.41469506      -0.14699186
H        0.00000000       0.00000000       0.00000000      -0.47466952      -0.01775652      -0.45481524
7
Lattice="529.1772105638412 0.0 0.0 0.0 529.1772105638412 0.0 0.0 0.0 529.1772105638412" Properties=species:S:1:pos:R:3:forces_component_raw:R:3 ipi_comment="Step:       14260  Bead:       0 forces_component_raw{ase}  cell{ase}" pbc="T T T"
O        0.00000000       0.00000000       0.00000000       0.70689035      -0.27143011      -1.15348554
H        0.00000000       0.00000000       0.00000000      -0.70171857       0.16340527       0.54498458
H        0.00000000       0.00000000       0.00000000      -0.17571144      -0.04901453       0.24917507
O        0.00000000       0.00000000       0.00000000      -0.34448546      -0.52118194      -0.17723793
H        0.00000000       0.00000000       0.00000000       0.13074011       0.18197361       0.49682126
H        0.00000000       0.00000000       0.00000000       0.37011331       0.03994083       0.20079449
H        0.00000000       0.00000000       0.00000000       0.01417160       0.45630688      -0.16105193
7
Lattice="529.1772105638412 0.0 0.0 0.0 529.1772105638412 0.0 0.0 0.0 529.1772105638412" Properties=species:S:1:pos:R:3:forces_component_raw:R:3 ipi_comment="Step:       14280  Bead:       0 forces_component_raw{ase}  cell{ase}" pbc="T T T"
O        0.00000000       0.00000000       0.00000000       1.77912736       0.77142298       0.04869139
H        0.00000000       0.00000000       0.00000000      -0.44046629      -0.10824390       0.79768795
H        0.00000000       0.00000000       0.00000000       0.08776125       0.01094889      -0.51822388
O        0.00000000       0.00000000       0.00000000      -0.23134458      -0.19729999       0.11897042
H        0.00000000       0.00000000       0.00000000      -1.00864494      -0.60203487      -0.31986845
H        0.00000000       0.00000000       0.00000000       0.02253145       0.12238768      -0.08103319
H        0.00000000       0.00000000       0.00000000      -0.20896450       0.00281924      -0.04622424
7
Lattice="529.1772105638412 0.0 0.0 0.0 529.1772105638412 0.0 0.0 0.0 529.1772105638412" Properties=species:S:1:pos:R:3:forces_component_raw:R:3 ipi_comment="Step:       14300  Bead:       0 forces_component_raw{ase}  cell{ase}" pbc="T T T"
O        0.00000000       0.00000000       0.00000000       1.37259174      -0.20086856      -0.18766101
H        0.00000000       0.00000000       0.00000000      -0.88670999      -0.13537070       1.08259273
H        0.00000000       0.00000000       0.00000000      -0.60921049       0.25319302      -0.78935409
O        0.00000000       0.00000000       0.00000000      -1.26102710      -1.29385162       0.35431948
H        0.00000000       0.00000000       0.00000000       0.67630345       0.47580958      -0.03578701
H        0.00000000       0.00000000       0.00000000       0.51951611       0.63912797      -0.42276988
H        0.00000000       0.00000000       0.00000000       0.18853650       0.26196042      -0.00134024
7
Lattice="529.1772105638412 0.0 0.0 0.0 529.1772105638412 0.0 0.0 0.0 529.1772105638412" Properties=species:S:1:pos:R:3:forces_component_raw:R:3 ipi_comment="Step:       14320  Bead:       0 forces_component_raw{ase}  cell{ase}" pbc="T T T"
O        0.00000000       0.00000000       0.00000000       0.02501504      -0.49877614       0.10243028
H        0.00000000       0.00000000       0.00000000      -0.09389630      -0.17955694       0.68047404
H        0.00000000       0.00000000       0.00000000      -0.54051072       0.44829625      -0.91444701
O        0.00000000       0.00000000       0.00000000      -0.02260974       0.83445478       0.02317513
H        0.00000000       0.00000000       0.00000000      -0.02164110      -0.02412580       0.08225404
H        0.00000000       0.00000000       0.00000000       0.05064948      -0.05114299      -0.03414616
H        0.00000000       0.00000000       0.00000000       0.60299313      -0.52914912       0.06025963
7
Lattice="529.1772105638412 0.0 0.0 0.0 529.1772105638412 0.0 0.0 0.0 529.1772105638412" Properties=species:S:1:pos:R:3:forces_component_raw:R:3 ipi_comment="Step:       14340  Bead:       0 forces_component_raw{ase}  cell{ase}" pbc="T T T"
O        0.00000000       0.00000000       0.00000000       0.83347929      -1.04514003       0.02655030
H        0.00000000       0.00000000       0.00000000      -0.30114067       0.19036865       0.17996573
H        0.00000000       0.00000000       0.00000000      -0.52303147       0.74710858      -0.22123554
O        0.00000000       0.00000000       0.00000000       0.23349524       2.00878668      -0.59244317
H        0.00000000       0.00000000       0.00000000      -0.46023178      -0.30707461      -0.08712576
H        0.00000000       0.00000000       0.00000000      -0.38710058      -0.40852875       0.59147716
H        0.00000000       0.00000000       0.00000000       0.60452998      -1.18552065       0.10281140
7
Lattice="529.1772105638412 0.0 0.0 0.0 529.1772105638412 0.0 0.0 0.0 529.1772105638412" Properties=species:S:1:pos:R:3:forces_component_raw:R:3 ipi_comment="Step:       14360  Bead:       0 forces_component_raw{ase}  cell{ase}" pbc="T T T"
O        0.00000000       0.00000000       0.00000000      -0.59827852      -1.29783893       0.14318214
H        0.00000000       0.00000000       0.00000000       0.15869200       0.14818256      -0.13076556
H        0.00000000       0.00000000       0.00000000      -0.34685284       0.64642996      -0.30510905
O        0.00000000       0.00000000       0.00000000      -0.33241564       1.96410060       0.06283253
H        0.00000000       0.00000000       0.00000000       0.01920192      -0.06544319       0.33726537
H        0.00000000       0.00000000       0.00000000       0.13614282      -0.11618310       0.01580796
H        0.00000000       0.00000000       0.00000000       0.96351016      -1.27924764      -0.12321341
7
Lattice="529.1772105638412 0.0 0.0 0.0 529.1772105638412 0.0 0.0 0.0 529.1772105638412" Properties=species:S:1:pos:R:3:forces_component_raw:R:3 ipi_comment="Step:       14380  Bead:       0 forces_component_raw{ase}  cell{ase}" pbc="T T T"
O        0.00000000       0.00000000       0.00000000      -0.62264353      -0.20383221       0.40251660
H        0.00000000       0.00000000       0.00000000       0.16732964       0.16502717      -0.55795896
H        0.00000000       0.00000000       0.00000000       0.18715300      -0.14736968       0.20231104
O        0.00000000       0.00000000       0.00000000      -0.33882168       0.55210221       0.17196852
H        0.00000000       0.00000000       0.00000000      -0.12820140       0.12900096      -0.13539693
H        0.00000000       0.00000000       0.00000000      -0.06708178       0.35209957      -0.23532622
H        0.00000000       0.00000000       0.00000000       0.80226577      -0.84702814       0.15188591
7
Lattice="529.1772105638412 0.0 0.0 0.0 529.1772105638412 0.0 0.0 0.0 529.1772105638412" Properties=species:S:1:pos:R:3:forces_component_raw:R:3 ipi_comment="Step:       14400  Bead:       0 forces_component_raw{ase}  cell{ase}" pbc="T T T"
O        0.00000000       0.00000000       0.00000000      -0.60906273       0.51879406      -0.19422898
H        0.00000000       0.00000000       0.00000000       0.45237559       0.22289822      -0.32921150
H        0.00000000       0.00000000       0.00000000       0.86232060      -0.33106563       0.44517583
O        0.00000000       0.00000000       0.00000000      -1.98758054      -0.95181012      -0.08294524
H        0.00000000       0.00000000       0.00000000       0.64988911       0.26209387       0.30093968
H        0.00000000       0.00000000       0.00000000       0.17779499       0.42700660      -0.20327519
H        0.00000000       0.00000000       0.00000000       0.45426288      -0.14791682       0.06354539
7
Lattice="529.1772105638412 0.0 0.0 0.0 529.1772105638412 0.0 0.0 0.0 529.1772105638412" Properties=species:S:1:pos:R:3:forces_component_raw:R:3 ipi_comment="Step:       14420  Bead:       0 forces_component_raw{ase}  cell{ase}" pbc="T T T"
O        0.00000000       0.00000000       0.00000000       0.48790446       1.38511348      -0.74089098
H        0.00000000       0.00000000       0.00000000      -0.05055086      -0.06327993      -0.06018183
H        0.00000000       0.00000000       0.00000000       1.28511703      -0.52477962       0.93475014
O        0.00000000       0.00000000       0.00000000       0.46074867      -1.11046613      -0.05007641
H        0.00000000       0.00000000       0.00000000      -1.09802413      -0.41430220      -0.28248313
H        0.00000000       0.00000000       0.00000000      -0.20832056       0.26668283      -0.10248998
H        0.00000000       0.00000000       0.00000000      -0.87687451       0.46103162       0.30137217
7
Lattice="529.1772105638412 0.0 0.0 0.0 529.1772105638412 0.0 0.0 0.0 529.1772105638412" Properties=species:S:1:pos:R:3:forces_component_raw:R:3 ipi_comment="Step:       14440  Bead:       0 forces_component_raw{ase}  cell{ase}" pbc="T T T"
O        0.00000000       0.00000000       0.00000000      -1.01872707       0.34196869      -0.64369345
H        0.00000000       0.00000000       0.00000000       0.22804380      -0.16495852       0.25711006
H        0.00000000       0.00000000       0.00000000       0.80789936      -0.17138702       0.35025144
O        0.00000000       0.00000000       0.00000000      -0.74908018      -1.65194953      -0.46491009
H        0.00000000       0.00000000       0.00000000       1.23613274       0.39470574       0.17793843
H        0.00000000       0.00000000       0.00000000       0.18192476       0.69500584      -0.11647609
H        0.00000000       0.00000000       0.00000000      -0.68619353       0.55661494       0.43977970
7
Lattice="529.1772105638412 0.0 0.0 0.0 529.1772105638412 0.0 0.0 0.0 529.1772105638412" Properties=species:S:1:pos:R:3:forces_component_raw:R:3 ipi_comment="Step:       14460  Bead:       0 forces_component_raw{ase}  cell{ase}" pbc="T T T"
O        0.00000000       0.00000000       0.00000000      -0.50125259      -0.46100146       0.43587193
H        0.00000000       0.00000000       0.00000000       0.03996278      -0.00564088      -0.22245356
H        0.00000000       0.00000000       0.00000000      -0.47037000       0.00294003      -0.36351335
O        0.00000000       0.00000000       0.00000000       1.57327271      -0.61581803      -0.45306969
H        0.00000000       0.00000000       0.00000000      -0.16028404       0.07309943       0.19547759
H        0.00000000       0.00000000       0.00000000       0.13637583       0.63337851      -0.07787700
H        0.00000000       0.00000000       0.00000000      -0.61770493       0.37304232       0.48556405
7
Lattice="529.1772105638412 0.0 0.0 0.0 529.1772105638412 0.0 0.0 0.0 529.1772105638412" Properties=species:S:1:pos:R:3:forces_component_raw:R:3 ipi_comment="Step:       14480  Bead:       0 forces_component_raw{ase}  cell{ase}" pbc="T T T"
O        0.00000000       0.00000000       0.00000000      -0.15218121      -0.56174988       1.40264750
H        0.00000000       0.00000000       0.00000000      -0.01763006      -0.19513977      -0.15643910
H        0.00000000       0.00000000       0.00000000      -0.29177761       0.48888311      -0.89713812
O        0.00000000       0.00000000       0.00000000       0.53626955       0.11057793       0.36589885
H        0.00000000       0.00000000       0.00000000      -0.17570722      -0.15375038      -0.42465121
H        0.00000000       0.00000000       0.00000000       0.28431803       0.02724653      -0.23872539
H        0.00000000       0.00000000       0.00000000      -0.18329141       0.28393245      -0.05159253
7
Lattice="529.1772105638412 0.0 0.0 0.0 529.1772105638412 0.0 0.0 0.0 529.1772105638412" Properties=species:S:1:pos:R:3:forces_component_raw:R:3 ipi_comment="Step:       14500  Bead:       0 forces_component_raw{ase}  cell{ase}" pbc="T T T"
O        0.00000000       0.00000000       0.00000000      -0.15585935      -0.99536848       0.70926547
H        0.00000000       0.00000000       0.00000000       0.41963142       0.22685704      -0.91165865
H        0.00000000       0.00000000       0.00000000      -0.55329305       0.49398351      -0.21835467
O        0.00000000       0.00000000       0.00000000       0.65672112       1.20812655      -0.62630165
H        0.00000000       0.00000000       0.00000000      -0.07004394       0.11370713       0.68576580
H        0.00000000       0.00000000       0.00000000      -0.32968718      -0.70639074       0.33996964
H        0.00000000       0.00000000       0.00000000       0.03253099      -0.34091508       0.02131385
7
Lattice="529.1772105638412 0.0 0.0 0.0 529.1772105638412 0.0 0.0 0.0 529.1772105638412" Properties=species:S:1:pos:R:3:forces_component_raw:R:3 ipi_comment="Step:       14520  Bead:       0 forces_component_raw{ase}  cell{ase}" pbc="T T T"
O        0.00000000       0.00000000       0.00000000      -0.21487978       0.14745687       1.63390363
H        0.00000000       0.00000000       0.00000000       0.35261533      -0.23251027      -0.77210349
H        0.00000000       0.00000000       0.00000000       0.44295144       0.26791024      -0.15729743
O        0.00000000       0.00000000       0.00000000      -1.58241141       0.64855373       0.42310831
H        0.00000000       0.00000000       0.00000000       0.32872978       0.12297975      -0.93148565
H        0.00000000       0.00000000       0.00000000       0.16473620      -0.94595736       0.11000793
H        0.00000000       0.00000000       0.00000000       0.50825846      -0.00843292      -0.30613342
7
Lattice="529.1772105638412 0.0 0.0 0.0 529.1772105638412 0.0 0.0 0.0 529.1772105638412" Properties=species:S:1:pos:R:3:forces_component_raw:R:3 ipi_comment="Step:       14540  Bead:       0 forces_component_raw{ase}  cell{ase}" pbc="T T T"
O        0.00000000       0.00000000       0.00000000       0.26852852       0.42897725      -1.33051682
H        0.00000000       0.00000000       0.00000000       0.33756870       0.13873427      -0.15285522
H        0.00000000       0.00000000       0.00000000       0.55551946       0.04552203       0.87413949
O        0.00000000       0.00000000       0.00000000      -0.78601927       0.02553338       0.07951279
H        0.00000000       0.00000000       0.00000000      -0.61114562      -0.24096261       0.65192127
H        0.00000000       0.00000000       0.00000000      -0.29466683       0.10966304       0.09926929
H        0.00000000       0.00000000       0.00000000       0.53021503      -0.50746727      -0.22147074
7
Lattice="529.1772105638412 0.0 0.0 0.0 529.1772105638412 0.0 0.0 0.0 529.1772105638412" Properties=species:S:1:pos:R:3:forces_component_raw:R:3 ipi_comment="Step:       14560  Bead:       0 forces_component_raw{ase}  cell{ase}" pbc="T T T"
O        0.00000000       0.00000000       0.00000000      -0.56031847      -0.58177865      -0.79637408
H        0.00000000       0.00000000       0.00000000      -0.14612001       0.02969080       0.23841557
H        0.00000000       0.00000000       0.00000000       0.66297722       0.59932768       0.76470816
O        0.00000000       0.00000000       0.00000000      -0.83932501      -0.09902227       0.96781749
H        0.00000000       0.00000000       0.00000000       0.39880565      -0.08783045      -0.48066717
H        0.00000000       0.00000000       0.00000000       0.02720964       0.58407366      -0.23851270
H        0.00000000       0.00000000       0.00000000       0.45677108      -0.44446072      -0.45538712
7
Lattice="529.1772105638412 0.0 0.0 0.0 529.1772105638412 0.0 0.0 0.0 529.1772105638412" Properties=species:S:1:pos:R:3:forces_component_raw:R:3 ipi_comment="Step:       14580  Bead:       0 forces_component_raw{ase}  cell{ase}" pbc="T T T"
O        0.00000000       0.00000000       0.00000000      -0.30232862      -0.57452434      -0.51753163
H        0.00000000       0.00000000       0.00000000      -0.20888321       0.01131584       0.24414134
H        0.00000000       0.00000000       0.00000000      -0.03172821       0.14712915       0.15401295
O        0.00000000       0.00000000       0.00000000       0.46937034      -1.32467914       0.78515518
H        0.00000000       0.00000000       0.00000000      -0.29866687       0.21688819       0.30382472
H        0.00000000       0.00000000       0.00000000      -0.00044909       1.59319854      -0.79451251
H        0.00000000       0.00000000       0.00000000       0.37268561      -0.06932813      -0.17509012
7
Lattice="529.1772105638412 0.0 0.0 0.0 529.1772105638412 0.0 0.0 0.0 529.1772105638412" Properties=species:S:1:pos:R:3:forces_component_raw:R:3 ipi_comment="Step:       14600  Bead:       0 forces_component_raw{ase}  cell{ase}" pbc="T T T"
O        0.00000000       0.00000000       0.00000000      -0.34663370       0.12394341       0.26226395
H        0.00000000       0.00000000       0.00000000      -0.32263020      -0.06326374       0.12775472
H        0.00000000       0.00000000       0.00000000       0.13031450      -0.13737404      -0.23998615
O        0.00000000       0.00000000       0.00000000       0.61878872      -1.53547371       0.40571237
H        0.00000000       0.00000000       0.00000000       0.18394169      -0.40586233       0.05290578
H        0.00000000       0.00000000       0.00000000       0.28415987       1.70788217      -0.81098461
H        0.00000000       0.00000000       0.00000000      -0.54794085       0.31014836       0.20233396
7
Lattice="529.1772105638412 0.0 0.0 0.0 529.1772105638412 0.0 0.0 0.0 529.1772105638412" Properties=species:S:1:pos:R:3:forces_component_raw:R:3 ipi_comment="Step:       14620  Bead:       0 forces_component_raw{ase}  cell{ase}" pbc="T T T"
O        0.00000000       0.00000000       0.00000000       0.16612563       0.68765342       0.22540626
H        0.00000000       0.00000000       0.00000000      -0.03597920      -0.18608026       0.00178254
H        0.00000000       0.00000000       0.00000000      -0.05995117      -0.63773656      -0.23345965
O        0.00000000       0.00000000       0.00000000       1.34135926      -3.16117264       0.37022549
H        0.00000000       0.00000000       0.00000000       0.05998851       0.59952718       0.03662834
H        0.00000000       0.00000000       0.00000000       0.04620028       1.49519372      -0.81549382
H        0.00000000       0.00000000       0.00000000      -1.51774347       1.20261514       0.41491094
7
Lattice="529.1772105638412 0.0 0.0 0.0 529.1772105638412 0.0 0.0 0.0 529.1772105638412" Properties=species:S:1:pos:R:3:forces_component_raw:R:3 ipi_comment="Step:       14640  Bead:       0 forces_component_raw{ase}  cell{ase}" pbc="T T T"
O        0.00000000       0.00000000       0.00000000       0.26146615       0.40309849       1.09318376
H        0.00000000       0.00000000       0.00000000       0.48027182       0.49926382      -0.56885934
H        0.00000000       0.00000000       0.00000000       0.19292025      -0.32364905      -0.69348455
O        0.00000000       0.00000000       0.00000000       0.35514972      -0.96790719       0.16238436
H        0.00000000       0.00000000       0.00000000      -0.39804137      -0.53106785       0.16891120
H        0.00000000       0.00000000       0.00000000       0.07416075       0.49426293      -0.26497734
H        0.00000000       0.00000000       0.00000000      -0.96592725       0.42599890       0.10284195
7
Lattice="529.1772105638412 0.0 0.0 0.0 529.1772105638412 0.0 0.0 0.0 529.1772105638412" Properties=species:S:1:pos:R:3:forces_component_raw:R:3 ipi_comment="Step:       14660  Bead:       0 forces_component_raw{ase}  cell{ase}" pbc="T T T"
O        0.00000000       0.00000000       0.00000000       0.71141970       0.91521818      -0.24067044
H        0.00000000       0.00000000       0.00000000      -0.29786390      -0.50290835       0.09049213
H        0.00000000       0.00000000       0.00000000      -0.32819474      -0.39232153       0.37571636
O        0.00000000       0.00000000       0.00000000      -0.33612424       0.85446161      -0.57289904
H        0.00000000       0.00000000       0.00000000       0.14050873       0.21314572      -0.48666310
H        0.00000000       0.00000000       0.00000000      -0.24132295      -0.93767321       0.72931516
H        0.00000000       0.00000000       0.00000000       0.35157737      -0.14992228       0.10470900
7
Lattice="529.1772105638412 0.0 0.0 0.0 529.1772105638412 0.0 0.0 0.0 529.1772105638412" Properties=species:S:1:pos:R:3:forces_component_raw:R:3 ipi_comment="Step:       14680  Bead:       0 forces_component_raw{ase}  cell{ase}" pbc="T T T"
O        0.00000000       0.00000000       0.00000000      -1.30246294      -1.51545835      -1.24364043
H        0.00000000       0.00000000       0.00000000       0.49608684       0.41972506       0.50903988
H        0.00000000       0.00000000       0.00000000       0.27592662       0.81392318       0.23067150
O        0.00000000       0.00000000       0.00000000      -0.53322876       2.02251339      -1.47822392
H        0.00000000       0.00000000       0.00000000       0.14926280      -0.04445766       0.70592153
H        0.00000000       0.00000000       0.00000000      -0.09131208      -1.21462763       1.08362174
H        0.00000000       0.00000000       0.00000000       1.00572753      -0.48161778       0.19260982
7
Lattice="529.1772105638412 0.0 0.0 0.0 529.1772105638412 0.0 0.0 0.0 529.1772105638412" Properties=species:S:1:pos:R:3:forces_component_raw:R:3 ipi_comment="Step:       14700  Bead:       0 forces_component_raw{ase}  cell{ase}" pbc="T T T"
O        0.00000000       0.00000000       0.00000000       0.13175225      -0.27613580      -0.04277366
H        0.00000000       0.00000000       0.00000000      -0.48320294      -0.31935901      -0.25773862
H        0.00000000       0.00000000       0.00000000       0.25416684       0.69471824       0.85691226
O        0.00000000       0.00000000       0.00000000      -0.37608510       0.99530965      -0.28634265
H        0.00000000       0.00000000       0.00000000      -0.33362696      -0.47293109      -0.69491279
H        0.00000000       0.00000000       0.00000000       0.05253103      -0.34051991       0.31416762
H        0.00000000       0.00000000       0.00000000       0.75446493      -0.28108212       0.11068779
7
Lattice="529.1772105638412 0.0 0.0 0.0 529.1772105638412 0.0 0.0 0.0 529.1772105638412" Properties=species:S:1:pos:R:3:forces_component_raw:R:3 ipi_comment="Step:       14720  Bead:       0 forces_component_raw{ase}  cell{ase}" pbc="T T T"
O        0.00000000       0.00000000       0.00000000      -1.52025962      -1.73223400      -0.26554620
H        0.00000000       0.00000000       0.00000000       0.58134014       0.54119140      -0.38165388
H        0.00000000       0.00000000       0.00000000       0.23166260       0.68556905       0.21972477
O        0.00000000       0.00000000       0.00000000       0.62177873       0.21866861      -0.37236649
H        0.00000000       0.00000000       0.00000000       0.02311495       0.23744558       0.77246523
H        0.00000000       0.00000000       0.00000000       0.07083534       0.15309066      -0.08798406
H        0.00000000       0.00000000       0.00000000      -0.00847224      -0.10373133       0.11536041
7
Lattice="529.1772105638412 0.0 0.0 0.0 529.1772105638412 0.0 0.0 0.0 529.1772105638412" Properties=species:S:1:pos:R:3:forces_component_raw:R:3 ipi_comment="Step:       14740  Bead:       0 forces_component_raw{ase}  cell{ase}" pbc="T T T"
O        0.00000000       0.00000000       0.00000000      -0.31061077       0.03586793       1.69420886
H        0.00000000       0.00000000       0.00000000       0.11286086       0.13763791      -1.46808172
H        0.00000000       0.00000000       0.00000000       0.03115022      -0.24975330       0.21211797
O        0.00000000       0.00000000       0.00000000       0.50651574      -0.96979940       0.70112014
H        0.00000000       0.00000000       0.00000000       0.07149025       0.05777352      -0.51092863
H        0.00000000       0.00000000       0.00000000       0.25068793       0.43281201      -0.53153658
H        0.00000000       0.00000000       0.00000000      -0.66209424       0.55546129      -0.09689990
7
Lattice="529.1772105638412 0.0 0.0 0.0 529.1772105638412 0.0 0.0 0.0 529.1772105638412" Properties=species:S:1:pos:R:3:forces_component_raw:R:3 ipi_comment="Step:       14760  Bead:       0 forces_component_raw{ase}  cell{ase}" pbc="T T T"
O        0.00000000       0.00000000       0.00000000      -0.39771506      -0.71278620       1.50154043
H        0.00000000       0.00000000       0.00000000       0.47736541       0.75913358      -1.09812880
H        0.00000000       0.00000000       0.00000000       0.01352361      -0.00957939      -0.51855826
O        0.00000000       0.00000000       0.00000000       0.88941252      -1.20117712       0.34979975
H        0.00000000       0.00000000       0.00000000       0.15146497       0.00095057       0.21286106
H        0.00000000       0.00000000       0.00000000       0.13811490       0.33404219      -0.34188581
H        0.00000000       0.00000000       0.00000000      -1.27216625       0.82941628      -0.10562843
7
Lattice="529.1772105638412 0.0 0.0 0.0 529.1772105638412 0.0 0.0 0.0 529.1772105638412" Properties=species:S:1:pos:R:3:forces_component_raw:R:3 ipi_comment="Step:       14780  Bead:       0 forces_component_raw{ase}  cell{ase}" pbc="T T T"
O        0.00000000       0.00000000       0.00000000       1.05445242       0.30958080       0.29400429
H        0.00000000       0.00000000       0.00000000      -0.06088956       0.01446495      -0.39957145
H        0.00000000       0.00000000       0.00000000      -0.32569718      -0.20665731      -0.00349408
O        0.00000000       0.00000000       0.00000000      -0.29894042      -0.09913409      -0.07613944
H        0.00000000       0.00000000       0.00000000      -0.47048012       0.17309959      -0.00353223
H        0.00000000       0.00000000       0.00000000      -0.03390969      -0.24302262       0.18100828
H        0.00000000       0.00000000       0.00000000       0.13546459       0.05166850       0.00772461
7
Lattice="529.1772105638412 0.0 0.0 0.0 529.1772105638412 0.0 0.0 0.0 529.1772105638412" Properties=species:S:1:pos:R:3:forces_component_raw:R:3 ipi_comment="Step:       14800  Bead:       0 forces_component_raw{ase}  cell{ase}" pbc="T T T"
O        0.00000000       0.00000000       0.00000000       0.71345622       0.60271573       0.29776523
H        0.00000000       0.00000000       0.00000000      -0.06916162      -0.12419558       0.77117115
H        0.00000000       0.00000000       0.00000000      -0.64849925      -0.24261485      -0.82049805
O        0.00000000       0.00000000       0.00000000      -1.22010637       2.15081740      -1.07261873
H        0.00000000       0.00000000       0.00000000       0.51965588      -0.58848488      -0.35123339
H        0.00000000       0.00000000       0.00000000      -0.12481293      -0.83798051       0.95814854
H        0.00000000       0.00000000       0.00000000       0.82946801      -0.96025741       0.21726519
7
Lattice="529.1772105638412 0.0 0.0 0.0 529.1772105638412 0.0 0.0 0.0 529.1772105638412" Properties=species:S:1:pos:R:3:forces_component_raw:R:3 ipi_comment="Step:       14820  Bead:       0 forces_component_raw{ase}  cell{ase}" pbc="T T T"
O        0.00000000       0.00000000       0.00000000       1.70087195       0.82824332      -0.37453359
H        0.00000000       0.00000000       0.00000000      -0.41078407      -0.39165163       1.16155815
H        0.00000000       0.00000000       0.00000000      -1.19627643      -0.52353698      -0.88380408
O        0.00000000       0.00000000       0.00000000      -0.68107319       1.68242765      -0.90401137
H        0.00000000       0.00000000       0.00000000      -0.39236590       0.33245725       0.05731006
H        0.00000000       0.00000000       0.00000000      -0.41670165      -0.77171672       0.84068763
H        0.00000000       0.00000000       0.00000000       1.39632917      -1.15622282       0.10279325
7
Lattice="529.1772105638412 0.0 0.0 0.0 529.1772105638412 0.0 0.0 0.0 529.1772105638412" Properties=species:S:1:pos:R:3:forces_component_raw:R:3 ipi_comment="Step:       14840  Bead:       0 forces_component_raw{ase}  cell{ase}" pbc="T T T"
O        0.00000000       0.00000000       0.00000000       0.75353575       0.43916568      -0.50259256
H        0.00000000       0.00000000       0.00000000      -0.30993846      -0.29730380       1.37984872
H        0.00000000       0.00000000       0.00000000      -0.54804766      -0.09994014      -0.93226850
O        0.00000000       0.00000000       0.00000000      -1.05613280       1.37684489       0.14595753
H        0.00000000       0.00000000       0.00000000       0.26257601      -0.32596275       0.20353915
H        0.00000000       0.00000000       0.00000000       0.27764905      -0.34070563       0.13489702
H        0.00000000       0.00000000       0.00000000       0.62035811      -0.75209832      -0.42938137
7
Lattice="529.1772105638412 0.0 0.0 0.0 529.1772105638412 0.0 0.0 0.0 529.1772105638412" Properties=species:S:1:pos:R:3:forces_component_raw:R:3 ipi_comment="Step:       14860  Bead:       0 forces_component_raw{ase}  cell{ase}" pbc="T T T"
O        0.00000000       0.00000000       0.00000000       0.71670962       0.30813938      -0.47016946
H        0.00000000       0.00000000       0.00000000      -0.63054586      -0.31029102       0.52446890
H        0.00000000       0.00000000       0.00000000       0.13598168       0.03435279       0.16248310
O        0.00000000       0.00000000       0.00000000       0.40561467      -0.57635087       0.60011554
H        0.00000000       0.00000000       0.00000000      -0.14728315       0.27800125      -0.49412316
H        0.00000000       0.00000000       0.00000000      -0.44549888       0.37596512      -0.40834493
H        0.00000000       0.00000000       0.00000000      -0.03497800      -0.10981679       0.08557017
7
Lattice="529.1772105638412 0.0 0.0 0.0 529.1772105638412 0.0 0.0 0.0 529.1772105638412" Properties=species:S:1:pos:R:3:forces_component_raw:R:3 ipi_comment="Step:       14880  Bead:       0 forces_component_raw{ase}  cell{ase}" pbc="T T T"
O        0.00000000       0.00000000       0.00000000      -0.13399661      -0.02889620      -0.89614558
H        0.00000000       0.00000000       0.00000000       0.10396796       0.02408194      -0.02878332
H        0.00000000       0.00000000       0.00000000       0.15689823       0.05091443       0.36777556
O        0.00000000       0.00000000       0.00000000       0.54366636      -2.33418656       0.37945262
H        0.00000000       0.00000000       0.00000000       0.20716861      -0.01056106       0.93991792
H        0.00000000       0.00000000       0.00000000       0.13179809       1.27487731      -1.16190768
H        0.00000000       0.00000000       0.00000000      -1.00950241       1.02377010       0.39969051
7
Lattice="529.1772105638412 0.0 0.0 0.0 529.1772105638412 0.0 0.0 0.0 529.1772105638412" Properties=species:S:1:pos:R:3:forces_component_raw:R:3 ipi_comment="Step:       14900  Bead:       0 forces_component_raw{ase}  cell{ase}" pbc="T T T"
O        0.00000000       0.00000000       0.00000000      -0.28311962       0.43395975       1.44259620
H        0.00000000       0.00000000       0.00000000       0.41520366      -0.23222408      -0.89108956
H        0.00000000       0.00000000       0.00000000       0.56302452       0.15654224      -0.07804960
O        0.00000000       0.00000000       0.00000000       0.86818648      -2.04601956       0.59031171
H        0.00000000       0.00000000       0.00000000      -0.43712691      -0.15337470      -0.89880407
H        0.00000000       0.00000000       0.00000000      -0.14552888       0.97715873      -0.65228689
H        0.00000000       0.00000000       0.00000000      -0.98063928       0.86395765       0.48732239
7
Lattice="529.1772105638412 0.0 0.0 0.0 529.1772105638412 0.0 0.0 0.0 529.1772105638412" Properties=species:S:1:pos:R:3:forces_component_raw:R:3 ipi_comment="Step:       14920  Bead:       0 forces_component_raw{ase}  cell{ase}" pbc="T T T"
O        0.00000000       0.00000000       0.00000000      -0.02428409       0.79247666       1.15174783
H        0.00000000       0.00000000       0.00000000       0.76795590      -0.54750931      -1.72972119
H        0.00000000       0.00000000       0.00000000      -0.43695051      -0.16527796       0.02821583
O        0.00000000       0.00000000       0.00000000      -0.14307046      -0.90622390      -0.29825285
H        0.00000000       0.00000000       0.00000000       0.37148431      -0.20500881       0.60747445
H        0.00000000       0.00000000       0.00000000       0.33059233       0.12314329      -0.10977291
H        0.00000000       0.00000000       0.00000000      -0.86572755       0.90839994       0.35030890
7
Lattice="529.1772105638412 0.0 0.0 0.0 529.1772105638412 0.0 0.0 0.0 529.1772105638412" Properties=species:S:1:pos:R:3:forces_component_raw:R:3 ipi_comment="Step:       14940  Bead:       0 forces_component_raw{ase}  cell{ase}" pbc="T T T"
O        0.00000000       0.00000000       0.00000000      -0.73142719       0.10478041       0.62335402
H        0.00000000       0.00000000       0.00000000       0.22675857      -0.41302973      -0.97882408
H        0.00000000       0.00000000       0.00000000       0.35834599       0.03773589       0.51853556
O        0.00000000       0.00000000       0.00000000       0.46840268       1.16296172      -0.18348034
H        0.00000000       0.00000000       0.00000000      -0.33995062       0.42310095      -0.39487293
H        0.00000000       0.00000000       0.00000000      -0.38508213      -0.68853927       0.52667004
H        0.00000000       0.00000000       0.00000000       0.40295279      -0.62700999      -0.11138249
7
Lattice="529.1772105638412 0.0 0.0 0.0 529.1772105638412 0.0 0.0 0.0 529.1772105638412" Properties=species:S:1:pos:R:3:forces_component_raw:R:3 ipi_comment="Step:       14960  Bead:       0 forces_component_raw{ase}  cell{ase}" pbc="T T T"
O        0.00000000       0.00000000       0.00000000      -1.03852773      -0.30765009      -0.90119815
H        0.00000000       0.00000000       0.00000000      -0.08136328       0.21611221       0.31835821
H        0.00000000       0.00000000       0.00000000       0.72441995       0.02307036       0.70215291
O        0.00000000       0.00000000       0.00000000      -0.62690032       1.93819058      -0.19241746
H        0.00000000       0.00000000       0.00000000       0.31054434      -0.23269966      -0.10069482
H        0.00000000       0.00000000       0.00000000       0.01143629      -0.74986696       0.44633025
H        0.00000000       0.00000000       0.00000000       0.70039064      -0.88715649      -0.27253103
7
Lattice="529.1772105638412 0.0 0.0 0.0 529.1772105638412 0.0 0.0 0.0 529.1772105638412" Properties=species:S:1:pos:R:3:forces_component_raw:R:3 ipi_comment="Step:       14980  Bead:       0 forces_component_raw{ase}  cell{ase}" pbc="T T T"
O        0.00000000       0.00000000       0.00000000       0.02253109      -0.53088951      -1.15740538
H        0.00000000       0.00000000       0.00000000      -0.55325902       0.48585332       0.93138182
H        0.00000000       0.00000000       0.00000000       0.20772284      -0.00358132       0.33352035
O        0.00000000       0.00000000       0.00000000       0.00673398       0.81445652      -0.13815419
H        0.00000000       0.00000000       0.00000000      -0.03817151       0.10136180       0.00966538
H        0.00000000       0.00000000       0.00000000      -0.25711367       0.08657137       0.19929326
H        0.00000000       0.00000000       0.00000000       0.61155629      -0.95377213      -0.17830122
7
Lattice="529.1772105638412 0.0 0.0 0.0 529.1772105638412 0.0 0.0 0.0 529.1772105638412" Properties=species:S:1:pos:R:3:forces_component_raw:R:3 ipi_comment="Step:       15000  Bead:       0 forces_component_raw{ase}  cell{ase}" pbc="T T T"
O        0.00000000       0.00000000       0.00000000       0.53760439      -0.09447713      -0.04625143
H        0.00000000       0.00000000       0.00000000      -0.28223401       0.22379096       0.51812786
H        0.00000000       0.00000000       0.00000000       0.11247237       0.00802608      -0.45669007
O        0.00000000       0.00000000       0.00000000      -1.01644492      -0.63418859       0.90586376
H        0.00000000       0.00000000       0.00000000      -0.29708132      -0.01576921       0.13615260
H        0.00000000       0.00000000       0.00000000       0.32943857       0.62475824      -0.51144028
H        0.00000000       0.00000000       0.00000000       0.61624479      -0.11214048      -0.54576248
7
Lattice="529.1772105638412 0.0 0.0 0.0 529.1772105638412 0.0 0.0 0.0 529.1772105638412" Properties=species:S:1:pos:R:3:forces_component_raw:R:3 ipi_comment="Step:       15020  Bead:       0 forces_component_raw{ase}  cell{ase}" pbc="T T T"
O        0.00000000       0.00000000       0.00000000       0.45310578      -0.30224767       1.33335352
H        0.00000000       0.00000000       0.00000000       0.00184505       0.19749394       0.02953202
H        0.00000000       0.00000000       0.00000000      -0.66611791       0.25119105      -1.45384860
O        0.00000000       0.00000000       0.00000000      -0.11626060      -0.84347701      -0.24767859
H        0.00000000       0.00000000       0.00000000       0.45400995      -0.34114295       0.28969804
H        0.00000000       0.00000000       0.00000000      -0.02755257       1.41528249      -0.02795941
H        0.00000000       0.00000000       0.00000000      -0.09902953      -0.37709987       0.07690290
7
Lattice="529.1772105638412 0.0 0.0 0.0 529.1772105638412 0.0 0.0 0.0 529.1772105638412" Properties=species:S:1:pos:R:3:forces_component_raw:R:3 ipi_comment="Step:       15040  Bead:       0 forces_component_raw{ase}  cell{ase}" pbc="T T T"
O        0.00000000       0.00000000       0.00000000       0.27388424       0.03822400       1.63317013
H        0.00000000       0.00000000       0.00000000       0.06024403      -0.15501046      -0.30087286
H        0.00000000       0.00000000       0.00000000      -0.44720653       0.08923045      -0.90060687
O        0.00000000       0.00000000       0.00000000      -0.07507610      -1.48068035      -0.06636111
H        0.00000000       0.00000000       0.00000000      -0.01884237       0.06937338      -0.43383354
H        0.00000000       0.00000000       0.00000000       0.33896095       0.91714615      -0.22133005
H        0.00000000       0.00000000       0.00000000      -0.13196449       0.52171683       0.28983435
7
Lattice="529.1772105638412 0.0 0.0 0.0 529.1772105638412 0.0 0.0 0.0 529.1772105638412" Properties=species:S:1:pos:R:3:forces_component_raw:R:3 ipi_comment="Step:       15060  Bead:       0 forces_component_raw{ase}  cell{ase}" pbc="T T T"
O        0.00000000       0.00000000       0.00000000       0.46206236       0.09514219      -0.32630789
H        0.00000000       0.00000000       0.00000000      -0.07903841       0.04469427       0.07494283
H        0.00000000       0.00000000       0.00000000      -0.33410192      -0.08590439       0.17149989
O        0.00000000       0.00000000       0.00000000       0.80960536      -1.59956456      -0.79286301
H        0.00000000       0.00000000       0.00000000      -0.42701507      -0.24491134       0.05195197
H        0.00000000       0.00000000       0.00000000       0.41531959       0.60372150      -0.09612061
H        0.00000000       0.00000000       0.00000000      -0.84683198       1.18682218       0.91689682
7
Lattice="529.1772105638412 0.0 0.0 0.0 529.1772105638412 0.0 0.0 0.0 529.1772105638412" Properties=species:S:1:pos:R:3:forces_component_raw:R:3 ipi_comment="Step:       15080  Bead:       0 forces_component_raw{ase}  cell{ase}" pbc="T T T"
O        0.00000000       0.00000000       0.00000000      -0.28959394      -0.49949291      -0.08383884
H        0.00000000       0.00000000       0.00000000       0.05474718       0.07550442       0.02434582
H        0.00000000       0.00000000       0.00000000       0.06212349       0.17660818       0.17749541
O        0.00000000       0.00000000       0.00000000       0.05438507      -0.92147756      -0.50582177
H        0.00000000       0.00000000       0.00000000       0.94755626       0.53106278      -0.42640349
H        0.00000000       0.00000000       0.00000000      -0.24380830      -0.63282669       0.09108596
H        0.00000000       0.00000000       0.00000000      -0.58540970       1.27062166       0.72313678
7
Lattice="529.1772105638412 0.0 0.0 0.0 529.1772105638412 0.0 0.0 0.0 529.1772105638412" Properties=species:S:1:pos:R:3:forces_component_raw:R:3 ipi_comment="Step:       15100  Bead:       0 forces_component_raw{ase}  cell{ase}" pbc="T T T"
O        0.00000000       0.00000000       0.00000000      -0.31619778      -0.49692348      -0.27935118
H        0.00000000       0.00000000       0.00000000      -0.23895261       0.37532732       0.57615429
H        0.00000000       0.00000000       0.00000000      -0.09343629       0.04241100       0.01854506
O        0.00000000       0.00000000       0.00000000       1.74755395       1.48442507      -0.94911719
H        0.00000000       0.00000000       0.00000000       0.00900738      -0.22888176       0.00115199
H        0.00000000       0.00000000       0.00000000      -0.69952172      -0.95931983       0.39146283
H        0.00000000       0.00000000       0.00000000      -0.40845263      -0.21703827       0.24115415
7
Lattice="529.1772105638412 0.0 0.0 0.0 529.1772105638412 0.0 0.0 0.0 529.1772105638412" Properties=species:S:1:pos:R:3:forces_component_raw:R:3 ipi_comment="Step:       15120  Bead:       0 forces_component_raw{ase}  cell{ase}" pbc="T T T"
O        0.00000000       0.00000000       0.00000000       0.19981021      -0.20663050      -1.45537258
H        0.00000000       0.00000000       0.00000000       0.11331196       0.32674626       0.78485406
H        0.00000000       0.00000000       0.00000000      -0.05096424      -0.19103193       0.05974996
O        0.00000000       0.00000000       0.00000000      -0.68220353       1.55754495       0.36092144
H        0.00000000       0.00000000       0.00000000      -0.23436388       0.02589490       0.85838837
H        0.00000000       0.00000000       0.00000000      -0.10276695      -1.30893684       0.02429937
H        0.00000000       0.00000000       0.00000000       0.75717640      -0.20358694      -0.63284075
7
Lattice="529.1772105638412 0.0 0.0 0.0 529.1772105638412 0.0 0.0 0.0 529.1772105638412" Properties=species:S:1:pos:R:3:forces_component_raw:R:3 ipi_comment="Step:       15140  Bead:       0 forces_component_raw{ase}  cell{ase}" pbc="T T T"
O        0.00000000       0.00000000       0.00000000      -0.09782285       0.38738450       0.31437317
H        0.00000000       0.00000000       0.00000000      -0.20588869      -0.06406367       0.23455787
H        0.00000000       0.00000000       0.00000000       0.24448277      -0.20798367      -0.10423630
O        0.00000000       0.00000000       0.00000000       0.43018478       1.75226486      -0.48811904
H        0.00000000       0.00000000       0.00000000      -0.09624906       0.04414560      -0.58535862
H        0.00000000       0.00000000       0.00000000      -0.55826259      -0.64058733       0.73946369
H        0.00000000       0.00000000       0.00000000       0.28355557      -1.27116013      -0.11068070
7
Lattice="529.1772105638412 0.0 0.0 0.0 529.1772105638412 0.0 0.0 0.0 529.1772105638412" Properties=species:S:1:pos:R:3:forces_component_raw:R:3 ipi_comment="Step:       15160  Bead:       0 forces_component_raw{ase}  cell{ase}" pbc="T T T"
O        0.00000000       0.00000000       0.00000000       0.06367779       0.23020378       0.75500703
H        0.00000000       0.00000000       0.00000000       0.05856387      -0.42559207      -0.87458182
H        0.00000000       0.00000000       0.00000000       0.08499454       0.07898444       0.08567613
O        0.00000000       0.00000000       0.00000000      -1.12649858      -0.41869789       1.29159677
H        0.00000000       0.00000000       0.00000000       0.07314435       0.55820871      -0.08013974
H        0.00000000       0.00000000       0.00000000       0.18001741       0.42950446      -0.39179060
H        0.00000000       0.00000000       0.00000000       0.66610062      -0.45261130      -0.78576780
7
Lattice="529.1772105638412 0.0 0.0 0.0 529.1772105638412 0.0 0.0 0.0 529.1772105638412" Properties=species:S:1:pos:R:3:forces_component_raw:R:3 ipi_comment="Step:       15180  Bead:       0 forces_component_raw{ase}  cell{ase}" pbc="T T T"
O        0.00000000       0.00000000       0.00000000      -0.26992172       1.10300458       1.46250511
H        0.00000000       0.00000000       0.00000000       0.16905569      -0.52952349      -1.70286966
H        0.00000000       0.00000000       0.00000000       0.38468659      -0.09865046      -0.23481381
O        0.00000000       0.00000000       0.00000000      -0.10581189      -1.24103773       0.45345241
H        0.00000000       0.00000000       0.00000000       0.07269765      -0.67704928       0.30672291
H        0.00000000       0.00000000       0.00000000       0.07663439       1.07989908      -0.70155674
H        0.00000000       0.00000000       0.00000000      -0.32734072       0.36335701       0.41655982
7
Lattice="529.1772105638412 0.0 0.0 0.0 529.1772105638412 0.0 0.0 0.0 529.1772105638412" Properties=species:S:1:pos:R:3:forces_component_raw:R:3 ipi_comment="Step:       15200  Bead:       0 forces_component_raw{ase}  cell{ase}" pbc="T T T"
O        0.00000000       0.00000000       0.00000000      -0.14319971       0.53363466       0.80137354
H        0.00000000       0.00000000       0.00000000       0.09893157      -0.57841325      -0.87401980
H        0.00000000       0.00000000       0.00000000      -0.00424714      -0.12660337       0.20822024
O        0.00000000       0.00000000       0.00000000       1.01643157      -2.53526640      -1.12007666
H        0.00000000       0.00000000       0.00000000      -0.17984331       0.65685856      -0.31142944
H        0.00000000       0.00000000       0.00000000      -0.58363932       1.51034725       0.02622664
H        0.00000000       0.00000000       0.00000000      -0.20443359       0.53944254       1.26970530
7
Lattice="529.1772105638412 0.0 0.0 0.0 529.1772105638412 0.0 0.0 0.0 529.1772105638412" Properties=species:S:1:pos:R:3:forces_component_raw:R:3 ipi_comment="Step:       15220  Bead:       0 forces_component_raw{ase}  cell{ase}" pbc="T T T"
O        0.00000000       0.00000000       0.00000000       0.18362325       0.78374541       0.05959205
H        0.00000000       0.00000000       0.00000000      -0.16779289       0.07560095       0.00641835
H        0.00000000       0.00000000       0.00000000      -0.22158220      -0.71455902       0.02329122
O        0.00000000       0.00000000       0.00000000       0.16301873      -1.87189973      -0.30715004
H        0.00000000       0.00000000       0.00000000      -0.02294934      -0.34220335       0.31659836
H        0.00000000       0.00000000       0.00000000       0.08922614       1.55234146      -0.46674934
H        0.00000000       0.00000000       0.00000000      -0.02354361       0.51697439       0.36799944
7
Lattice="529.1772105638412 0.0 0.0 0.0 529.1772105638412 0.0 0.0 0.0 529.1772105638412" Properties=species:S:1:pos:R:3:forces_component_raw:R:3 ipi_comment="Step:       15240  Bead:       0 forces_component_raw{ase}  cell{ase}" pbc="T T T"
O        0.00000000       0.00000000       0.00000000       0.11979109      -1.22559142      -0.73144734
H        0.00000000       0.00000000       0.00000000      -0.10511810       1.25075472       0.79929102
H        0.00000000       0.00000000       0.00000000      -0.49360228      -0.52119702       0.20795944
O        0.00000000       0.00000000       0.00000000       0.40996701      -0.23304248      -0.66637230
H        0.00000000       0.00000000       0.00000000      -0.03922307       0.23696543       0.26572278
H        0.00000000       0.00000000       0.00000000       0.00001518       0.70171011       0.23499662
H        0.00000000       0.00000000       0.00000000       0.10817028      -0.20959938      -0.11015007
7
Lattice="529.1772105638412 0.0 0.0 0.0 529.1772105638412 0.0 0.0 0.0 529.1772105638412" Properties=species:S:1:pos:R:3:forces_component_raw:R:3 ipi_comment="Step:       15260  Bead:       0 forces_component_raw{ase}  cell{ase}" pbc="T T T"
O        0.00000000       0.00000000       0.00000000       0.32533658      -1.47690642      -0.86922383
H        0.00000000       0.00000000       0.00000000      -0.25210109       1.32047177       1.03909183
H        0.00000000       0.00000000       0.00000000      -0.17310227      -0.02269161       0.15267003
O        0.00000000       0.00000000       0.00000000      -0.22317445       2.09975481       1.32836008
H        0.00000000       0.00000000       0.00000000       0.29634693      -0.02529293      -0.67577261
H        0.00000000       0.00000000       0.00000000      -0.35890657      -1.65921724      -0.31222859
H        0.00000000       0.00000000       0.00000000       0.38560087      -0.23611850      -0.66289687
7
Lattice="529.1772105638412 0.0 0.0 0.0 529.1772105638412 0.0 0.0 0.0 529.1772105638412" Properties=species:S:1:pos:R:3:forces_component_raw:R:3 ipi_comment="Step:       15280  Bead:       0 forces_component_raw{ase}  cell{ase}" pbc="T T T"
O        0.00000000       0.00000000       0.00000000       0.63970441       0.02783170      -1.13808036
H        0.00000000       0.00000000       0.00000000      -0.13902228       0.57707381       0.44901034
H        0.00000000       0.00000000       0.00000000       0.14722379      -0.20609468       0.05970617
O        0.00000000       0.00000000       0.00000000       0.96647150       2.22903777       0.83064425
H        0.00000000       0.00000000       0.00000000      -0.27183056      -0.22573346       0.51007420
H        0.00000000       0.00000000       0.00000000      -1.35854411      -1.76718641      -0.00665832
H        0.00000000       0.00000000       0.00000000       0.01599714      -0.63492870      -0.70469630
7
Lattice="529.1772105638412 0.0 0.0 0.0 529.1772105638412 0.0 0.0 0.0 529.1772105638412" Properties=species:S:1:pos:R:3:forces_component_raw:R:3 ipi_comment="Step:       15300  Bead:       0 forces_component_raw{ase}  cell{ase}" pbc="T T T"
O        0.00000000       0.00000000       0.00000000      -0.06821695      -0.05324310       0.45517379
H        0.00000000       0.00000000       0.00000000       0.17267078      -0.16967273      -0.22124451
H        0.00000000       0.00000000       0.00000000       0.01754484       0.11749002      -0.18079767
O        0.00000000       0.00000000       0.00000000      -1.10891617      -0.38528147       0.98926497
H        0.00000000       0.00000000       0.00000000       0.12964544       0.36821726      -0.25892270
H        0.00000000       0.00000000       0.00000000       0.21466520      -0.12197620      -0.41172686
H        0.00000000       0.00000000       0.00000000       0.64260668       0.24446625      -0.37174702
7
Lattice="529.1772105638412 0.0 0.0 0.0 529.1772105638412 0.0 0.0 0.0 529.1772105638412" Properties=species:S:1:pos:R:3:forces_component_raw:R:3 ipi_comment="Step:       15320  Bead:       0 forces_component_raw{ase}  cell{ase}" pbc="T T T"
O        0.00000000       0.00000000       0.00000000      -1.29573179       1.41172386       1.13428736
H        0.00000000       0.00000000       0.00000000       0.99847889      -1.54664755      -1.02223766
H        0.00000000       0.00000000       0.00000000       0.08748633       0.13498783       0.20064783
O        0.00000000       0.00000000       0.00000000       0.45268208      -0.32294107      -1.38113129
H        0.00000000       0.00000000       0.00000000      -0.29695085      -0.08365284      -0.12351175
H        0.00000000       0.00000000       0.00000000       0.41481251       0.59912008       0.59058404
H        0.00000000       0.00000000       0.00000000      -0.36077714      -0.19259056       0.60136157
7
Lattice="529.1772105638412 0.0 0.0 0.0 529.1772105638412 0.0 0.0 0.0 529.1772105638412" Properties=species:S:1:pos:R:3:forces_component_raw:R:3 ipi_comment="Step:       15340  Bead:       0 forces_component_raw{ase}  cell{ase}" pbc="T T T"
O        0.00000000       0.00000000       0.00000000      -2.17345739       1.72722817       1.98010779
H        0.00000000       0.00000000       0.00000000       1.03501046      -1.66241074      -1.53741670
H        0.00000000       0.00000000       0.00000000       0.44043857      -0.26227242      -0.15575723
O        0.00000000       0.00000000       0.00000000      -1.23138213      -1.16631961       0.04671633
H        0.00000000       0.00000000       0.00000000       0.38378623       0.02026074       0.06941444
H        0.00000000       0.00000000       0.00000000       1.05108500       0.83907414      -0.77842367
H        0.00000000       0.00000000       0.00000000       0.49451941       0.50443983       0.37535885
7
Lattice="529.1772105638412 0.0 0.0 0.0 529.1772105638412 0.0 0.0 0.0 529.1772105638412" Properties=species:S:1:pos:R:3:forces_component_raw:R:3 ipi_comment="Step:       15360  Bead:       0 forces_component_raw{ase}  cell{ase}" pbc="T T T"
O        0.00000000       0.00000000       0.00000000      -0.20683831       0.52486712       0.04904842
H        0.00000000       0.00000000       0.00000000       0.27271479      -0.62416834      -0.13282242
H        0.00000000       0.00000000       0.00000000      -0.27689946      -0.09384248       0.42454735
O        0.00000000       0.00000000       0.00000000      -0.11736003      -0.28659803      -0.99850548
H        0.00000000       0.00000000       0.00000000      -0.30733383      -0.16411145       0.06745763
H        0.00000000       0.00000000       0.00000000       1.06965304       1.01930797       0.22832918
H        0.00000000       0.00000000       0.00000000      -0.43393606      -0.37545478       0.36194545
7
Lattice="529.1772105638412 0.0 0.0 0.0 529.1772105638412 0.0 0.0 0.0 529.1772105638412" Properties=species:S:1:pos:R:3:forces_component_raw:R:3 ipi_comment="Step:       15380  Bead:       0 forces_component_raw{ase}  cell{ase}" pbc="T T T"
O        0.00000000       0.00000000       0.00000000      -0.29765046      -0.93430782       0.58719361
H        0.00000000       0.00000000       0.00000000      -0.27565897       0.70238024       0.10186660
H        0.00000000       0.00000000       0.00000000      -0.01098624       0.10055408      -0.35214734
O        0.00000000       0.00000000       0.00000000      -0.79302001      -0.44791490       0.97384137
H        0.00000000       0.00000000       0.00000000       0.62163079      -0.13023007      -0.06865209
H        0.00000000       0.00000000       0.00000000       0.59885407       0.58601976      -0.64252138
H        0.00000000       0.00000000       0.00000000       0.15683073       0.12349868      -0.59958065
7
Lattice="529.1772105638412 0.0 0.0 0.0 529.1772105638412 0.0 0.0 0.0 529.1772105638412" Properties=species:S:1:pos:R:3:forces_component_raw:R:3 ipi_comment="Step:       15400  Bead:       0 forces_component_raw{ase}  cell{ase}" pbc="T T T"
O        0.00000000       0.00000000       0.00000000       1.64235378      -1.83337856      -1.76552296
H        0.00000000       0.00000000       0.00000000      -0.74405402       1.38586974       1.30134988
H        0.00000000       0.00000000       0.00000000      -0.28561616       0.38230538      -0.00040603
O        0.00000000       0.00000000       0.00000000       0.12457556      -0.00515452       0.84606910
H        0.00000000       0.00000000       0.00000000      -0.27715614       0.36532211       0.04110928
H        0.00000000       0.00000000       0.00000000       0.05301520       0.05738148       0.47003889
H        0.00000000       0.00000000       0.00000000      -0.51311833      -0.35234577      -0.89263809
7
Lattice="529.1772105638412 0.0 0.0 0.0 529.1772105638412 0.0 0.0 0.0 529.1772105638412" Properties=species:S:1:pos:R:3:forces_component_raw:R:3 ipi_comment="Step:       15420  Bead:       0 forces_component_raw{ase}  cell{ase}" pbc="T T T"
O        0.00000000       0.00000000       0.00000000       0.97271478      -0.62418777      -1.03349507
H        0.00000000       0.00000000       0.00000000      -0.83360785       1.27992237       1.16297651
H        0.00000000       0.00000000       0.00000000       0.23719025       0.16881710      -0.76236594
O        0.00000000       0.00000000       0.00000000       0.06546062      -0.49827772       1.65157140
H        0.00000000       0.00000000       0.00000000       0.18789861      -0.67681033       0.08025350
H        0.00000000       0.00000000       0.00000000      -0.56987322      -0.30510372      -0.32078081
H        0.00000000       0.00000000       0.00000000      -0.05978316       0.65564001      -0.77815962
7
Lattice="529.1772105638412 0.0 0.0 0.0 529.1772105638412 0.0 0.0 0.0 529.1772105638412" Properties=species:S:1:pos:R:3:forces_component_raw:R:3 ipi_comment="Step:       15440  Bead:       0 forces_component_raw{ase}  cell{ase}" pbc="T T T"
O        0.00000000       0.00000000       0.00000000       0.53884608      -0.31378958      -1.43011952
H        0.00000000       0.00000000       0.00000000      -0.30920181       0.39991647       1.19804609
H        0.00000000       0.00000000       0.00000000       0.01352036      -0.11098340       0.27637214
O        0.00000000       0.00000000       0.00000000       1.11514044       0.07084474       0.09975699
H        0.00000000       0.00000000       0.00000000      -0.23097578       0.65982044      -0.46304500
H        0.00000000       0.00000000       0.00000000      -0.67649329      -0.61617512       0.35584369
H        0.00000000       0.00000000       0.00000000      -0.45083609      -0.08963363      -0.03685433
7
Lattice="529.1772105638412 0.0 0.0 0.0 529.1772105638412 0.0 0.0 0.0 529.1772105638412" Properties=species:S:1:pos:R:3:forces_component_raw:R:3 ipi_comment="Step:       15460  Bead:       0 forces_component_raw{ase}  cell{ase}" pbc="T T T"
O        0.00000000       0.00000000       0.00000000      -0.41192120       1.58101392       0.66358334
H        0.00000000       0.00000000       0.00000000      -0.17114781      -0.02856606      -0.08448085
H        0.00000000       0.00000000       0.00000000       0.26082432      -1.14103580      -0.06339327
O        0.00000000       0.00000000       0.00000000      -0.69889152      -0.21936327      -0.50400490
H        0.00000000       0.00000000       0.00000000       0.23377734      -0.68906063      -0.00517939
H        0.00000000       0.00000000       0.00000000       0.05632550       0.35267836      -0.33542031
H        0.00000000       0.00000000       0.00000000       0.73103333       0.14433354       0.32889539
7
Lattice="529.1772105638412 0.0 0.0 0.0 529.1772105638412 0.0 0.0 0.0 529.1772105638412" Properties=species:S:1:pos:R:3:forces_component_raw:R:3 ipi_comment="Step:       15480  Bead:       0 forces_component_raw{ase}  cell{ase}" pbc="T T T"
O        0.00000000       0.00000000       0.00000000       0.14196524       0.96211493       0.09757924
H        0.00000000       0.00000000       0.00000000       0.07441416      -0.66451550      -0.91641915
H        0.00000000       0.00000000       0.00000000      -0.29508984      -0.88605631       0.73107624
O        0.00000000       0.00000000       0.00000000      -0.36197007       0.71575308      -1.98135066
H        0.00000000       0.00000000       0.00000000      -0.09935875       0.59792197       0.53555727
H        0.00000000       0.00000000       0.00000000      -0.10085532      -0.20727995       0.25253165
H        0.00000000       0.00000000       0.00000000       0.64089459      -0.51793808       1.28102541
7
Lattice="529.1772105638412 0.0 0.0 0.0 529.1772105638412 0.0 0.0 0.0 529.1772105638412" Properties=species:S:1:pos:R:3:forces_component_raw:R:3 ipi_comment="Step:       15500  Bead:       0 forces_component_raw{ase}  cell{ase}" pbc="T T T"
O        0.00000000       0.00000000       0.00000000       0.07484491       2.73203803       1.88738025
H        0.00000000       0.00000000       0.00000000      -0.69653583      -1.57421685      -1.67453647
H        0.00000000       0.00000000       0.00000000       0.13762803      -0.88689232       0.29835761
O        0.00000000       0.00000000       0.00000000       0.37309167       0.07077730       0.29088652
H        0.00000000       0.00000000       0.00000000       0.08639637      -0.49824205      -0.55141652
H        0.00000000       0.00000000       0.00000000      -0.25065053       0.20481198      -0.46862900
H        0.00000000       0.00000000       0.00000000       0.27522528      -0.04827552       0.21795754
7
Lattice="529.1772105638412 0.0 0.0 0.0 529.1772105638412 0.0 0.0 0.0 529.1772105638412" Properties=species:S:1:pos:R:3:forces_component_raw:R:3 ipi_comment="Step:       15520  Bead:       0 forces_component_raw{ase}  cell{ase}" pbc="T T T"
O        0.00000000       0.00000000       0.00000000      -0.02904859       1.88075018       0.17479566
H        0.00000000       0.00000000       0.00000000      -0.26946986      -1.15423870      -1.33179343
H        0.00000000       0.00000000       0.00000000       0.24325417      -0.77410454       0.49621064
O        0.00000000       0.00000000       0.00000000       0.83668161      -0.21974221       0.00782555
H        0.00000000       0.00000000       0.00000000       0.10141923       0.06689952       0.76406384
H        0.00000000       0.00000000       0.00000000      -0.34606290       0.05457781       0.21736668
H        0.00000000       0.00000000       0.00000000      -0.53677362       0.14585805      -0.32846898
7
Lattice="529.1772105638412 0.0 0.0 0.0 529.1772105638412 0.0 0.0 0.0 529.1772105638412" Properties=species:S:1:pos:R:3:forces_component_raw:R:3 ipi_comment="Step:       15540  Bead:       0 forces_component_raw{ase}  cell{ase}" pbc="T T T"
O        0.00000000       0.00000000       0.00000000       0.06416622      -0.37614277       0.55545431
H        0.00000000       0.00000000       0.00000000      -0.05859635       0.21557030       0.14628971
H        0.00000000       0.00000000       0.00000000       0.12426025       0.28577569      -0.47371677
O        0.00000000       0.00000000       0.00000000      -0.38771430      -0.09116992       0.66960812
H        0.00000000       0.00000000       0.00000000      -0.25630906       0.21642195      -0.67824412
H        0.00000000       0.00000000       0.00000000       0.57841599      -0.27060232      -0.29533261
H        0.00000000       0.00000000       0.00000000      -0.06422269       0.02014714       0.07594131
7
Lattice="529.1772105638412 0.0 0.0 0.0 529.1772105638412 0.0 0.0 0.0 529.1772105638412" Properties=species:S:1:pos:R:3:forces_component_raw:R:3 ipi_comment="Step:       15560  Bead:       0 forces_component_raw{ase}  cell{ase}" pbc="T T T"
O        0.00000000       0.00000000       0.00000000      -0.20761606      -1.95819474      -0.50029719
H        0.00000000       0.00000000       0.00000000      -0.21468084      -0.10650775       0.51561093
H        0.00000000       0.00000000       0.00000000       0.39507353       1.87144030      -0.08229849
O        0.00000000       0.00000000       0.00000000      -1.38539875       2.01066184      -0.77285618
H        0.00000000       0.00000000       0.00000000       0.39184874      -0.02841672       0.44304553
H        0.00000000       0.00000000       0.00000000       0.41342822      -1.53027261       0.08023939
H        0.00000000       0.00000000       0.00000000       0.60734511      -0.25871036       0.31655598
7
Lattice="529.1772105638412 0.0 0.0 0.0 529.1772105638412 0.0 0.0 0.0 529.1772105638412" Properties=species:S:1:pos:R:3:forces_component_raw:R:3 ipi_comment="Step:       15580  Bead:       0 forces_component_raw{ase}  cell{ase}" pbc="T T T"
O        0.00000000       0.00000000       0.00000000      -1.07235384      -2.56360102       0.59230483
H        0.00000000       0.00000000       0.00000000       0.22969122       0.49397567      -0.04327002
H        0.00000000       0.00000000       0.00000000       1.09475553       1.84745467      -0.64055526
O        0.00000000       0.00000000       0.00000000      -0.48780829       1.86863685      -0.60126466
H        0.00000000       0.00000000       0.00000000      -0.42927289       0.45052412      -0.37795925
H        0.00000000       0.00000000       0.00000000       0.31430695      -1.82135082       0.01640370
H        0.00000000       0.00000000       0.00000000       0.35068125      -0.27563959       1.05434072
7
Lattice="529.1772105638412 0.0 0.0 0.0 529.1772105638412 0.0 0.0 0.0 529.1772105638412" Properties=species:S:1:pos:R:3:forces_component_raw:R:3 ipi_comment="Step:       15600  Bead:       0 forces_component_raw{ase}  cell{ase}" pbc="T T T"
O        0.00000000       0.00000000       0.00000000       0.14949355       0.92185724       0.17702150
H        0.00000000       0.00000000       0.00000000      -0.09966445      -1.15175307      -0.98316682
H        0.00000000       0.00000000       0.00000000       0.28089294       0.58182758       0.25058961
O        0.00000000       0.00000000       0.00000000      -1.48924446       2.30272913       1.56309843
H        0.00000000       0.00000000       0.00000000       0.10470806      -0.36319271       0.20624426
H        0.00000000       0.00000000       0.00000000       0.62600118      -1.84103597      -1.17540729
H        0.00000000       0.00000000       0.00000000       0.42781311      -0.45043179      -0.03837973
7
Lattice="529.1772105638412 0.0 0.0 0.0 529.1772105638412 0.0 0.0 0.0 529.1772105638412" Properties=species:S:1:pos:R:3:forces_component_raw:R:3 ipi_comment="Step:       15620  Bead:       0 forces_component_raw{ase}  cell{ase}" pbc="T T T"
O        0.00000000       0.00000000       0.00000000       0.52046239       2.79083992       1.66731489
H        0.00000000       0.00000000       0.00000000       0.58760297      -1.50684488      -1.94442583
H        0.00000000       0.00000000       0.00000000      -0.62378991      -0.96036536      -0.48651964
O        0.00000000       0.00000000       0.00000000      -0.14128296      -0.17855533       0.52515316
H        0.00000000       0.00000000       0.00000000      -0.54837394       0.12418959       0.55088341
H        0.00000000       0.00000000       0.00000000       0.61335087      -0.67990267      -0.63408643
H        0.00000000       0.00000000       0.00000000      -0.40796945       0.41063893       0.32168049
7
Lattice="529.1772105638412 0.0 0.0 0.0 529.1772105638412 0.0 0.0 0.0 529.1772105638412" Properties=species:S:1:pos:R:3:forces_component_raw:R:3 ipi_comment="Step:       15640  Bead:       0 forces_component_raw{ase}  cell{ase}" pbc="T T T"
O        0.00000000       0.00000000       0.00000000       1.09933007       2.18982077       1.56300402
H        0.00000000       0.00000000       0.00000000      -0.07930228      -1.37538219      -1.01695132
H        0.00000000       0.00000000       0.00000000      -1.86603630      -0.68146295       0.10794166
O        0.00000000       0.00000000       0.00000000       0.63931489      -1.51523877      -0.48428893
H        0.00000000       0.00000000       0.00000000       0.71845472      -0.53379500      -0.02224408
H        0.00000000       0.00000000       0.00000000      -0.64264786       0.82554865       0.27695289
H        0.00000000       0.00000000       0.00000000       0.13088673       1.09050918      -0.42441425
7
Lattice="529.1772105638412 0.0 0.0 0.0 529.1772105638412 0.0 0.0 0.0 529.1772105638412" Properties=species:S:1:pos:R:3:forces_component_raw:R:3 ipi_comment="Step:       15660  Bead:       0 forces_component_raw{ase}  cell{ase}" pbc="T T T"
O        0.00000000       0.00000000       0.00000000       0.88632477      -0.44632405       1.44950033
H        0.00000000       0.00000000       0.00000000       0.42074055       0.54301012      -0.35161862
H        0.00000000       0.00000000       0.00000000      -1.60233856      -0.59717304      -0.63642001
O        0.00000000       0.00000000       0.00000000       0.88399053      -1.60458148      -1.09877038
H        0.00000000       0.00000000       0.00000000       0.13595328       0.49035025      -0.02955419
H        0.00000000       0.00000000       0.00000000      -0.76625097       0.43085265       0.21766162
H        0.00000000       0.00000000       0.00000000       0.04158041       1.18386555       0.44920120
7
Lattice="529.1772105638412 0.0 0.0 0.0 529.1772105638412 0.0 0.0 0.0 529.1772105638412" Properties=species:S:1:pos:R:3:forces_component_raw:R:3 ipi_comment="Step:       15680  Bead:       0 forces_component_raw{ase}  cell{ase}" pbc="T T T"
O        0.00000000       0.00000000       0.00000000       0.77826166      -1.88978434       0.23437202
H        0.00000000       0.00000000       0.00000000      -0.31244487       1.34941829       0.98357487
H        0.00000000       0.00000000       0.00000000      -0.29649472       0.30740619      -0.36764392
O        0.00000000       0.00000000       0.00000000       0.00979549      -0.50559366      -1.46397698
H        0.00000000       0.00000000       0.00000000      -0.09538242      -0.51279664      -0.37893182
H        0.00000000       0.00000000       0.00000000      -0.87399173       0.72367716       0.68834740
H        0.00000000       0.00000000       0.00000000       0.79025674       0.52767325       0.30425850
7
Lattice="529.1772105638412 0.0 0.0 0.0 529.1772105638412 0.0 0.0 0.0 529.1772105638412" Properties=species:S:1:pos:R:3:forces_component_raw:R:3 ipi_comment="Step:       15700  Bead:       0 forces_component_raw{ase}  cell{ase}" pbc="T T T"
O        0.00000000       0.00000000       0.00000000       0.44463533      -0.29978290      -2.50246597
H        0.00000000       0.00000000       0.00000000      -0.05705318       0.28177023       2.18263507
H        0.00000000       0.00000000       0.00000000      -0.36991897      -0.32603455       0.20945121
O        0.00000000       0.00000000       0.00000000       0.61061168      -0.65118736      -0.91995871
H        0.00000000       0.00000000       0.00000000      -0.21402894       0.76658923       0.62682259
H        0.00000000       0.00000000       0.00000000      -0.29591870       0.02197796       0.12282525
H        0.00000000       0.00000000       0.00000000      -0.11832712       0.20666742       0.28069073
7
Lattice="529.1772105638412 0.0 0.0 0.0 529.1772105638412 0.0 0.0 0.0 529.1772105638412" Properties=species:S:1:pos:R:3:forces_component_raw:R:3 ipi_comment="Step:       15720  Bead:       0 forces_component_raw{ase}  cell{ase}" pbc="T T T"
O        0.00000000       0.00000000       0.00000000      -0.87578827       0.39897209      -2.83396149
H        0.00000000       0.00000000       0.00000000       0.61065263      -0.59257943       1.73319149
H        0.00000000       0.00000000       0.00000000       0.58058351       0.58472920       0.36865449
O        0.00000000       0.00000000       0.00000000      -1.58969474       1.11480940       2.03304720
H        0.00000000       0.00000000       0.00000000       0.64975727      -0.02355649      -0.84971661
H        0.00000000       0.00000000       0.00000000       0.36032319      -0.10011333      -0.21386504
H        0.00000000       0.00000000       0.00000000       0.26416642      -1.38226140      -0.23734990
7
Lattice="529.1772105638412 0.0 0.0 0.0 529.1772105638412 0.0 0.0 0.0 529.1772105638412" Properties=species:S:1:pos:R:3:forces_component_raw:R:3 ipi_comment="Step:       15740  Bead:       0 forces_component_raw{ase}  cell{ase}" pbc="T T T"
O        0.00000000       0.00000000       0.00000000      -1.45401013       0.76043880      -1.33045459
H        0.00000000       0.00000000       0.00000000       1.03898895      -0.59122437       0.33887571
H        0.00000000       0.00000000       0.00000000       0.58879364       0.44127232       0.17936116
O        0.00000000       0.00000000       0.00000000      -1.16348148       0.93653840       0.65681201
H        0.00000000       0.00000000       0.00000000       0.24594903       0.00130990       0.35940552
H        0.00000000       0.00000000       0.00000000       0.26848894      -0.12658498      -0.56825221
H        0.00000000       0.00000000       0.00000000       0.47527105      -1.42175019       0.36425218
7
Lattice="529.1772105638412 0.0 0.0 0.0 529.1772105638412 0.0 0.0 0.0 529.1772105638412" Properties=species:S:1:pos:R:3:forces_component_raw:R:3 ipi_comment="Step:       15760  Bead:       0 forces_component_raw{ase}  cell{ase}" pbc="T T T"
O        0.00000000       0.00000000       0.00000000       0.10301641      -0.26698306       1.48420453
H        0.00000000       0.00000000       0.00000000      -0.19070107       0.02942669      -0.16793582
H        0.00000000       0.00000000       0.00000000       0.31235361       0.27539110      -0.60416615
O        0.00000000       0.00000000       0.00000000       0.05523172       1.01332784       0.22988510
H        0.00000000       0.00000000       0.00000000      -0.77221787       0.31007660      -0.57939160
H        0.00000000       0.00000000       0.00000000       0.19018409      -0.22580141      -0.76877904
H        0.00000000       0.00000000       0.00000000       0.30213302      -1.13543761       0.40618304
7
Lattice="529.1772105638412 0.0 0.0 0.0 529.1772105638412 0.0 0.0 0.0 529.1772105638412" Properties=species:S:1:pos:R:3:forces_component_raw:R:3 ipi_comment="Step:       15780  Bead:       0 forces_component_raw{ase}  cell{ase}" pbc="T T T"
O        0.00000000       0.00000000       0.00000000      -0.13550200      -0.17199411       0.54090548
H        0.00000000       0.00000000       0.00000000      -0.67613757       0.22007403      -0.99227447
H        0.00000000       0.00000000       0.00000000      -0.31093791      -0.50661147       0.62993634
O        0.00000000       0.00000000       0.00000000       0.59893572       1.28976202      -0.45212567
H        0.00000000       0.00000000       0.00000000       0.81330526      -0.56919921       0.76103646
H        0.00000000       0.00000000       0.00000000      -0.16598326      -0.30944949      -0.42797893
H        0.00000000       0.00000000       0.00000000      -0.12368017       0.04741827      -0.05949914
7
Lattice="529.1772105638412 0.0 0.0 0.0 529.1772105638412 0.0 0.0 0.0 529.1772105638412" Properties=species:S:1:pos:R:3:forces_component_raw:R:3 ipi_comment="Step:       15800  Bead:       0 forces_component_raw{ase}  cell{ase}" pbc="T T T"
O        0.00000000       0.00000000       0.00000000       0.49494130      -0.28473476       1.32773114
H        0.00000000       0.00000000       0.00000000      -0.20480689       0.24460012      -0.87086773
H        0.00000000       0.00000000       0.00000000      -0.35191006      -0.10474228      -0.21025372
O        0.00000000       0.00000000       0.00000000       0.99902189      -1.47709620       0.71593535
H        0.00000000       0.00000000       0.00000000       0.16971138       0.84731275      -0.93842477
H        0.00000000       0.00000000       0.00000000      -0.27893353      -0.17805594      -0.34835675
H        0.00000000       0.00000000       0.00000000      -0.82802403       0.95271647       0.32423666
7
Lattice="529.1772105638412 0.0 0.0 0.0 529.1772105638412 0.0 0.0 0.0 529.1772105638412" Properties=species:S:1:pos:R:3:forces_component_raw:R:3 ipi_comment="Step:       15820  Bead:       0 forces_component_raw{ase}  cell{ase}" pbc="T T T"
O        0.00000000       0.00000000       0.00000000       1.14483643       0.80376536      -0.46241272
H        0.00000000       0.00000000       0.00000000      -0.81440169      -0.30844557      -0.49360642
H        0.00000000       0.00000000       0.00000000      -0.42797896      -0.09054294       0.83908570
O        0.00000000       0.00000000       0.00000000      -0.08284894      -1.64600206      -0.13542911
H        0.00000000       0.00000000       0.00000000       0.13863069      -0.62499350       0.08095177
H        0.00000000       0.00000000       0.00000000       0.01655634       0.24313593       0.01887542
H        0.00000000       0.00000000       0.00000000       0.02520607       1.62308288       0.15253547
7
Lattice="529.1772105638412 0.0 0.0 0.0 529.1772105638412 0.0 0.0 0.0 529.1772105638412" Properties=species:S:1:pos:R:3:forces_component_raw:R:3 ipi_comment="Step:       15840  Bead:       0 forces_component_raw{ase}  cell{ase}" pbc="T T T"
O        0.00000000       0.00000000       0.00000000      -0.32004666      -0.60405773       0.73250163
H        0.00000000       0.00000000       0.00000000       0.37225482       0.26499632      -0.60652274
H        0.00000000       0.00000000       0.00000000       0.52622128       0.28137273      -0.51422632
O        0.00000000       0.00000000       0.00000000      -0.72245467      -2.00636411      -0.30249447
H        0.00000000       0.00000000       0.00000000      -0.40194747       0.55038417      -0.10623007
H        0.00000000       0.00000000       0.00000000      -0.07883117       0.22197929       0.46352768
H        0.00000000       0.00000000       0.00000000       0.62480390       1.29168940       0.33344433
7
Lattice="529.1772105638412 0.0 0.0 0.0 529.1772105638412 0.0 0.0 0.0 529.1772105638412" Properties=species:S:1:pos:R:3:forces_component_raw:R:3 ipi_comment="Step:       15860  Bead:       0 forces_component_raw{ase}  cell{ase}" pbc="T T T"
O        0.00000000       0.00000000       0.00000000      -0.86099613      -0.00349706      -0.77310026
H        0.00000000       0.00000000       0.00000000      -0.54533947       0.12503305      -0.05496562
H        0.00000000       0.00000000       0.00000000       0.97369439       0.22897825       0.79774904
O        0.00000000       0.00000000       0.00000000      -0.91003710       0.29013443      -0.68098182
H        0.00000000       0.00000000       0.00000000       1.21312785      -0.57278013      -0.22528958
H        0.00000000       0.00000000       0.00000000      -0.15888321      -0.00711107       0.68571448
H        0.00000000       0.00000000       0.00000000       0.28843370      -0.06075752       0.25087392
7
Lattice="529.1772105638412 0.0 0.0 0.0 529.1772105638412 0.0 0.0 0.0 529.1772105638412" Properties=species:S:1:pos:R:3:forces_component_raw:R:3 ipi_comment="Step:       15880  Bead:       0 forces_component_raw{ase}  cell{ase}" pbc="T T T"
O        0.00000000       0.00000000       0.00000000      -0.54827452      -0.82259596      -0.22001451
H        0.00000000       0.00000000       0.00000000       0.14418590       0.01327345       0.63249004
H        0.00000000       0.00000000       0.00000000       1.18368292       0.77020014      -0.13967991
O        0.00000000       0.00000000       0.00000000       0.20603132      -0.38651931      -1.11774278
H        0.00000000       0.00000000       0.00000000      -0.97631061       0.29674807       0.17435619
H        0.00000000       0.00000000       0.00000000      -0.04967316       0.47351605       0.53187108
H        0.00000000       0.00000000       0.00000000       0.04035816      -0.34462252       0.13872010
7
Lattice="529.1772105638412 0.0 0.0 0.0 529.1772105638412 0.0 0.0 0.0 529.1772105638412" Properties=species:S:1:pos:R:3:forces_component_raw:R:3 ipi_comment="Step:       15900  Bead:       0 forces_component_raw{ase}  cell{ase}" pbc="T T T"
O        0.00000000       0.00000000       0.00000000      -0.03565553       0.09863681      -1.55213285
H        0.00000000       0.00000000       0.00000000      -0.46240518      -0.36608207       1.09288895
H        0.00000000       0.00000000       0.00000000       0.42136479       0.27634597       0.64400107
O        0.00000000       0.00000000       0.00000000       0.62270314       0.70006740      -0.25033167
H        0.00000000       0.00000000       0.00000000       0.18888262      -0.28387874      -0.31320179
H        0.00000000       0.00000000       0.00000000      -0.40081626      -0.20769176       0.36908135
H        0.00000000       0.00000000       0.00000000      -0.33407348      -0.21739754       0.00969499
7
Lattice="529.1772105638412 0.0 0.0 0.0 529.1772105638412 0.0 0.0 0.0 529.1772105638412" Properties=species:S:1:pos:R:3:forces_component_raw:R:3 ipi_comment="Step:       15920  Bead:       0 forces_component_raw{ase}  cell{ase}" pbc="T T T"
O        0.00000000       0.00000000       0.00000000      -1.32034445      -1.80636001      -0.71110469
H        0.00000000       0.00000000       0.00000000       0.45422614       0.81528926       0.59854406
H        0.00000000       0.00000000       0.00000000       0.25783849       0.29847673      -0.08820674
O        0.00000000       0.00000000       0.00000000       0.03566238       1.05253637      -0.09619018
H        0.00000000       0.00000000       0.00000000       0.69473297       0.07407331       0.71093631
H        0.00000000       0.00000000       0.00000000       0.06932632       0.08770767       0.06047320
H        0.00000000       0.00000000       0.00000000      -0.19144203      -0.52172315      -0.47445199
7
Lattice="529.1772105638412 0.0 0.0 0.0 529.1772105638412 0.0 0.0 0.0 529.1772105638412" Properties=species:S:1:pos:R:3:forces_component_raw:R:3 ipi_comment="Step:       15940  Bead:       0 forces_component_raw{ase}  cell{ase}" pbc="T T T"
O        0.00000000       0.00000000       0.00000000       0.48603138       1.04241157       0.69721425
H        0.00000000       0.00000000       0.00000000      -0.21986294      -0.71597386      -0.39462245
H        0.00000000       0.00000000       0.00000000      -0.02421588      -0.34865499       0.30915660
O        0.00000000       0.00000000       0.00000000       0.52309513       1.58661771       0.14196253
H        0.00000000       0.00000000       0.00000000      -0.69750846      -0.59424734      -0.50286102
H        0.00000000       0.00000000       0.00000000       0.00202678      -0.25380021      -0.09204038
H        0.00000000       0.00000000       0.00000000      -0.06956603      -0.71635294      -0.15880954
7
Lattice="529.1772105638412 0.0 0.0 0.0 529.1772105638412 0.0 0.0 0.0 529.1772105638412" Properties=species:S:1:pos:R:3:forces_component_raw:R:3 ipi_comment="Step:       15960  Bead:       0 forces_component_raw{ase}  cell{ase}" pbc="T T T"
O        0.00000000       0.00000000       0.00000000      -0.09675141      -0.13489932       2.27796317
H        0.00000000       0.00000000       0.00000000       0.09207993       0.23992229      -1.67016471
H        0.00000000       0.00000000       0.00000000      -0.01136711      -0.25063282      -0.50833535
O        0.00000000       0.00000000       0.00000000      -0.04414070      -0.98662973       0.16689691
H        0.00000000       0.00000000       0.00000000      -0.04356638       0.68120754       0.00154720
H        0.00000000       0.00000000       0.00000000       0.10500059       0.40375993      -0.29668111
H        0.00000000       0.00000000       0.00000000      -0.00125492       0.04727209       0.02877408
7
Lattice="529.1772105638412 0.0 0.0 0.0 529.1772105638412 0.0 0.0 0.0 529.1772105638412" Properties=species:S:1:pos:R:3:forces_component_raw:R:3 ipi_comment="Step:       15980  Bead:       0 forces_component_raw{ase}  cell{ase}" pbc="T T T"
O        0.00000000       0.00000000       0.00000000       0.16941887       1.22333384       1.37392688
H        0.00000000       0.00000000       0.00000000      -0.08392413      -0.48493767      -1.90827251
H        0.00000000       0.00000000       0.00000000      -0.18385123      -0.20901871       0.22042710
O        0.00000000       0.00000000       0.00000000       0.33630145      -0.57628155       0.24379224
H        0.00000000       0.00000000       0.00000000       0.56774128      -0.78296000       0.38345909
H        0.00000000       0.00000000       0.00000000       0.16972210      -0.14845124      -0.36857313
H        0.00000000       0.00000000       0.00000000      -0.97540844       0.97831547       0.05524006
7
Lattice="529.1772105638412 0.0 0.0 0.0 529.1772105638412 0.0 0.0 0.0 529.1772105638412" Properties=species:S:1:pos:R:3:forces_component_raw:R:3 ipi_comment="Step:       16000  Bead:       0 forces_component_raw{ase}  cell{ase}" pbc="T T T"
O        0.00000000       0.00000000       0.00000000       0.42687208      -0.68327761       1.16732788
H        0.00000000       0.00000000       0.00000000      -0.14561152      -0.05913901      -1.03101194
H        0.00000000       0.00000000       0.00000000      -0.12661138       0.57817781       0.03798804
O        0.00000000       0.00000000       0.00000000       2.12542081      -0.30528718       1.41577065
H        0.00000000       0.00000000       0.00000000      -0.94982505       0.27045554      -0.19732304
H        0.00000000       0.00000000       0.00000000       0.24204385       0.19772154      -1.03795386
H        0.00000000       0.00000000       0.00000000      -1.57228876       0.00134889      -0.35479784
7
Lattice="529.1772105638412 0.0 0.0 0.0 529.1772105638412 0.0 0.0 0.0 529.1772105638412" Properties=species:S:1:pos:R:3:forces_component_raw:R:3 ipi_comment="Step:       16020  Bead:       0 forces_component_raw{ase}  cell{ase}" pbc="T T T"
O        0.00000000       0.00000000       0.00000000      -0.54332042      -1.14525175      -1.05864024
H        0.00000000       0.00000000       0.00000000       0.43380764       0.13255826       0.43146628
H        0.00000000       0.00000000       0.00000000      -0.21380794       0.78246749       0.42866531
O        0.00000000       0.00000000       0.00000000      -0.44345617       0.39974308       1.42526591
H        0.00000000       0.00000000       0.00000000       1.11780751       0.01058342      -0.01978383
H        0.00000000       0.00000000       0.00000000       0.93378359      -0.94394660      -0.51775390
H        0.00000000       0.00000000       0.00000000      -1.28481412       0.76384610      -0.68921948
7
Lattice="529.1772105638412 0.0 0.0 0.0 529.1772105638412 0.0 0.0 0.0 529.1772105638412" Properties=species:S:1:pos:R:3:forces_component_raw:R:3 ipi_comment="Step:       16040  Bead:       0 forces_component_raw{ase}  cell{ase}" pbc="T T T"
O        0.00000000       0.00000000       0.00000000       0.70224297      -1.61700964      -1.33731854
H        0.00000000       0.00000000       0.00000000       0.16983339       0.40837744       0.80083329
H        0.00000000       0.00000000       0.00000000      -0.56715071       0.92373783       0.32972258
O        0.00000000       0.00000000       0.00000000       0.79538411      -0.17939797       1.18465364
H        0.00000000       0.00000000       0.00000000      -0.78249753       0.22863905       0.38270134
H        0.00000000       0.00000000       0.00000000       0.54091263       0.00824019      -0.69633186
H        0.00000000       0.00000000       0.00000000      -0.85872495       0.22741315      -0.66426045
7
Lattice="529.1772105638412 0.0 0.0 0.0 529.1772105638412 0.0 0.0 0.0 529.1772105638412" Properties=species:S:1:pos:R:3:forces_component_raw:R:3 ipi_comment="Step:       16060  Bead:       0 forces_component_raw{ase}  cell{ase}" pbc="T T T"
O        0.00000000       0.00000000       0.00000000      -0.01717355       0.56587285      -0.83999217
H        0.00000000       0.00000000       0.00000000       0.20143002      -0.14087969       0.98884177
H        0.00000000       0.00000000       0.00000000      -0.00543216       0.36103481      -0.13841906
O        0.00000000       0.00000000       0.00000000      -0.70466399      -0.03385204       0.34687227
H        0.00000000       0.00000000       0.00000000      -0.37403351      -0.64229012      -0.18377876
H        0.00000000       0.00000000       0.00000000       0.54598105       0.09956084      -0.40886483
H        0.00000000       0.00000000       0.00000000       0.35389197      -0.20944665       0.23534080
7
Lattice="529.1772105638412 0.0 0.0 0.0 529.1772105638412 0.0 0.0 0.0 529.1772105638412" Properties=species:S:1:pos:R:3:forces_component_raw:R:3 ipi_comment="Step:       16080  Bead:       0 forces_component_raw{ase}  cell{ase}" pbc="T T T"
O        0.00000000       0.00000000       0.00000000      -1.01922977       0.13052619      -1.02883280
H        0.00000000       0.00000000       0.00000000       0.34704745       0.27746940       0.64420760
H        0.00000000       0.00000000       0.00000000       0.51292980      -0.61303944      -0.20313215
O        0.00000000       0.00000000       0.00000000      -1.50786686       0.68272877      -0.89107144
H        0.00000000       0.00000000       0.00000000       0.39142358       0.78396702       0.51055092
H        0.00000000       0.00000000       0.00000000      -0.35915667      -0.26707059       0.22496545
H        0.00000000       0.00000000       0.00000000       1.63485241      -0.99458134       0.74331248
7
Lattice="529.1772105638412 0.0 0.0 0.0 529.1772105638412 0.0 0.0 0.0 529.1772105638412" Properties=species:S:1:pos:R:3:forces_component_raw:R:3 ipi_comment="Step:       16100  Bead:       0 forces_component_raw{ase}  cell{ase}" pbc="T T T"
O        0.00000000       0.00000000       0.00000000      -0.65089744       2.66504193       0.89737416
H        0.00000000       0.00000000       0.00000000      -0.19413540      -0.15171993       0.31867758
H        0.00000000       0.00000000       0.00000000       0.93570268      -1.58552647      -1.15499103
O        0.00000000       0.00000000       0.00000000      -0.37349516       1.99234057      -0.90568990
H        0.00000000       0.00000000       0.00000000      -0.33831137      -0.89653349      -0.22018905
H        0.00000000       0.00000000       0.00000000      -1.50011754      -0.74307478       0.44444621
H        0.00000000       0.00000000       0.00000000       2.12125397      -1.28052759       0.62037188
7
Lattice="529.1772105638412 0.0 0.0 0.0 529.1772105638412 0.0 0.0 0.0 529.1772105638412" Properties=species:S:1:pos:R:3:forces_component_raw:R:3 ipi_comment="Step:       16120  Bead:       0 forces_component_raw{ase}  cell{ase}" pbc="T T T"
O        0.00000000       0.00000000       0.00000000      -0.35469240       1.43116045      -0.27050182
H        0.00000000       0.00000000       0.00000000      -0.09496345       0.03985819       0.26128304
H        0.00000000       0.00000000       0.00000000       0.30931187      -1.97967542      -0.17815164
O        0.00000000       0.00000000       0.00000000       0.30493543       0.94721401      -0.27643806
H        0.00000000       0.00000000       0.00000000       0.55474174       0.40774685       0.52174920
H        0.00000000       0.00000000       0.00000000      -1.22173214      -0.90208805       0.06766400
H        0.00000000       0.00000000       0.00000000       0.50239885       0.05578394      -0.12560457
7
Lattice="529.1772105638412 0.0 0.0 0.0 529.1772105638412 0.0 0.0 0.0 529.1772105638412" Properties=species:S:1:pos:R:3:forces_component_raw:R:3 ipi_comment="Step:       16140  Bead:       0 forces_component_raw{ase}  cell{ase}" pbc="T T T"
O        0.00000000       0.00000000       0.00000000      -0.07217523       1.07512641       0.11879179
H        0.00000000       0.00000000       0.00000000      -0.10812484       0.10104153       0.31184080
H        0.00000000       0.00000000       0.00000000       0.11692047      -1.32944775      -0.29430395
O        0.00000000       0.00000000       0.00000000       2.15533209       0.94960439      -0.20109698
H        0.00000000       0.00000000       0.00000000      -0.34744600       0.16526374      -0.15330038
H        0.00000000       0.00000000       0.00000000      -0.81948233      -0.84597671      -0.30710328
H        0.00000000       0.00000000       0.00000000      -0.92502398      -0.11561149       0.52517194
7
Lattice="529.1772105638412 0.0 0.0 0.0 529.1772105638412 0.0 0.0 0.0 529.1772105638412" Properties=species:S:1:pos:R:3:forces_component_raw:R:3 ipi_comment="Step:       16160  Bead:       0 forces_component_raw{ase}  cell{ase}" pbc="T T T"
O        0.00000000       0.00000000       0.00000000      -0.20042865      -0.21198887       0.20070903
H        0.00000000       0.00000000       0.00000000      -0.07013751       0.05514413       0.38043559
H        0.00000000       0.00000000       0.00000000       0.03287631       0.21673007      -0.09237251
O        0.00000000       0.00000000       0.00000000       2.14399577       0.29194254      -1.02406001
H        0.00000000       0.00000000       0.00000000       0.37591636      -0.69107598      -0.26880658
H        0.00000000       0.00000000       0.00000000      -0.27390099      -0.26727796       0.01250392
H        0.00000000       0.00000000       0.00000000      -2.00832129       0.60652608       0.79159057
7
Lattice="529.1772105638412 0.0 0.0 0.0 529.1772105638412 0.0 0.0 0.0 529.1772105638412" Properties=species:S:1:pos:R:3:forces_component_raw:R:3 ipi_comment="Step:       16180  Bead:       0 forces_component_raw{ase}  cell{ase}" pbc="T T T"
O        0.00000000       0.00000000       0.00000000       0.01826098      -0.74323100      -1.05169285
H        0.00000000       0.00000000       0.00000000      -0.10342779      -0.15188378       0.16769868
H        0.00000000       0.00000000       0.00000000       0.09905806       0.87045729       0.67157054
O        0.00000000       0.00000000       0.00000000       2.16984773      -2.58379412       0.29045326
H        0.00000000       0.00000000       0.00000000      -0.15092829       0.76205266      -0.29393095
H        0.00000000       0.00000000       0.00000000       0.36356351       0.59132320       0.15357770
H        0.00000000       0.00000000       0.00000000      -2.39637423       1.25507593       0.06232350
7
Lattice="529.1772105638412 0.0 0.0 0.0 529.1772105638412 0.0 0.0 0.0 529.1772105638412" Properties=species:S:1:pos:R:3:forces_component_raw:R:3 ipi_comment="Step:       16200  Bead:       0 forces_component_raw{ase}  cell{ase}" pbc="T T T"
O        0.00000000       0.00000000       0.00000000      -0.55455893      -1.46956361       0.17504483
H        0.00000000       0.00000000       0.00000000       0.23001701       0.08981761      -0.42388895
H        0.00000000       0.00000000       0.00000000       0.50022888       1.64306295       0.45174128
O        0.00000000       0.00000000       0.00000000       1.28915453      -1.36067748       0.55481792
H        0.00000000       0.00000000       0.00000000      -0.37676451      -0.56584895      -0.14897476
H        0.00000000       0.00000000       0.00000000       1.40335703       0.89502800       0.28320655
H        0.00000000       0.00000000       0.00000000      -2.49143410       0.76818115      -0.89194679
7
Lattice="529.1772105638412 0.0 0.0 0.0 529.1772105638412 0.0 0.0 0.0 529.1772105638412" Properties=species:S:1:pos:R:3:forces_component_raw:R:3 ipi_comment="Step:       16220  Bead:       0 forces_component_raw{ase}  cell{ase}" pbc="T T T"
O        0.00000000       0.00000000       0.00000000      -0.74149084      -0.96566379       0.72058076
H        0.00000000       0.00000000       0.00000000       0.28439012       0.15955532      -1.53059745
H        0.00000000       0.00000000       0.00000000       0.37924057       0.51566422       0.40240806
O        0.00000000       0.00000000       0.00000000      -1.06027115      -2.07234598       0.61260092
H        0.00000000       0.00000000       0.00000000       0.35649422       0.43243468       0.64219684
H        0.00000000       0.00000000       0.00000000       1.29932165       1.29367996      -0.12911975
H        0.00000000       0.00000000       0.00000000      -0.51768446       0.63667554      -0.71806932
7
Lattice="529.1772105638412 0.0 0.0 0.0 529.1772105638412 0.0 0.0 0.0 529.1772105638412" Properties=species:S:1:pos:R:3:forces_component_raw:R:3 ipi_comment="Step:       16240  Bead:       0 forces_component_raw{ase}  cell{ase}" pbc="T T T"
O        0.00000000       0.00000000       0.00000000       0.21781063       0.17508641       2.29835892
H        0.00000000       0.00000000       0.00000000       0.32043457      -0.20056862      -1.41399479
H        0.00000000       0.00000000       0.00000000      -0.25714213       0.34980396      -0.32744044
O        0.00000000       0.00000000       0.00000000      -1.44706774      -0.27879071      -0.59205783
H        0.00000000       0.00000000       0.00000000      -0.42186123      -0.40072632      -0.70167613
H        0.00000000       0.00000000       0.00000000       0.71943212       0.55324394      -0.19575754
H        0.00000000       0.00000000       0.00000000       0.86839396      -0.19804871       0.93256784
7
Lattice="529.1772105638412 0.0 0.0 0.0 529.1772105638412 0.0 0.0 0.0 529.1772105638412" Properties=species:S:1:pos:R:3:forces_component_raw:R:3 ipi_comment="Step:       16260  Bead:       0 forces_component_raw{ase}  cell{ase}" pbc="T T T"
O        0.00000000       0.00000000       0.00000000       0.25236744       0.58395648       1.18435669
H        0.00000000       0.00000000       0.00000000       0.12349793       0.15263718      -1.51770580
H        0.00000000       0.00000000       0.00000000      -0.56876028      -0.78317583      -0.25380933
O        0.00000000       0.00000000       0.00000000      -1.64376736      -0.05652967      -1.44279170
H        0.00000000       0.00000000       0.00000000       0.55117923       0.29484153       0.62356067
H        0.00000000       0.00000000       0.00000000      -0.32797450      -0.36103851       0.12684888
H        0.00000000       0.00000000       0.00000000       1.61345744       0.16930886       1.27954078
7
Lattice="529.1772105638412 0.0 0.0 0.0 529.1772105638412 0.0 0.0 0.0 529.1772105638412" Properties=species:S:1:pos:R:3:forces_component_raw:R:3 ipi_comment="Step:       16280  Bead:       0 forces_component_raw{ase}  cell{ase}" pbc="T T T"
O        0.00000000       0.00000000       0.00000000       0.70233458       0.81098229       1.51448572
H        0.00000000       0.00000000       0.00000000      -0.03940326      -0.37589762      -1.20656014
H        0.00000000       0.00000000       0.00000000      -0.47554317      -0.34425989       0.00805551
O        0.00000000       0.00000000       0.00000000      -0.15728223       1.12177480      -1.77505279
H        0.00000000       0.00000000       0.00000000      -0.46342352      -0.38665930      -0.88573992
H        0.00000000       0.00000000       0.00000000      -1.47295142      -0.65024543       0.93061555
H        0.00000000       0.00000000       0.00000000       1.90626884      -0.17569476       1.41419626
7
Lattice="529.1772105638412 0.0 0.0 0.0 529.1772105638412 0.0 0.0 0.0 529.1772105638412" Properties=species:S:1:pos:R:3:forces_component_raw:R:3 ipi_comment="Step:       16300  Bead:       0 forces_component_raw{ase}  cell{ase}" pbc="T T T"
O        0.00000000       0.00000000       0.00000000      -0.34808368      -1.08141399       0.15957238
H        0.00000000       0.00000000       0.00000000       0.01473448       0.55992645      -0.37535599
H        0.00000000       0.00000000       0.00000000       0.12640592      -0.09591529      -0.12172508
O        0.00000000       0.00000000       0.00000000      -0.97748232       0.24444589      -1.62412012
H        0.00000000       0.00000000       0.00000000       0.79457444       0.70060790       0.50889838
H        0.00000000       0.00000000       0.00000000      -1.00619507      -0.58083260       0.76972115
H        0.00000000       0.00000000       0.00000000       1.39604616       0.25318164       0.68300945
7
Lattice="529.1772105638412 0.0 0.0 0.0 529.1772105638412 0.0 0.0 0.0 529.1772105638412" Properties=species:S:1:pos:R:3:forces_component_raw:R:3 ipi_comment="Step:       16320  Bead:       0 forces_component_raw{ase}  cell{ase}" pbc="T T T"
O        0.00000000       0.00000000       0.00000000       0.43348771       0.51055908      -0.09118641
H        0.00000000       0.00000000       0.00000000       0.12621297      -0.44266805       0.56908989
H        0.00000000       0.00000000       0.00000000      -0.12842377      -0.23240414       0.13075095
O        0.00000000       0.00000000       0.00000000       0.39377576       0.82883895      -0.78528130
H        0.00000000       0.00000000       0.00000000      -0.88560337      -0.50562286      -0.44448772
H        0.00000000       0.00000000       0.00000000      -0.66268540       0.01832744       0.28976443
H        0.00000000       0.00000000       0.00000000       0.72323609      -0.17703038       0.33135012
7
Lattice="529.1772105638412 0.0 0.0 0.0 529.1772105638412 0.0 0.0 0.0 529.1772105638412" Properties=species:S:1:pos:R:3:forces_component_raw:R:3 ipi_comment="Step:       16340  Bead:       0 forces_component_raw{ase}  cell{ase}" pbc="T T T"
O        0.00000000       0.00000000       0.00000000      -0.49635410      -0.80104619      -0.69893265
H        0.00000000       0.00000000       0.00000000       0.27857339       0.18234539       0.94424159
H        0.00000000       0.00000000       0.00000000       0.09417984       0.22383681      -0.06615618
O        0.00000000       0.00000000       0.00000000      -1.34101606      -0.05972603      -0.23086660
H        0.00000000       0.00000000       0.00000000       0.82320857       0.40671665      -0.10883472
H        0.00000000       0.00000000       0.00000000       0.49576661      -0.14217487       0.06463163
H        0.00000000       0.00000000       0.00000000       0.14564157       0.19004817       0.09591687
7
Lattice="529.1772105638412 0.0 0.0 0.0 529.1772105638412 0.0 0.0 0.0 529.1772105638412" Properties=species:S:1:pos:R:3:forces_component_raw:R:3 ipi_comment="Step:       16360  Bead:       0 forces_component_raw{ase}  cell{ase}" pbc="T T T"
O        0.00000000       0.00000000       0.00000000      -0.34546739       0.46875766      -1.15640462
H        0.00000000       0.00000000       0.00000000       0.28744870      -0.16181275       1.13400615
H        0.00000000       0.00000000       0.00000000       0.00244185       0.30004582      -0.13132909
O        0.00000000       0.00000000       0.00000000       1.14545560      -1.14331734       1.08620262
H        0.00000000       0.00000000       0.00000000      -0.34561026      -0.23795438       0.08039542
H        0.00000000       0.00000000       0.00000000       0.29613915       0.55993068      -0.47475463
H        0.00000000       0.00000000       0.00000000      -1.04040766       0.21435028      -0.53811586
7
Lattice="529.1772105638412 0.0 0.0 0.0 529.1772105638412 0.0 0.0 0.0 529.1772105638412" Properties=species:S:1:pos:R:3:forces_component_raw:R:3 ipi_comment="Step:       16380  Bead:       0 forces_component_raw{ase}  cell{ase}" pbc="T T T"
O        0.00000000       0.00000000       0.00000000       0.02019002       1.35776103      -0.84231264
H        0.00000000       0.00000000       0.00000000      -0.09261455      -0.58449459       0.76297987
H        0.00000000       0.00000000       0.00000000      -0.16998789      -0.25790834       0.03642249
O        0.00000000       0.00000000       0.00000000       0.48830092      -1.31332577       1.30860043
H        0.00000000       0.00000000       0.00000000       0.27003881       0.12318251      -0.25479010
H        0.00000000       0.00000000       0.00000000       1.46865356       0.55423051      -0.42297810
H        0.00000000       0.00000000       0.00000000      -1.98458100       0.12055458      -0.58792186
7
Lattice="529.1772105638412 0.0 0.0 0.0 529.1772105638412 0.0 0.0 0.0 529.1772105638412" Properties=species:S:1:pos:R:3:forces_component_raw:R:3 ipi_comment="Step:       16400  Bead:       0 forces_component_raw{ase}  cell{ase}" pbc="T T T"
O        0.00000000       0.00000000       0.00000000      -0.19145162      -0.60408020       0.07969279
H        0.00000000       0.00000000       0.00000000       0.00518194       0.74493373      -0.18434587
H        0.00000000       0.00000000       0.00000000       0.25958568       0.14019787      -0.44958907
O        0.00000000       0.00000000       0.00000000       0.63982678      -0.96165574       2.01749850
H        0.00000000       0.00000000       0.00000000      -0.09694941      -0.24196428       0.67720616
H        0.00000000       0.00000000       0.00000000       0.74666274       0.75242686      -0.99673605
H        0.00000000       0.00000000       0.00000000      -1.36285591       0.17014188      -1.14372623
7
Lattice="529.1772105638412 0.0 0.0 0.0 529.1772105638412 0.0 0.0 0.0 529.1772105638412" Properties=species:S:1:pos:R:3:forces_component_raw:R:3 ipi_comment="Step:       16420  Bead:       0 forces_component_raw{ase}  cell{ase}" pbc="T T T"
O        0.00000000       0.00000000       0.00000000      -0.82681036       0.17188293       1.59785986
H        0.00000000       0.00000000       0.00000000       1.09144283      -0.11145173      -1.13117671
H        0.00000000       0.00000000       0.00000000      -0.34805843      -0.32276145       0.10687917
O        0.00000000       0.00000000       0.00000000      -0.58968729       0.16771317       0.38714540
H        0.00000000       0.00000000       0.00000000       0.47819889      -0.25433013      -0.48330325
H        0.00000000       0.00000000       0.00000000       0.78439826       0.48295429      -0.37049568
H        0.00000000       0.00000000       0.00000000      -0.58948386      -0.13400731      -0.10690892
7
Lattice="529.1772105638412 0.0 0.0 0.0 529.1772105638412 0.0 0.0 0.0 529.1772105638412" Properties=species:S:1:pos:R:3:forces_component_raw:R:3 ipi_comment="Step:       16440  Bead:       0 forces_component_raw{ase}  cell{ase}" pbc="T T T"
O        0.00000000       0.00000000       0.00000000      -0.94924212      -1.36780620       1.21110404
H        0.00000000       0.00000000       0.00000000       1.01125992       1.06976128      -1.22653699
H        0.00000000       0.00000000       0.00000000       0.23770344       0.11632510      -0.09287876
O        0.00000000       0.00000000       0.00000000      -0.73704624      -0.81850368       0.02779299
H        0.00000000       0.00000000       0.00000000      -0.51587713       0.37401819       0.11563182
H        0.00000000       0.00000000       0.00000000       0.19734338       0.49165398      -0.42467609
H        0.00000000       0.00000000       0.00000000       0.75585860       0.13455141       0.38956297
7
Lattice="529.1772105638412 0.0 0.0 0.0 529.1772105638412 0.0 0.0 0.0 529.1772105638412" Properties=species:S:1:pos:R:3:forces_component_raw:R:3 ipi_comment="Step:       16460  Bead:       0 forces_component_raw{ase}  cell{ase}" pbc="T T T"
O        0.00000000       0.00000000       0.00000000      -0.79024124       0.75232804      -0.37136597
H        0.00000000       0.00000000       0.00000000       0.82710415      -0.09749734      -0.40062893
H        0.00000000       0.00000000       0.00000000      -0.44850388      -0.11711435       0.41753367
O        0.00000000       0.00000000       0.00000000      -1.35360980      -0.03528887      -1.11773849
H        0.00000000       0.00000000       0.00000000       0.48839980      -0.32937265       0.15556397
H        0.00000000       0.00000000       0.00000000      -0.00048298      -0.25174961       0.31951344
H        0.00000000       0.00000000       0.00000000       1.27733398       0.07869470       0.99712229
7
Lattice="529.1772105638412 0.0 0.0 0.0 529.1772105638412 0.0 0.0 0.0 529.1772105638412" Properties=species:S:1:pos:R:3:forces_component_raw:R:3 ipi_comment="Step:       16480  Bead:       0 forces_component_raw{ase}  cell{ase}" pbc="T T T"
O        0.00000000       0.00000000       0.00000000       0.16888794      -0.04878710       0.15428188
H        0.00000000       0.00000000       0.00000000      -0.45237318       0.08797476       0.01028625
H        0.00000000       0.00000000       0.00000000      -0.01950502       0.53308970      -0.43413550
O        0.00000000       0.00000000       0.00000000       1.28194845      -0.21628290      -0.04104584
H        0.00000000       0.00000000       0.00000000      -0.45258409       0.20186445      -0.42682129
H        0.00000000       0.00000000       0.00000000      -1.21758807      -0.64648211       0.48213855
H        0.00000000       0.00000000       0.00000000       0.69121397       0.08862314       0.25529587
7
Lattice="529.1772105638412 0.0 0.0 0.0 529.1772105638412 0.0 0.0 0.0 529.1772105638412" Properties=species:S:1:pos:R:3:forces_component_raw:R:3 ipi_comment="Step:       16500  Bead:       0 forces_component_raw{ase}  cell{ase}" pbc="T T T"
O        0.00000000       0.00000000       0.00000000      -0.94407284       1.13132167      -0.94506180
H        0.00000000       0.00000000       0.00000000       0.36843985      -0.63571274       0.51329714
H        0.00000000       0.00000000       0.00000000       0.38271630      -0.33036575       0.33870816
O        0.00000000       0.00000000       0.00000000       0.85141474       0.64980853      -0.81967688
H        0.00000000       0.00000000       0.00000000       0.28318930      -0.16658980       0.20347554
H        0.00000000       0.00000000       0.00000000      -0.98326808      -0.74782610       0.65423906
H        0.00000000       0.00000000       0.00000000       0.04158086       0.09936404       0.05501875
7
Lattice="529.1772105638412 0.0 0.0 0.0 529.1772105638412 0.0 0.0 0.0 529.1772105638412" Properties=species:S:1:pos:R:3:forces_component_raw:R:3 ipi_comment="Step:       16520  Bead:       0 forces_component_raw{ase}  cell{ase}" pbc="T T T"
O        0.00000000       0.00000000       0.00000000      -0.22639066      -0.69741464       0.45024616
H        0.00000000       0.00000000       0.00000000      -0.43603525      -0.07136616      -0.22804278
H        0.00000000       0.00000000       0.00000000       1.19631481       0.40495092       0.14111605
O        0.00000000       0.00000000       0.00000000       0.63736147       0.56145847      -0.35371369
H        0.00000000       0.00000000       0.00000000      -0.51197714      -0.06053031       0.11274694
H        0.00000000       0.00000000       0.00000000      -0.69484019      -0.41105557       0.15609008
H        0.00000000       0.00000000       0.00000000       0.03556696       0.27395728      -0.27844274
7
Lattice="529.1772105638412 0.0 0.0 0.0 529.1772105638412 0.0 0.0 0.0 529.1772105638412" Properties=species:S:1:pos:R:3:forces_component_raw:R:3 ipi_comment="Step:       16540  Bead:       0 forces_component_raw{ase}  cell{ase}" pbc="T T T"
O        0.00000000       0.00000000       0.00000000      -1.03136516      -0.37533891      -0.88336212
H        0.00000000       0.00000000       0.00000000       0.47028801       0.06404471       0.26212141
H        0.00000000       0.00000000       0.00000000       0.65795887      -0.05630797       0.99608195
O        0.00000000       0.00000000       0.00000000      -0.27110142       0.64083135      -0.35697821
H        0.00000000       0.00000000       0.00000000       0.28930184       0.13347049      -0.23780780
H        0.00000000       0.00000000       0.00000000      -0.19213265      -0.45826858       0.22678754
H        0.00000000       0.00000000       0.00000000       0.07705039       0.05156884      -0.00684267
7
Lattice="529.1772105638412 0.0 0.0 0.0 529.1772105638412 0.0 0.0 0.0 529.1772105638412" Properties=species:S:1:pos:R:3:forces_component_raw:R:3 ipi_comment="Step:       16560  Bead:       0 forces_component_raw{ase}  cell{ase}" pbc="T T T"
O        0.00000000       0.00000000       0.00000000      -1.08193040      -1.77851189       0.70007599
H        0.00000000       0.00000000       0.00000000       0.74334359       0.51821619      -0.64210993
H        0.00000000       0.00000000       0.00000000       0.40765908       0.47075823       0.15131639
O        0.00000000       0.00000000       0.00000000      -0.09061939       0.56518906      -0.96084696
H        0.00000000       0.00000000       0.00000000      -0.06355794       0.13064280       0.16273306
H        0.00000000       0.00000000       0.00000000      -0.05740771       0.21090561      -0.05322476
H        0.00000000       0.00000000       0.00000000       0.14251277      -0.11719996       0.64205623
7
Lattice="529.1772105638412 0.0 0.0 0.0 529.1772105638412 0.0 0.0 0.0 529.1772105638412" Properties=species:S:1:pos:R:3:forces_component_raw:R:3 ipi_comment="Step:       16580  Bead:       0 forces_component_raw{ase}  cell{ase}" pbc="T T T"
O        0.00000000       0.00000000       0.00000000      -0.02774011       0.38886231      -0.52027655
H        0.00000000       0.00000000       0.00000000       0.40590888       0.32758591       0.04514648
H        0.00000000       0.00000000       0.00000000      -0.40828699      -0.20969453      -0.02050930
O        0.00000000       0.00000000       0.00000000      -0.16643605      -0.19552925      -0.79976463
H        0.00000000       0.00000000       0.00000000      -0.02410882      -0.62646645       0.43786675
H        0.00000000       0.00000000       0.00000000      -0.17663085      -0.10911614      -0.17410453
H        0.00000000       0.00000000       0.00000000       0.39729402       0.42435813       1.03164172
7
Lattice="529.1772105638412 0.0 0.0 0.0 529.1772105638412 0.0 0.0 0.0 529.1772105638412" Properties=species:S:1:pos:R:3:forces_component_raw:R:3 ipi_comment="Step:       16600  Bead:       0 forces_component_raw{ase}  cell{ase}" pbc="T T T"
O        0.00000000       0.00000000       0.00000000       0.36437872      -0.01709768       1.49681807
H        0.00000000       0.00000000       0.00000000      -0.06290841       0.15391296      -0.41999948
H        0.00000000       0.00000000       0.00000000      -0.51471961      -0.07337202      -1.13478256
O        0.00000000       0.00000000       0.00000000      -0.51750493      -1.66047705      -0.68620247
H        0.00000000       0.00000000       0.00000000       0.36084193       0.53281665      -0.22107157
H        0.00000000       0.00000000       0.00000000       0.13624635       0.44032115      -0.10705787
H        0.00000000       0.00000000       0.00000000       0.23366596       0.62389594       1.07229603
7
Lattice="529.1772105638412 0.0 0.0 0.0 529.1772105638412 0.0 0.0 0.0 529.1772105638412" Properties=species:S:1:pos:R:3:forces_component_raw:R:3 ipi_comment="Step:       16620  Bead:       0 forces_component_raw{ase}  cell{ase}" pbc="T T T"
O        0.00000000       0.00000000       0.00000000       2.25528026       1.49882806       0.95702732
H        0.00000000       0.00000000       0.00000000      -0.48034799      -0.32645598       0.38384399
H        0.00000000       0.00000000       0.00000000      -1.63131380      -0.51306164      -1.49668670
O        0.00000000       0.00000000       0.00000000       0.16500220       0.00135732      -0.46388650
H        0.00000000       0.00000000       0.00000000      -0.18912461      -0.44460386      -0.15209408
H        0.00000000       0.00000000       0.00000000      -0.05152811      -0.17781249       0.27667621
H        0.00000000       0.00000000       0.00000000      -0.06796789      -0.03825119       0.49511981
7
Lattice="529.1772105638412 0.0 0.0 0.0 529.1772105638412 0.0 0.0 0.0 529.1772105638412" Properties=species:S:1:pos:R:3:forces_component_raw:R:3 ipi_comment="Step:       16640  Bead:       0 forces_component_raw{ase}  cell{ase}" pbc="T T T"
O        0.00000000       0.00000000       0.00000000       1.10907400      -0.08325856       1.60423160
H        0.00000000       0.00000000       0.00000000      -0.54080111      -0.55592829      -0.01334700
H        0.00000000       0.00000000       0.00000000      -0.86821079       0.12604609      -1.18239069
O        0.00000000       0.00000000       0.00000000      -0.77624786      -0.18291044       0.96348703
H        0.00000000       0.00000000       0.00000000       0.67478120       0.28489852       0.04242776
H        0.00000000       0.00000000       0.00000000       0.24063760       0.19091961      -0.43828198
H        0.00000000       0.00000000       0.00000000       0.16076694       0.22023317      -0.97612673
7
Lattice="529.1772105638412 0.0 0.0 0.0 529.1772105638412 0.0 0.0 0.0 529.1772105638412" Properties=species:S:1:pos:R:3:forces_component_raw:R:3 ipi_comment="Step:       16660  Bead:       0 forces_component_raw{ase}  cell{ase}" pbc="T T T"
O        0.00000000       0.00000000       0.00000000       0.44206241       0.65678901      -0.23080248
H        0.00000000       0.00000000       0.00000000       0.00437611      -0.87346131       0.63327456
H        0.00000000       0.00000000       0.00000000       0.01365167      -0.28761602       0.20038071
O        0.00000000       0.00000000       0.00000000       0.15059409       1.92468822      -0.19119835
H        0.00000000       0.00000000       0.00000000      -0.62747121      -0.56590659       0.40686390
H        0.00000000       0.00000000       0.00000000      -0.10285668       0.11620222       0.11969698
H        0.00000000       0.00000000       0.00000000       0.11964364      -0.97069556      -0.93821538
7
Lattice="529.1772105638412 0.0 0.0 0.0 529.1772105638412 0.0 0.0 0.0 529.1772105638412" Properties=species:S:1:pos:R:3:forces_component_raw:R:3 ipi_comment="Step:       16680  Bead:       0 forces_component_raw{ase}  cell{ase}" pbc="T T T"
O        0.00000000       0.00000000       0.00000000      -0.59473914      -0.02727930      -0.26332676
H        0.00000000       0.00000000       0.00000000      -0.26765043      -0.83806759       0.29695898
H        0.00000000       0.00000000       0.00000000       0.86992967       0.45665056       0.15566234
O        0.00000000       0.00000000       0.00000000      -0.74294138       0.15232295       1.33176482
H        0.00000000       0.00000000       0.00000000      -0.09389542       1.02049899      -0.44733292
H        0.00000000       0.00000000       0.00000000       0.21424213      -0.03104389       0.20531164
H        0.00000000       0.00000000       0.00000000       0.61505449      -0.73308170      -1.27903819
7
Lattice="529.1772105638412 0.0 0.0 0.0 529.1772105638412 0.0 0.0 0.0 529.1772105638412" Properties=species:S:1:pos:R:3:forces_component_raw:R:3 ipi_comment="Step:       16700  Bead:       0 forces_component_raw{ase}  cell{ase}" pbc="T T T"
O        0.00000000       0.00000000       0.00000000      -0.79085684      -0.22473109      -0.04145926
H        0.00000000       0.00000000       0.00000000      -0.33247906      -0.59823346       0.28731680
H        0.00000000       0.00000000       0.00000000       1.24324286       0.37089533       0.57563365
O        0.00000000       0.00000000       0.00000000      -1.01220298       1.74187351       0.47005880
H        0.00000000       0.00000000       0.00000000       0.11412690      -0.57161802      -0.35710561
H        0.00000000       0.00000000       0.00000000       0.20076296       0.42496535      -0.03374779
H        0.00000000       0.00000000       0.00000000       0.57740611      -1.14315176      -0.90069664
7
Lattice="529.1772105638412 0.0 0.0 0.0 529.1772105638412 0.0 0.0 0.0 529.1772105638412" Properties=species:S:1:pos:R:3:forces_component_raw:R:3 ipi_comment="Step:       16720  Bead:       0 forces_component_raw{ase}  cell{ase}" pbc="T T T"
O        0.00000000       0.00000000       0.00000000      -1.13059914      -0.52261287      -0.79174024
H        0.00000000       0.00000000       0.00000000       0.11084101       0.42688668      -0.08642901
H        0.00000000       0.00000000       0.00000000       0.95802379       0.16628557       0.64551270
O        0.00000000       0.00000000       0.00000000      -0.57829458      -0.44024414       1.18001783
H        0.00000000       0.00000000       0.00000000       0.20672293      -0.03502972       0.45979738
H        0.00000000       0.00000000       0.00000000       0.33420864       0.46000236      -0.18851763
H        0.00000000       0.00000000       0.00000000       0.09909741      -0.05528796      -1.21864105
7
Lattice="529.1772105638412 0.0 0.0 0.0 529.1772105638412 0.0 0.0 0.0 529.1772105638412" Properties=species:S:1:pos:R:3:forces_component_raw:R:3 ipi_comment="Step:       16740  Bead:       0 forces_component_raw{ase}  cell{ase}" pbc="T T T"
O        0.00000000       0.00000000       0.00000000      -1.51122022      -0.09754795      -0.69427908
H        0.00000000       0.00000000       0.00000000       0.90878940       0.92274195      -0.09803692
H        0.00000000       0.00000000       0.00000000       0.62760312      -0.59203810       0.66245318
O        0.00000000       0.00000000       0.00000000      -0.29496631      -1.88534379       0.01508814
H        0.00000000       0.00000000       0.00000000      -0.02991344       0.61516661      -0.53562158
H        0.00000000       0.00000000       0.00000000       0.45404276       0.95426595       0.48184791
H        0.00000000       0.00000000       0.00000000      -0.15433532       0.08275533       0.16854835
7
Lattice="529.1772105638412 0.0 0.0 0.0 529.1772105638412 0.0 0.0 0.0 529.1772105638412" Properties=species:S:1:pos:R:3:forces_component_raw:R:3 ipi_comment="Step:       16760  Bead:       0 forces_component_raw{ase}  cell{ase}" pbc="T T T"
O        0.00000000       0.00000000       0.00000000      -0.68133974       0.44829679      -0.64214766
H        0.00000000       0.00000000       0.00000000      -0.08399397       0.15449294      -0.26316837
H        0.00000000       0.00000000       0.00000000       0.49506119       0.05466553      -0.04565528
O        0.00000000       0.00000000       0.00000000      -0.75350511      -1.53137684      -0.35046429
H        0.00000000       0.00000000       0.00000000       0.26411811      -0.61837119       0.31487763
H        0.00000000       0.00000000       0.00000000       0.08882667       0.63572872      -0.39131057
H        0.00000000       0.00000000       0.00000000       0.67083293       0.85656417       1.37786854
7
Lattice="529.1772105638412 0.0 0.0 0.0 529.1772105638412 0.0 0.0 0.0 529.1772105638412" Properties=species:S:1:pos:R:3:forces_component_raw:R:3 ipi_comment="Step:       16780  Bead:       0 forces_component_raw{ase}  cell{ase}" pbc="T T T"
O        0.00000000       0.00000000       0.00000000       1.71741105      -0.09944353      -0.49061284
H        0.00000000       0.00000000       0.00000000      -0.82057542      -0.46776033       0.34891248
H        0.00000000       0.00000000       0.00000000      -0.72402126       0.39981490      -0.15364850
O        0.00000000       0.00000000       0.00000000      -0.54619068      -0.13820362      -1.08804214
H        0.00000000       0.00000000       0.00000000      -0.30368403       0.45974517      -0.00066917
H        0.00000000       0.00000000       0.00000000      -0.05835900      -0.70405281       0.39045671
H        0.00000000       0.00000000       0.00000000       0.73541933       0.54990023       0.99360359
7
Lattice="529.1772105638412 0.0 0.0 0.0 529.1772105638412 0.0 0.0 0.0 529.1772105638412" Properties=species:S:1:pos:R:3:forces_component_raw:R:3 ipi_comment="Step:       16800  Bead:       0 forces_component_raw{ase}  cell{ase}" pbc="T T T"
O        0.00000000       0.00000000       0.00000000       1.09972966      -0.08210301      -0.56543642
H        0.00000000       0.00000000       0.00000000      -0.35814482      -0.55922806       0.99850470
H        0.00000000       0.00000000       0.00000000      -1.12297154       0.50938302      -0.21077012
O        0.00000000       0.00000000       0.00000000       0.68428022       2.55078412      -0.09722775
H        0.00000000       0.00000000       0.00000000       0.42121989       0.06528622      -0.40980271
H        0.00000000       0.00000000       0.00000000      -0.34658846      -2.05739737       0.67806411
H        0.00000000       0.00000000       0.00000000      -0.37752500      -0.42672503      -0.39333195
7
Lattice="529.1772105638412 0.0 0.0 0.0 529.1772105638412 0.0 0.0 0.0 529.1772105638412" Properties=species:S:1:pos:R:3:forces_component_raw:R:3 ipi_comment="Step:       16820  Bead:       0 forces_component_raw{ase}  cell{ase}" pbc="T T T"
O        0.00000000       0.00000000       0.00000000       1.81148267      -0.88429070       0.10432699
H        0.00000000       0.00000000       0.00000000      -0.51609999      -0.03024061       0.84476984
H        0.00000000       0.00000000       0.00000000      -0.84979522       0.53088164      -0.09973197
O        0.00000000       0.00000000       0.00000000       0.49032813       2.65952635      -0.97898591
H        0.00000000       0.00000000       0.00000000      -0.64829248       0.00059801       0.13443534
H        0.00000000       0.00000000       0.00000000       0.22748107      -1.55960846       0.42000577
H        0.00000000       0.00000000       0.00000000      -0.51510388      -0.71686632      -0.42482004
7
Lattice="529.1772105638412 0.0 0.0 0.0 529.1772105638412 0.0 0.0 0.0 529.1772105638412" Properties=species:S:1:pos:R:3:forces_component_raw:R:3 ipi_comment="Step:       16840  Bead:       0 forces_component_raw{ase}  cell{ase}" pbc="T T T"
O        0.00000000       0.00000000       0.00000000      -1.00931204       0.62768930      -0.11149985
H        0.00000000       0.00000000       0.00000000       0.15486753      -0.04198252       0.26602173
H        0.00000000       0.00000000       0.00000000       0.59237087      -0.47949237      -0.01333527
O        0.00000000       0.00000000       0.00000000       0.60262013       0.13913085      -0.15902758
H        0.00000000       0.00000000       0.00000000       0.30300993      -0.22539643       0.51101267
H        0.00000000       0.00000000       0.00000000      -0.15500042       0.27518910      -0.00746274
H        0.00000000       0.00000000       0.00000000      -0.48855621      -0.29513791      -0.48570874
7
Lattice="529.1772105638412 0.0 0.0 0.0 529.1772105638412 0.0 0.0 0.0 529.1772105638412" Properties=species:S:1:pos:R:3:forces_component_raw:R:3 ipi_comment="Step:       16860  Bead:       0 forces_component_raw{ase}  cell{ase}" pbc="T T T"
O        0.00000000       0.00000000       0.00000000      -1.24257946       1.54834950       0.64919663
H        0.00000000       0.00000000       0.00000000       0.21151909       0.02258512      -0.45487923
H        0.00000000       0.00000000       0.00000000       1.02500153      -1.55758632       0.17371979
O        0.00000000       0.00000000       0.00000000       0.31222570      -1.02086938      -0.19082427
H        0.00000000       0.00000000       0.00000000       0.10254194       0.04233825      -0.08168249
H        0.00000000       0.00000000       0.00000000      -0.32185790       1.02022863       0.11374918
H        0.00000000       0.00000000       0.00000000      -0.08685093      -0.05504563      -0.20927961
7
Lattice="529.1772105638412 0.0 0.0 0.0 529.1772105638412 0.0 0.0 0.0 529.1772105638412" Properties=species:S:1:pos:R:3:forces_component_raw:R:3 ipi_comment="Step:       16880  Bead:       0 forces_component_raw{ase}  cell{ase}" pbc="T T T"
O        0.00000000       0.00000000       0.00000000      -0.10603257       1.19242442      -1.06184316
H        0.00000000       0.00000000       0.00000000       0.10450271      -0.35013390       0.01177211
H        0.00000000       0.00000000       0.00000000       0.07424212      -0.92745453       0.96737123
O        0.00000000       0.00000000       0.00000000       0.51460356      -1.55094886      -0.29545862
H        0.00000000       0.00000000       0.00000000      -0.36280960      -0.15804535      -0.02368516
H        0.00000000       0.00000000       0.00000000      -0.63281703       1.54662466      -0.14713079
H        0.00000000       0.00000000       0.00000000       0.40831077       0.24753332       0.54897434
7
Lattice="529.1772105638412 0.0 0.0 0.0 529.1772105638412 0.0 0.0 0.0 529.1772105638412" Properties=species:S:1:pos:R:3:forces_component_raw:R:3 ipi_comment="Step:       16900  Bead:       0 forces_component_raw{ase}  cell{ase}" pbc="T T T"
O        0.00000000       0.00000000       0.00000000      -0.56633759       0.31945217      -0.14036888
H        0.00000000       0.00000000       0.00000000       0.04360664       0.63169551      -0.18498325
H        0.00000000       0.00000000       0.00000000       0.13073841      -0.70564544      -0.44717634
O        0.00000000       0.00000000       0.00000000       0.48463923      -2.07030011      -0.10771178
H        0.00000000       0.00000000       0.00000000       0.49333215      -0.21404165       0.66531664
H        0.00000000       0.00000000       0.00000000      -0.95097900       1.40305996      -0.17867965
H        0.00000000       0.00000000       0.00000000       0.36500022       0.63577968       0.39360315
7
Lattice="529.1772105638412 0.0 0.0 0.0 529.1772105638412 0.0 0.0 0.0 529.1772105638412" Properties=species:S:1:pos:R:3:forces_component_raw:R:3 ipi_comment="Step:       16920  Bead:       0 forces_component_raw{ase}  cell{ase}" pbc="T T T"
O        0.00000000       0.00000000       0.00000000       1.23211026      -0.43073058      -0.70161498
H        0.00000000       0.00000000       0.00000000      -0.63049859      -0.06612018       0.89332986
H        0.00000000       0.00000000       0.00000000      -0.34023112       0.57892048       0.20702055
O        0.00000000       0.00000000       0.00000000      -0.02350324      -1.50411070      -0.16515619
H        0.00000000       0.00000000       0.00000000      -0.13836005       0.17915414      -0.15259813
H        0.00000000       0.00000000       0.00000000      -0.24930510       1.21042383      -0.04491350
H        0.00000000       0.00000000       0.00000000       0.14978784       0.03246295      -0.03606754
7
Lattice="529.1772105638412 0.0 0.0 0.0 529.1772105638412 0.0 0.0 0.0 529.1772105638412" Properties=species:S:1:pos:R:3:forces_component_raw:R:3 ipi_comment="Step:       16940  Bead:       0 forces_component_raw{ase}  cell{ase}" pbc="T T T"
O        0.00000000       0.00000000       0.00000000       0.09192979      -1.30277360       1.36065913
H        0.00000000       0.00000000       0.00000000       0.18537763       0.83191598       0.34479141
H        0.00000000       0.00000000       0.00000000       0.24554472       0.71870101      -1.12553859
O        0.00000000       0.00000000       0.00000000       0.43577528       0.43414524      -0.11463329
H        0.00000000       0.00000000       0.00000000      -0.57425487      -0.52408218      -0.05277172
H        0.00000000       0.00000000       0.00000000      -0.01693793       0.46652281      -0.35974640
H        0.00000000       0.00000000       0.00000000      -0.36743468      -0.62442905      -0.05276046
7
Lattice="529.1772105638412 0.0 0.0 0.0 529.1772105638412 0.0 0.0 0.0 529.1772105638412" Properties=species:S:1:pos:R:3:forces_component_raw:R:3 ipi_comment="Step:       16960  Bead:       0 forces_component_raw{ase}  cell{ase}" pbc="T T T"
O        0.00000000       0.00000000       0.00000000      -0.76457203      -1.56263614      -0.91049218
H        0.00000000       0.00000000       0.00000000       0.01506882      -0.22995022       0.75201917
H        0.00000000       0.00000000       0.00000000       0.44842363       1.26248527       0.33720785
O        0.00000000       0.00000000       0.00000000       0.40515429       0.86481101      -0.56363887
H        0.00000000       0.00000000       0.00000000       0.70281297       0.70502955       0.44564131
H        0.00000000       0.00000000       0.00000000      -0.05869080      -0.52093947       0.25044137
H        0.00000000       0.00000000       0.00000000      -0.74819690      -0.51880002      -0.31117901
7
Lattice="529.1772105638412 0.0 0.0 0.0 529.1772105638412 0.0 0.0 0.0 529.1772105638412" Properties=species:S:1:pos:R:3:forces_component_raw:R:3 ipi_comment="Step:       16980  Bead:       0 forces_component_raw{ase}  cell{ase}" pbc="T T T"
O        0.00000000       0.00000000       0.00000000       0.83529532       1.23004198       1.08132661
H        0.00000000       0.00000000       0.00000000      -0.44306976      -0.39658293      -0.71038675
H        0.00000000       0.00000000       0.00000000      -0.29215586      -0.57856846      -0.18530913
O        0.00000000       0.00000000       0.00000000       1.03951955       1.99942995      -0.79203034
H        0.00000000       0.00000000       0.00000000      -0.34950584      -0.82883740      -0.07201190
H        0.00000000       0.00000000       0.00000000      -0.14726311      -1.01282025       0.42989713
H        0.00000000       0.00000000       0.00000000      -0.64282030      -0.41266281       0.24851427
7
Lattice="529.1772105638412 0.0 0.0 0.0 529.1772105638412 0.0 0.0 0.0 529.1772105638412" Properties=species:S:1:pos:R:3:forces_component_raw:R:3 ipi_comment="Step:       17000  Bead:       0 forces_component_raw{ase}  cell{ase}" pbc="T T T"
O        0.00000000       0.00000000       0.00000000       0.13715720       1.92862940      -1.36430955
H        0.00000000       0.00000000       0.00000000      -1.09680486      -1.91928983      -0.32443461
H        0.00000000       0.00000000       0.00000000       0.76453757      -0.34226820       1.11360598
O        0.00000000       0.00000000       0.00000000      -0.32292351       0.12374494      -0.00692594
H        0.00000000       0.00000000       0.00000000       0.06709154       0.78319049      -0.14007703
H        0.00000000       0.00000000       0.00000000       0.03701517      -0.68020135       0.76766962
H        0.00000000       0.00000000       0.00000000       0.41392702       0.10619450      -0.04552817
7
Lattice="529.1772105638412 0.0 0.0 0.0 529.1772105638412 0.0 0.0 0.0 529.1772105638412" Properties=species:S:1:pos:R:3:forces_component_raw:R:3 ipi_comment="Step:       17020  Bead:       0 forces_component_raw{ase}  cell{ase}" pbc="T T T"
O        0.00000000       0.00000000       0.00000000       1.62824297       3.34876633       0.03762685
H        0.00000000       0.00000000       0.00000000      -1.58103395      -1.10844290      -0.33663905
H        0.00000000       0.00000000       0.00000000      -0.06405713      -1.58173657       0.08491550
O        0.00000000       0.00000000       0.00000000      -0.43752915       0.48428717      -0.24152190
H        0.00000000       0.00000000       0.00000000      -0.05213868      -0.86569405       0.06769148
H        0.00000000       0.00000000       0.00000000      -0.24822176      -0.51410580       0.42113763
H        0.00000000       0.00000000       0.00000000       0.75473762       0.23692566      -0.03321057
7
Lattice="529.1772105638412 0.0 0.0 0.0 529.1772105638412 0.0 0.0 0.0 529.1772105638412" Properties=species:S:1:pos:R:3:forces_component_raw:R:3 ipi_comment="Step:       17040  Bead:       0 forces_component_raw{ase}  cell{ase}" pbc="T T T"
O        0.00000000       0.00000000       0.00000000      -1.37678600       0.81193602      -0.41410530
H        0.00000000       0.00000000       0.00000000       0.25017563      -0.54223919      -0.00577189
H        0.00000000       0.00000000       0.00000000       1.15273643      -0.52933407       0.50831401
O        0.00000000       0.00000000       0.00000000      -1.25442934      -0.16316477      -0.47165039
H        0.00000000       0.00000000       0.00000000       0.08155799       0.47806484       0.07696342
H        0.00000000       0.00000000       0.00000000       0.18011630       0.03066787       0.25194487
H        0.00000000       0.00000000       0.00000000       0.96662891      -0.08593075       0.05430532
7
Lattice="529.1772105638412 0.0 0.0 0.0 529.1772105638412 0.0 0.0 0.0 529.1772105638412" Properties=species:S:1:pos:R:3:forces_component_raw:R:3 ipi_comment="Step:       17060  Bead:       0 forces_component_raw{ase}  cell{ase}" pbc="T T T"
O        0.00000000       0.00000000       0.00000000      -0.23860741      -0.26646739       1.26202345
H        0.00000000       0.00000000       0.00000000       0.77815950       1.53141284      -0.51893938
H        0.00000000       0.00000000       0.00000000      -0.41701070      -0.93910289      -0.20351145
O        0.00000000       0.00000000       0.00000000      -0.22138733       0.41106841      -0.68161720
H        0.00000000       0.00000000       0.00000000      -0.42717633      -0.46821743      -0.17494246
H        0.00000000       0.00000000       0.00000000      -0.31635961      -0.21515524       0.20377609
H        0.00000000       0.00000000       0.00000000       0.84238184      -0.05353835       0.11321089
7
Lattice="529.1772105638412 0.0 0.0 0.0 529.1772105638412 0.0 0.0 0.0 529.1772105638412" Properties=species:S:1:pos:R:3:forces_component_raw:R:3 ipi_comment="Step:       17080  Bead:       0 forces_component_raw{ase}  cell{ase}" pbc="T T T"
O        0.00000000       0.00000000       0.00000000      -2.76371098      -1.47253514      -0.71349943
H        0.00000000       0.00000000       0.00000000       1.80251706       0.68002039       0.11893217
H        0.00000000       0.00000000       0.00000000       0.52924162       0.46599418       0.10585287
O        0.00000000       0.00000000       0.00000000       0.36852038      -0.07864361      -0.14490205
H        0.00000000       0.00000000       0.00000000       0.51540285       0.39814639       0.49639529
H        0.00000000       0.00000000       0.00000000      -0.11496478      -0.03802036       0.10814661
H        0.00000000       0.00000000       0.00000000      -0.33700609       0.04503816       0.02907458
7
Lattice="529.1772105638412 0.0 0.0 0.0 529.1772105638412 0.0 0.0 0.0 529.1772105638412" Properties=species:S:1:pos:R:3:forces_component_raw:R:3 ipi_comment="Step:       17100  Bead:       0 forces_component_raw{ase}  cell{ase}" pbc="T T T"
O        0.00000000       0.00000000       0.00000000       0.29294729      -2.24645544       1.17357183
H        0.00000000       0.00000000       0.00000000       0.61048389       1.38052523      -0.05950013
H        0.00000000       0.00000000       0.00000000      -0.85545159       0.92601764      -0.88595724
O        0.00000000       0.00000000       0.00000000       0.63083995       0.28467968       1.02705240
H        0.00000000       0.00000000       0.00000000      -0.36092496      -0.18038257      -0.68993497
H        0.00000000       0.00000000       0.00000000       0.10185280      -0.20379368      -0.50142950
H        0.00000000       0.00000000       0.00000000      -0.41974747       0.03940901      -0.06380221
7
Lattice="529.1772105638412 0.0 0.0 0.0 529.1772105638412 0.0 0.0 0.0 529.1772105638412" Properties=species:S:1:pos:R:3:forces_component_raw:R:3 ipi_comment="Step:       17120  Bead:       0 forces_component_raw{ase}  cell{ase}" pbc="T T T"
O        0.00000000       0.00000000       0.00000000      -0.53163684      -0.62329716      -0.61874545
H        0.00000000       0.00000000       0.00000000       0.18244061      -0.51122916       0.52998626
H        0.00000000       0.00000000       0.00000000       0.26914564       0.97306901      -0.03618360
O        0.00000000       0.00000000       0.00000000       0.11863190      -0.11534828       0.35704899
H        0.00000000       0.00000000       0.00000000       0.27679750       0.32218421       0.41157234
H        0.00000000       0.00000000       0.00000000       0.67396611      -0.49507269      -0.69706869
H        0.00000000       0.00000000       0.00000000      -0.98934472       0.44969404       0.05339021
7
Lattice="529.1772105638412 0.0 0.0 0.0 529.1772105638412 0.0 0.0 0.0 529.1772105638412" Properties=species:S:1:pos:R:3:forces_component_raw:R:3 ipi_comment="Step:       17140  Bead:       0 forces_component_raw{ase}  cell{ase}" pbc="T T T"
O        0.00000000       0.00000000       0.00000000       0.57267827       1.29233134       1.17658568
H        0.00000000       0.00000000       0.00000000      -0.18504402      -0.57909703      -0.81109685
H        0.00000000       0.00000000       0.00000000      -0.10251090      -0.64259172      -0.22407694
O        0.00000000       0.00000000       0.00000000       0.28493869       0.34661117       1.49631596
H        0.00000000       0.00000000       0.00000000      -0.50134480      -0.23287031      -0.16580027
H        0.00000000       0.00000000       0.00000000       0.30627391      -0.36568698      -0.98704827
H        0.00000000       0.00000000       0.00000000      -0.37499115       0.18130353      -0.48487932
7
Lattice="529.1772105638412 0.0 0.0 0.0 529.1772105638412 0.0 0.0 0.0 529.1772105638412" Properties=species:S:1:pos:R:3:forces_component_raw:R:3 ipi_comment="Step:       17160  Bead:       0 forces_component_raw{ase}  cell{ase}" pbc="T T T"
O        0.00000000       0.00000000       0.00000000       0.57165408       1.31639505      -1.18204236
H        0.00000000       0.00000000       0.00000000      -0.09504424      -1.66083622       0.02326900
H        0.00000000       0.00000000       0.00000000      -0.29666507       0.22304940       1.04271341
O        0.00000000       0.00000000       0.00000000      -0.19545755      -0.38845131      -0.38455588
H        0.00000000       0.00000000       0.00000000       0.02706519       0.17552537       0.34497786
H        0.00000000       0.00000000       0.00000000       0.24307206      -0.07570481       0.21384168
H        0.00000000       0.00000000       0.00000000      -0.25462455       0.41002250      -0.05820370
7
Lattice="529.1772105638412 0.0 0.0 0.0 529.1772105638412 0.0 0.0 0.0 529.1772105638412" Properties=species:S:1:pos:R:3:forces_component_raw:R:3 ipi_comment="Step:       17180  Bead:       0 forces_component_raw{ase}  cell{ase}" pbc="T T T"
O        0.00000000       0.00000000       0.00000000       0.25935245       2.82145548       0.46915069
H        0.00000000       0.00000000       0.00000000       0.19425562      -1.39383972      -1.16708184
H        0.00000000       0.00000000       0.00000000      -0.30678797      -1.39482570       0.32175970
O        0.00000000       0.00000000       0.00000000      -0.30884668      -0.40289998      -0.11198437
H        0.00000000       0.00000000       0.00000000       0.04897144      -0.24689338       0.21865456
H        0.00000000       0.00000000       0.00000000       0.03305703       0.39761514       0.45656553
H        0.00000000       0.00000000       0.00000000       0.07999823       0.21938819      -0.18706426
7
Lattice="529.1772105638412 0.0 0.0 0.0 529.1772105638412 0.0 0.0 0.0 529.1772105638412" Properties=species:S:1:pos:R:3:forces_component_raw:R:3 ipi_comment="Step:       17200  Bead:       0 forces_component_raw{ase}  cell{ase}" pbc="T T T"
O        0.00000000       0.00000000       0.00000000      -0.36131144       0.76888609      -1.31662321
H        0.00000000       0.00000000       0.00000000      -0.01610687      -1.25069189       0.21697123
H        0.00000000       0.00000000       0.00000000       0.01667637       0.28705403       0.94156271
O        0.00000000       0.00000000       0.00000000       0.38844699      -0.28101021      -0.25239450
H        0.00000000       0.00000000       0.00000000      -0.01638403       0.26114547      -0.38282979
H        0.00000000       0.00000000       0.00000000      -0.41865063       0.73777729       0.43049845
H        0.00000000       0.00000000       0.00000000       0.40732968      -0.52316052       0.36281529
7
Lattice="529.1772105638412 0.0 0.0 0.0 529.1772105638412 0.0 0.0 0.0 529.1772105638412" Properties=species:S:1:pos:R:3:forces_component_raw:R:3 ipi_comment="Step:       17220  Bead:       0 forces_component_raw{ase}  cell{ase}" pbc="T T T"
O        0.00000000       0.00000000       0.00000000      -0.23461738       0.90070862      -0.05742164
H        0.00000000       0.00000000       0.00000000       0.18293071       0.02093717      -0.06812485
H        0.00000000       0.00000000       0.00000000      -0.19465824      -0.34901410      -0.34889627
O        0.00000000       0.00000000       0.00000000      -0.35015589       0.65473092      -0.94167918
H        0.00000000       0.00000000       0.00000000       0.09493504      -0.67450690       0.50404251
H        0.00000000       0.00000000       0.00000000      -0.08589400       0.28940034       0.20391175
H        0.00000000       0.00000000       0.00000000       0.58745980      -0.84225583       0.70816773
7
Lattice="529.1772105638412 0.0 0.0 0.0 529.1772105638412 0.0 0.0 0.0 529.1772105638412" Properties=species:S:1:pos:R:3:forces_component_raw:R:3 ipi_comment="Step:       17240  Bead:       0 forces_component_raw{ase}  cell{ase}" pbc="T T T"
O        0.00000000       0.00000000       0.00000000       0.23438808      -1.70674432       1.58349014
H        0.00000000       0.00000000       0.00000000       0.01663648       0.65655863      -0.04357523
H        0.00000000       0.00000000       0.00000000      -0.11513753       0.76101208      -0.81671971
O        0.00000000       0.00000000       0.00000000       0.04028636       0.49726796       0.22713393
H        0.00000000       0.00000000       0.00000000       0.15428439       0.80277038      -0.59919346
H        0.00000000       0.00000000       0.00000000      -0.52923137      -0.51316989      -0.55432356
H        0.00000000       0.00000000       0.00000000       0.19877361      -0.49769491       0.20318782
7
Lattice="529.1772105638412 0.0 0.0 0.0 529.1772105638412 0.0 0.0 0.0 529.1772105638412" Properties=species:S:1:pos:R:3:forces_component_raw:R:3 ipi_comment="Step:       17260  Bead:       0 forces_component_raw{ase}  cell{ase}" pbc="T T T"
O        0.00000000       0.00000000       0.00000000       0.32930046      -0.38381076       0.66119504
H        0.00000000       0.00000000       0.00000000       0.40126693       0.66722250       0.29754824
H        0.00000000       0.00000000       0.00000000      -0.16905220       0.34083337      -0.56773162
O        0.00000000       0.00000000       0.00000000      -0.83932054       1.53063345      -1.26648093
H        0.00000000       0.00000000       0.00000000      -0.02859199      -1.04521549       0.53960019
H        0.00000000       0.00000000       0.00000000       0.36558944      -1.36574245       0.62085062
H        0.00000000       0.00000000       0.00000000      -0.05919209       0.25607956      -0.28498155
7
Lattice="529.1772105638412 0.0 0.0 0.0 529.1772105638412 0.0 0.0 0.0 529.1772105638412" Properties=species:S:1:pos:R:3:forces_component_raw:R:3 ipi_comment="Step:       17280  Bead:       0 forces_component_raw{ase}  cell{ase}" pbc="T T T"
O        0.00000000       0.00000000       0.00000000       0.60438562      -1.72955370       1.52004528
H        0.00000000       0.00000000       0.00000000      -0.05863621       0.61222816      -0.28496313
H        0.00000000       0.00000000       0.00000000      -0.21272811       0.51992095      -0.91905487
O        0.00000000       0.00000000       0.00000000       1.33367241       0.45912996       1.14563179
H        0.00000000       0.00000000       0.00000000      -0.36980906       1.07637716      -0.36877945
H        0.00000000       0.00000000       0.00000000      -0.49081022      -0.87596572      -0.26238895
H        0.00000000       0.00000000       0.00000000      -0.80607438      -0.06213677      -0.83049059
7
Lattice="529.1772105638412 0.0 0.0 0.0 529.1772105638412 0.0 0.0 0.0 529.1772105638412" Properties=species:S:1:pos:R:3:forces_component_raw:R:3 ipi_comment="Step:       17300  Bead:       0 forces_component_raw{ase}  cell{ase}" pbc="T T T"
O        0.00000000       0.00000000       0.00000000      -0.83586365      -0.45536250      -1.12875319
H        0.00000000       0.00000000       0.00000000       0.30268100       0.10787419       0.50024808
H        0.00000000       0.00000000       0.00000000      -0.00288346       0.24011985      -0.02316701
O        0.00000000       0.00000000       0.00000000       1.12805403       0.84755278       0.16002587
H        0.00000000       0.00000000       0.00000000      -0.03154668      -0.60971707       0.19169372
H        0.00000000       0.00000000       0.00000000       0.17462030      -0.94145584       0.99336803
H        0.00000000       0.00000000       0.00000000      -0.73506147       0.81098867      -0.69341552
7
Lattice="529.1772105638412 0.0 0.0 0.0 529.1772105638412 0.0 0.0 0.0 529.1772105638412" Properties=species:S:1:pos:R:3:forces_component_raw:R:3 ipi_comment="Step:       17320  Bead:       0 forces_component_raw{ase}  cell{ase}" pbc="T T T"
O        0.00000000       0.00000000       0.00000000      -0.36703146       1.08292210      -0.52905017
H        0.00000000       0.00000000       0.00000000      -0.09646783      -0.36375421      -0.22791211
H        0.00000000       0.00000000       0.00000000      -0.01103422      -0.89444465       0.52124792
O        0.00000000       0.00000000       0.00000000       2.21762228      -0.65150589      -0.22314391
H        0.00000000       0.00000000       0.00000000       0.24712981       0.63728744      -0.24574743
H        0.00000000       0.00000000       0.00000000      -1.11391187      -0.58877224       0.27377635
H        0.00000000       0.00000000       0.00000000      -0.87630677       0.77826733       0.43082929
7
Lattice="529.1772105638412 0.0 0.0 0.0 529.1772105638412 0.0 0.0 0.0 529.1772105638412" Properties=species:S:1:pos:R:3:forces_component_raw:R:3 ipi_comment="Step:       17340  Bead:       0 forces_component_raw{ase}  cell{ase}" pbc="T T T"
O        0.00000000       0.00000000       0.00000000       0.05629797       2.95006824      -1.06327749
H        0.00000000       0.00000000       0.00000000      -0.14926431      -1.34882260      -0.09812473
H        0.00000000       0.00000000       0.00000000       0.05923122      -1.00753451       1.27721584
O        0.00000000       0.00000000       0.00000000      -0.45900425      -0.48620635      -0.37604243
H        0.00000000       0.00000000       0.00000000       0.54574752      -0.45397401       0.22888638
H        0.00000000       0.00000000       0.00000000      -0.00281458      -0.35215855       0.03737056
H        0.00000000       0.00000000       0.00000000      -0.05019362       0.69862783      -0.00602821
7
Lattice="529.1772105638412 0.0 0.0 0.0 529.1772105638412 0.0 0.0 0.0 529.1772105638412" Properties=species:S:1:pos:R:3:forces_component_raw:R:3 ipi_comment="Step:       17360  Bead:       0 forces_component_raw{ase}  cell{ase}" pbc="T T T"
O        0.00000000       0.00000000       0.00000000       0.66275984       1.08934736      -1.14979804
H        0.00000000       0.00000000       0.00000000      -0.22890997      -0.75711799      -0.03629822
H        0.00000000       0.00000000       0.00000000       0.15210389      -0.25199145       1.53270102
O        0.00000000       0.00000000       0.00000000       0.61866623      -0.44131285       0.54057384
H        0.00000000       0.00000000       0.00000000      -0.59349060       0.28120768      -0.19019747
H        0.00000000       0.00000000       0.00000000      -0.32844371       0.26210851      -0.56339693
H        0.00000000       0.00000000       0.00000000      -0.28268564      -0.18224126      -0.13358417
7
Lattice="529.1772105638412 0.0 0.0 0.0 529.1772105638412 0.0 0.0 0.0 529.1772105638412" Properties=species:S:1:pos:R:3:forces_component_raw:R:3 ipi_comment="Step:       17380  Bead:       0 forces_component_raw{ase}  cell{ase}" pbc="T T T"
O        0.00000000       0.00000000       0.00000000       0.54895443       0.38429058      -0.25826886
H        0.00000000       0.00000000       0.00000000      -0.32074344      -0.49089712       0.12230608
H        0.00000000       0.00000000       0.00000000       0.20881125       0.28753662       0.62066209
O        0.00000000       0.00000000       0.00000000      -1.11811948       0.12860186      -1.51692438
H        0.00000000       0.00000000       0.00000000      -0.26504660      -0.45818973       0.26172856
H        0.00000000       0.00000000       0.00000000       0.45287532       0.38054913       0.41720754
H        0.00000000       0.00000000       0.00000000       0.49326855      -0.23189127       0.35328901
7
Lattice="529.1772105638412 0.0 0.0 0.0 529.1772105638412 0.0 0.0 0.0 529.1772105638412" Properties=species:S:1:pos:R:3:forces_component_raw:R:3 ipi_comment="Step:       17400  Bead:       0 forces_component_raw{ase}  cell{ase}" pbc="T T T"
O        0.00000000       0.00000000       0.00000000      -0.35045344       0.64823860       0.76154143
H        0.00000000       0.00000000       0.00000000      -0.26046696      -0.50539595      -0.36545149
H        0.00000000       0.00000000       0.00000000       0.19537893      -0.40887857      -0.48538464
O        0.00000000       0.00000000       0.00000000      -0.22689498      -0.25669134      -0.21521258
H        0.00000000       0.00000000       0.00000000       0.22919744       0.02289763      -0.17164896
H        0.00000000       0.00000000       0.00000000       0.22647813       1.72389806      -0.55489850
H        0.00000000       0.00000000       0.00000000       0.18676080      -1.22406829       1.03105474
7
Lattice="529.1772105638412 0.0 0.0 0.0 529.1772105638412 0.0 0.0 0.0 529.1772105638412" Properties=species:S:1:pos:R:3:forces_component_raw:R:3 ipi_comment="Step:       17420  Bead:       0 forces_component_raw{ase}  cell{ase}" pbc="T T T"
O        0.00000000       0.00000000       0.00000000      -1.05286563      -0.22908449       0.34590191
H        0.00000000       0.00000000       0.00000000       0.25982171       0.54743648       0.47065744
H        0.00000000       0.00000000       0.00000000       0.94313002      -0.40232670      -0.98747844
O        0.00000000       0.00000000       0.00000000      -0.86298627      -1.83327008      -1.84301925
H        0.00000000       0.00000000       0.00000000      -0.36524105       0.16346514      -0.34218013
H        0.00000000       0.00000000       0.00000000       0.54673231       2.26859093       0.20565406
H        0.00000000       0.00000000       0.00000000       0.53140891      -0.51481128       2.15046454
7
Lattice="529.1772105638412 0.0 0.0 0.0 529.1772105638412 0.0 0.0 0.0 529.1772105638412" Properties=species:S:1:pos:R:3:forces_component_raw:R:3 ipi_comment="Step:       17440  Bead:       0 forces_component_raw{ase}  cell{ase}" pbc="T T T"
O        0.00000000       0.00000000       0.00000000      -1.31339789       0.78943348       0.61177945
H        0.00000000       0.00000000       0.00000000       1.11395419      -0.00557505       0.04807973
H        0.00000000       0.00000000       0.00000000       0.09046197      -0.60345191      -0.43754619
O        0.00000000       0.00000000       0.00000000      -0.13485327       0.17184180      -1.39139915
H        0.00000000       0.00000000       0.00000000       0.28332979      -0.42725778      -0.38208821
H        0.00000000       0.00000000       0.00000000       0.09053846       1.36028099      -0.45606870
H        0.00000000       0.00000000       0.00000000      -0.13003334      -1.28527153       2.00724316
7
Lattice="529.1772105638412 0.0 0.0 0.0 529.1772105638412 0.0 0.0 0.0 529.1772105638412" Properties=species:S:1:pos:R:3:forces_component_raw:R:3 ipi_comment="Step:       17460  Bead:       0 forces_component_raw{ase}  cell{ase}" pbc="T T T"
O        0.00000000       0.00000000       0.00000000      -1.02696800      -0.57245910      -1.11393726
H        0.00000000       0.00000000       0.00000000       1.22470928      -0.23769005       0.24921304
H        0.00000000       0.00000000       0.00000000      -0.36489394       0.40899402       0.17100653
O        0.00000000       0.00000000       0.00000000       0.14385569       0.31515700      -0.36730602
H        0.00000000       0.00000000       0.00000000      -0.04887464       0.26675206       0.49402234
H        0.00000000       0.00000000       0.00000000       0.07935756      -0.32446516       0.24355865
H        0.00000000       0.00000000       0.00000000      -0.00718606       0.14371127       0.32344270
7
Lattice="529.1772105638412 0.0 0.0 0.0 529.1772105638412 0.0 0.0 0.0 529.1772105638412" Properties=species:S:1:pos:R:3:forces_component_raw:R:3 ipi_comment="Step:       17480  Bead:       0 forces_component_raw{ase}  cell{ase}" pbc="T T T"
O        0.00000000       0.00000000       0.00000000      -1.69727731      -0.76719684      -1.40958643
H        0.00000000       0.00000000       0.00000000       1.33855546      -0.42711985       0.22837994
H        0.00000000       0.00000000       0.00000000       0.32512468       1.27933193       1.15488053
O        0.00000000       0.00000000       0.00000000      -0.95339042       1.46431280       1.42630565
H        0.00000000       0.00000000       0.00000000      -0.26463151      -0.27476102      -0.32745937
H        0.00000000       0.00000000       0.00000000       0.64049333      -1.36636865      -0.21345455
H        0.00000000       0.00000000       0.00000000       0.61112583       0.09180146      -0.85906553
7
Lattice="529.1772105638412 0.0 0.0 0.0 529.1772105638412 0.0 0.0 0.0 529.1772105638412" Properties=species:S:1:pos:R:3:forces_component_raw:R:3 ipi_comment="Step:       17500  Bead:       0 forces_component_raw{ase}  cell{ase}" pbc="T T T"
O        0.00000000       0.00000000       0.00000000       0.57501233      -0.89243031      -0.15291944
H        0.00000000       0.00000000       0.00000000       0.10805993      -0.68364722      -0.40291053
H        0.00000000       0.00000000       0.00000000      -0.32518601       1.96779275       1.05117607
O        0.00000000       0.00000000       0.00000000      -1.60607005       0.50285411      -0.22883982
H        0.00000000       0.00000000       0.00000000      -0.03763020       0.01141100       0.38730615
H        0.00000000       0.00000000       0.00000000       0.50830954      -1.77238346       0.71248806
H        0.00000000       0.00000000       0.00000000       0.77750445       0.86640275      -1.36630035
7
Lattice="529.1772105638412 0.0 0.0 0.0 529.1772105638412 0.0 0.0 0.0 529.1772105638412" Properties=species:S:1:pos:R:3:forces_component_raw:R:3 ipi_comment="Step:       17520  Bead:       0 forces_component_raw{ase}  cell{ase}" pbc="T T T"
O        0.00000000       0.00000000       0.00000000      -0.41572428      -1.76291621      -0.91078794
H        0.00000000       0.00000000       0.00000000       0.31851256      -0.00567254       0.16042353
H        0.00000000       0.00000000       0.00000000       0.18866469       1.90362549       0.91067714
O        0.00000000       0.00000000       0.00000000      -0.73397589       1.83175517       2.29743529
H        0.00000000       0.00000000       0.00000000      -0.30531088      -0.15865468      -0.23562220
H        0.00000000       0.00000000       0.00000000       0.25295699      -2.14606286      -0.11926353
H        0.00000000       0.00000000       0.00000000       0.69487679       0.33792564      -2.10286212
7
Lattice="529.1772105638412 0.0 0.0 0.0 529.1772105638412 0.0 0.0 0.0 529.1772105638412" Properties=species:S:1:pos:R:3:forces_component_raw:R:3 ipi_comment="Step:       17540  Bead:       0 forces_component_raw{ase}  cell{ase}" pbc="T T T"
O        0.00000000       0.00000000       0.00000000       0.44070870      -1.23433352      -0.02255237
H        0.00000000       0.00000000       0.00000000      -0.26786125       0.04217777      -0.00466090
H        0.00000000       0.00000000       0.00000000      -0.26414889       1.28097379       0.20253930
O        0.00000000       0.00000000       0.00000000      -0.29741681       0.51779008       1.64836824
H        0.00000000       0.00000000       0.00000000       0.42896441       0.08298497      -0.05142828
H        0.00000000       0.00000000       0.00000000      -0.41338503      -1.63813067       0.22840563
H        0.00000000       0.00000000       0.00000000       0.37313891       0.94853735      -2.00067139
7
Lattice="529.1772105638412 0.0 0.0 0.0 529.1772105638412 0.0 0.0 0.0 529.1772105638412" Properties=species:S:1:pos:R:3:forces_component_raw:R:3 ipi_comment="Step:       17560  Bead:       0 forces_component_raw{ase}  cell{ase}" pbc="T T T"
O        0.00000000       0.00000000       0.00000000       0.19598460      -0.24981840      -0.11302063
H        0.00000000       0.00000000       0.00000000       0.00503835      -0.02604255       0.12410239
H        0.00000000       0.00000000       0.00000000      -0.24943921       0.06411907      -0.31768182
O        0.00000000       0.00000000       0.00000000       0.24528539       0.25978714       1.13136029
H        0.00000000       0.00000000       0.00000000      -0.01695099      -0.08902039       0.26011968
H        0.00000000       0.00000000       0.00000000      -0.15284857      -0.25539300       0.00740498
H        0.00000000       0.00000000       0.00000000      -0.02706952       0.29636815      -1.09228492
7
Lattice="529.1772105638412 0.0 0.0 0.0 529.1772105638412 0.0 0.0 0.0 529.1772105638412" Properties=species:S:1:pos:R:3:forces_component_raw:R:3 ipi_comment="Step:       17580  Bead:       0 forces_component_raw{ase}  cell{ase}" pbc="T T T"
O        0.00000000       0.00000000       0.00000000      -0.88900525       0.82464647       0.42762601
H        0.00000000       0.00000000       0.00000000       0.21385640       0.28473806      -0.12444682
H        0.00000000       0.00000000       0.00000000       0.53218424      -1.32826984      -0.17453329
O        0.00000000       0.00000000       0.00000000      -1.27324391      -0.97836203      -0.43971604
H        0.00000000       0.00000000       0.00000000       0.30440790       0.14312086      -0.48021987
H        0.00000000       0.00000000       0.00000000       1.08619488       1.01217795      -0.01851618
H        0.00000000       0.00000000       0.00000000       0.02560559       0.04194856       0.80980617
7
Lattice="529.1772105638412 0.0 0.0 0.0 529.1772105638412 0.0 0.0 0.0 529.1772105638412" Properties=species:S:1:pos:R:3:forces_component_raw:R:3 ipi_comment="Step:       17600  Bead:       0 forces_component_raw{ase}  cell{ase}" pbc="T T T"
O        0.00000000       0.00000000       0.00000000      -0.70088512       2.78180075       0.04790619
H        0.00000000       0.00000000       0.00000000       0.02101165      -0.07295862      -0.04326437
H        0.00000000       0.00000000       0.00000000       0.81026721      -2.82035924      -0.26415944
O        0.00000000       0.00000000       0.00000000      -0.32197410       0.09744233      -1.55782795
H        0.00000000       0.00000000       0.00000000      -0.48076153      -0.25068367       0.25031066
H        0.00000000       0.00000000       0.00000000       1.55480206       0.85566104      -0.33888713
H        0.00000000       0.00000000       0.00000000      -0.88246012      -0.59090227       1.90592194
7
Lattice="529.1772105638412 0.0 0.0 0.0 529.1772105638412 0.0 0.0 0.0 529.1772105638412" Properties=species:S:1:pos:R:3:forces_component_raw:R:3 ipi_comment="Step:       17620  Bead:       0 forces_component_raw{ase}  cell{ase}" pbc="T T T"
O        0.00000000       0.00000000       0.00000000      -1.36649978       2.10998703       0.53533614
H        0.00000000       0.00000000       0.00000000       0.35994375      -0.08336762      -0.21930786
H        0.00000000       0.00000000       0.00000000       0.69418383      -1.94268680      -0.38450486
O        0.00000000       0.00000000       0.00000000      -0.90514440      -0.39778075      -2.78695870
H        0.00000000       0.00000000       0.00000000       0.39827895      -0.00404890       0.22996423
H        0.00000000       0.00000000       0.00000000       1.43904829       0.44329909       0.11126113
H        0.00000000       0.00000000       0.00000000      -0.61981058      -0.12540200       2.51421023
7
Lattice="529.1772105638412 0.0 0.0 0.0 529.1772105638412 0.0 0.0 0.0 529.1772105638412" Properties=species:S:1:pos:R:3:forces_component_raw:R:3 ipi_comment="Step:       17640  Bead:       0 forces_component_raw{ase}  cell{ase}" pbc="T T T"
O        0.00000000       0.00000000       0.00000000      -0.17981169       0.00943002       0.52672327
H        0.00000000       0.00000000       0.00000000       0.21236596       0.26650760       0.14493030
H        0.00000000       0.00000000       0.00000000       0.31423476      -0.26509842      -0.04285755
O        0.00000000       0.00000000       0.00000000       0.94238663      -0.14374453      -1.12155628
H        0.00000000       0.00000000       0.00000000      -0.24017972       0.41569522      -0.33895117
H        0.00000000       0.00000000       0.00000000      -0.23473015      -0.07130409      -0.39475280
H        0.00000000       0.00000000       0.00000000      -0.81426585      -0.21148589       1.22646404
7
Lattice="529.1772105638412 0.0 0.0 0.0 529.1772105638412 0.0 0.0 0.0 529.1772105638412" Properties=species:S:1:pos:R:3:forces_component_raw:R:3 ipi_comment="Step:       17660  Bead:       0 forces_component_raw{ase}  cell{ase}" pbc="T T T"
O        0.00000000       0.00000000       0.00000000       0.34623796      -0.36517388       0.07548901
H        0.00000000       0.00000000       0.00000000       0.01252103      -0.05075571      -0.04541511
H        0.00000000       0.00000000       0.00000000      -0.19229704       0.73127604       0.31362104
O        0.00000000       0.00000000       0.00000000       0.37476203      -0.37017548      -1.53888142
H        0.00000000       0.00000000       0.00000000      -0.00074776       0.07539849       0.13372853
H        0.00000000       0.00000000       0.00000000      -0.98926252       0.04973429       0.64146322
H        0.00000000       0.00000000       0.00000000       0.44878626      -0.07030386       0.41999462
7
Lattice="529.1772105638412 0.0 0.0 0.0 529.1772105638412 0.0 0.0 0.0 529.1772105638412" Properties=species:S:1:pos:R:3:forces_component_raw:R:3 ipi_comment="Step:       17680  Bead:       0 forces_component_raw{ase}  cell{ase}" pbc="T T T"
O        0.00000000       0.00000000       0.00000000       0.00247416      -0.57294333      -0.36193001
H        0.00000000       0.00000000       0.00000000       0.38930798      -0.15533650       0.14880818
H        0.00000000       0.00000000       0.00000000      -0.33983678       1.02743817       0.16998309
O        0.00000000       0.00000000       0.00000000       0.97921229      -0.96988672       1.56804562
H        0.00000000       0.00000000       0.00000000       0.03601405      -0.38719657       0.38291109
H        0.00000000       0.00000000       0.00000000      -1.18467403       0.41120374      -0.60842323
H        0.00000000       0.00000000       0.00000000       0.11750221       0.64672130      -1.29939473
7
Lattice="529.1772105638412 0.0 0.0 0.0 529.1772105638412 0.0 0.0 0.0 529.1772105638412" Properties=species:S:1:pos:R:3:forces_component_raw:R:3 ipi_comment="Step:       17700  Bead:       0 forces_component_raw{ase}  cell{ase}" pbc="T T T"
O        0.00000000       0.00000000       0.00000000       0.25371486      -1.31047488      -0.24317789
H        0.00000000       0.00000000       0.00000000       0.29522422       0.07351384       0.32660770
H        0.00000000       0.00000000       0.00000000      -0.43111795       0.76968455      -0.24128415
O        0.00000000       0.00000000       0.00000000       0.31426865      -0.94120991       2.24776507
H        0.00000000       0.00000000       0.00000000      -0.19629747       0.38517588      -0.33833087
H        0.00000000       0.00000000       0.00000000      -1.49947989       0.09663396      -0.01434222
H        0.00000000       0.00000000       0.00000000       1.26368761       0.92667645      -1.73723770
7
Lattice="529.1772105638412 0.0 0.0 0.0 529.1772105638412 0.0 0.0 0.0 529.1772105638412" Properties=species:S:1:pos:R:3:forces_component_raw:R:3 ipi_comment="Step:       17720  Bead:       0 forces_component_raw{ase}  cell{ase}" pbc="T T T"
O        0.00000000       0.00000000       0.00000000       0.39138007      -0.05946718       0.07334992
H        0.00000000       0.00000000       0.00000000      -0.35263604       0.02251703      -0.25023121
H        0.00000000       0.00000000       0.00000000      -0.09923604       0.49183962       0.05577406
O        0.00000000       0.00000000       0.00000000      -0.25895107       0.12636481       2.77987457
H        0.00000000       0.00000000       0.00000000       0.19722590      -0.65470112       0.54034007
H        0.00000000       0.00000000       0.00000000      -0.91062641      -0.04011866      -0.09335886
H        0.00000000       0.00000000       0.00000000       1.03284371       0.11356551      -3.10574866
7
Lattice="529.1772105638412 0.0 0.0 0.0 529.1772105638412 0.0 0.0 0.0 529.1772105638412" Properties=species:S:1:pos:R:3:forces_component_raw:R:3 ipi_comment="Step:       17740  Bead:       0 forces_component_raw{ase}  cell{ase}" pbc="T T T"
O        0.00000000       0.00000000       0.00000000       0.19338900       0.15248798       0.31267819
H        0.00000000       0.00000000       0.00000000       0.16191721      -0.22565144       0.26728600
H        0.00000000       0.00000000       0.00000000      -0.28562456      -0.21849957      -0.24264365
O        0.00000000       0.00000000       0.00000000      -0.67399007      -0.12822142       2.04210878
H        0.00000000       0.00000000       0.00000000       0.09408607       0.65451843      -0.20948282
H        0.00000000       0.00000000       0.00000000      -0.66537690       0.05883883       0.31959230
H        0.00000000       0.00000000       0.00000000       1.17559946      -0.29347280      -2.48953891
7
Lattice="529.1772105638412 0.0 0.0 0.0 529.1772105638412 0.0 0.0 0.0 529.1772105638412" Properties=species:S:1:pos:R:3:forces_component_raw:R:3 ipi_comment="Step:       17760  Bead:       0 forces_component_raw{ase}  cell{ase}" pbc="T T T"
O        0.00000000       0.00000000       0.00000000      -0.55553204       0.76887274       0.07813054
H        0.00000000       0.00000000       0.00000000       0.27640581      -0.23548603      -0.14381120
H        0.00000000       0.00000000       0.00000000       0.10731316      -0.15709692       0.22504002
O        0.00000000       0.00000000       0.00000000      -0.41760522       0.78514385       1.38340676
H        0.00000000       0.00000000       0.00000000       0.02655980      -0.51666153      -0.15561581
H        0.00000000       0.00000000       0.00000000       0.31597611      -0.02237245      -0.02872637
H        0.00000000       0.00000000       0.00000000       0.24688244      -0.62239981      -1.35842395
7
Lattice="529.1772105638412 0.0 0.0 0.0 529.1772105638412 0.0 0.0 0.0 529.1772105638412" Properties=species:S:1:pos:R:3:forces_component_raw:R:3 ipi_comment="Step:       17780  Bead:       0 forces_component_raw{ase}  cell{ase}" pbc="T T T"
O        0.00000000       0.00000000       0.00000000      -0.64551509       0.44507712      -1.01735807
H        0.00000000       0.00000000       0.00000000       0.33122912      -0.63554955       0.09723857
H        0.00000000       0.00000000       0.00000000      -0.06270574      -0.06580299       0.15189473
O        0.00000000       0.00000000       0.00000000      -0.77730060      -0.38586158      -0.94733709
H        0.00000000       0.00000000       0.00000000       0.24238892       0.18438266       0.53507131
H        0.00000000       0.00000000       0.00000000       0.89673454       0.21642569       0.47303861
H        0.00000000       0.00000000       0.00000000       0.01516873       0.24132834       0.70745200
7
Lattice="529.1772105638412 0.0 0.0 0.0 529.1772105638412 0.0 0.0 0.0 529.1772105638412" Properties=species:S:1:pos:R:3:forces_component_raw:R:3 ipi_comment="Step:       17800  Bead:       0 forces_component_raw{ase}  cell{ase}" pbc="T T T"
O        0.00000000       0.00000000       0.00000000      -0.04132762       0.63659638      -0.41172397
H        0.00000000       0.00000000       0.00000000       0.36213571      -0.72886449       0.73254341
H        0.00000000       0.00000000       0.00000000      -0.29089677      -0.16476548      -0.16355729
O        0.00000000       0.00000000       0.00000000       0.95465875      -0.70011157      -1.82527352
H        0.00000000       0.00000000       0.00000000       0.03914248       0.09292907      -0.53459066
H        0.00000000       0.00000000       0.00000000       1.38463545      -0.18655235      -0.15338650
H        0.00000000       0.00000000       0.00000000      -2.40834785       1.05076850       2.35598875
7
Lattice="529.1772105638412 0.0 0.0 0.0 529.1772105638412 0.0 0.0 0.0 529.1772105638412" Properties=species:S:1:pos:R:3:forces_component_raw:R:3 ipi_comment="Step:       17820  Bead:       0 forces_component_raw{ase}  cell{ase}" pbc="T T T"
O        0.00000000       0.00000000       0.00000000       0.30842561       0.65956867      -0.20763418
H        0.00000000       0.00000000       0.00000000       0.14925808       0.20110175      -0.01821539
H        0.00000000       0.00000000       0.00000000      -0.15401910      -0.59800547       0.37933114
O        0.00000000       0.00000000       0.00000000       1.49445010      -1.44985724      -3.49011708
H        0.00000000       0.00000000       0.00000000      -0.23843348      -0.29155093      -0.01056693
H        0.00000000       0.00000000       0.00000000       1.08677101       0.12404418       0.42712426
H        0.00000000       0.00000000       0.00000000      -2.64645219       1.35469914       2.92007828
7
Lattice="529.1772105638412 0.0 0.0 0.0 529.1772105638412 0.0 0.0 0.0 529.1772105638412" Properties=species:S:1:pos:R:3:forces_component_raw:R:3 ipi_comment="Step:       17840  Bead:       0 forces_component_raw{ase}  cell{ase}" pbc="T T T"
O        0.00000000       0.00000000       0.00000000       1.68093062       0.81109214       1.56661880
H        0.00000000       0.00000000       0.00000000      -0.74166382       0.30315194      -0.73545128
H        0.00000000       0.00000000       0.00000000      -0.47394523      -0.67061716      -0.03457665
O        0.00000000       0.00000000       0.00000000      -1.04250670      -0.37917852      -1.39166928
H        0.00000000       0.00000000       0.00000000      -0.13833663      -0.11486238      -0.12866581
H        0.00000000       0.00000000       0.00000000       1.45607770      -0.21644542       0.16036819
H        0.00000000       0.00000000       0.00000000      -0.74055594       0.26685956       0.56337613
7
Lattice="529.1772105638412 0.0 0.0 0.0 529.1772105638412 0.0 0.0 0.0 529.1772105638412" Properties=species:S:1:pos:R:3:forces_component_raw:R:3 ipi_comment="Step:       17860  Bead:       0 forces_component_raw{ase}  cell{ase}" pbc="T T T"
O        0.00000000       0.00000000       0.00000000       0.88842881      -0.13120812       0.47936574
H        0.00000000       0.00000000       0.00000000      -0.67495883       0.74741811      -0.94409865
H        0.00000000       0.00000000       0.00000000      -0.20299967      -0.69984770       0.42031935
O        0.00000000       0.00000000       0.00000000      -1.74480248       0.26877695       0.46378431
H        0.00000000       0.00000000       0.00000000       0.31409428       0.29865551       0.44870830
H        0.00000000       0.00000000       0.00000000       0.50817430      -0.04757878       0.23927660
H        0.00000000       0.00000000       0.00000000       0.91206360      -0.43621594      -1.10735560
7
Lattice="529.1772105638412 0.0 0.0 0.0 529.1772105638412 0.0 0.0 0.0 529.1772105638412" Properties=species:S:1:pos:R:3:forces_component_raw:R:3 ipi_comment="Step:       17880  Bead:       0 forces_component_raw{ase}  cell{ase}" pbc="T T T"
O        0.00000000       0.00000000       0.00000000       1.18263495       0.74207556       0.64201886
H        0.00000000       0.00000000       0.00000000      -0.63378883      -0.00207967      -0.52352530
H        0.00000000       0.00000000       0.00000000      -0.71027225      -0.84053838      -0.09899277
O        0.00000000       0.00000000       0.00000000      -0.66431505       0.25539842       1.96630812
H        0.00000000       0.00000000       0.00000000       0.17212491       0.16823283      -0.00745882
H        0.00000000       0.00000000       0.00000000      -0.13875091       0.13769710      -0.06420201
H        0.00000000       0.00000000       0.00000000       0.79236704      -0.46078584      -1.91414810
7
Lattice="529.1772105638412 0.0 0.0 0.0 529.1772105638412 0.0 0.0 0.0 529.1772105638412" Properties=species:S:1:pos:R:3:forces_component_raw:R:3 ipi_comment="Step:       17900  Bead:       0 forces_component_raw{ase}  cell{ase}" pbc="T T T"
O        0.00000000       0.00000000       0.00000000      -0.96238637       0.08631976      -0.81156171
H        0.00000000       0.00000000       0.00000000       0.41793454      -0.24819696       0.09531745
H        0.00000000       0.00000000       0.00000000       0.22131646      -0.07433152       0.24471256
O        0.00000000       0.00000000       0.00000000      -0.37833792       0.19438377       2.53996373
H        0.00000000       0.00000000       0.00000000      -0.18223701      -0.11516137      -0.23451889
H        0.00000000       0.00000000       0.00000000      -0.24616379       0.36200696       0.19800070
H        0.00000000       0.00000000       0.00000000       1.12987387      -0.20502058      -2.03191376
7
Lattice="529.1772105638412 0.0 0.0 0.0 529.1772105638412 0.0 0.0 0.0 529.1772105638412" Properties=species:S:1:pos:R:3:forces_component_raw:R:3 ipi_comment="Step:       17920  Bead:       0 forces_component_raw{ase}  cell{ase}" pbc="T T T"
O        0.00000000       0.00000000       0.00000000      -0.74882913       0.86309099      -0.99612993
H        0.00000000       0.00000000       0.00000000       0.47523451      -1.23656810       0.56951851
H        0.00000000       0.00000000       0.00000000      -0.01580009       0.28530133      -0.01617080
O        0.00000000       0.00000000       0.00000000       0.18618590      -0.14992650       2.13967610
H        0.00000000       0.00000000       0.00000000       0.18100999       0.05633704       0.13631435
H        0.00000000       0.00000000       0.00000000      -0.83206833       0.28684422      -0.07738595
H        0.00000000       0.00000000       0.00000000       0.75426722      -0.10507895      -1.75582242
7
Lattice="529.1772105638412 0.0 0.0 0.0 529.1772105638412 0.0 0.0 0.0 529.1772105638412" Properties=species:S:1:pos:R:3:forces_component_raw:R:3 ipi_comment="Step:       17940  Bead:       0 forces_component_raw{ase}  cell{ase}" pbc="T T T"
O        0.00000000       0.00000000       0.00000000      -1.52375532      -0.28875020      -1.13436413
H        0.00000000       0.00000000       0.00000000       0.98411155      -1.07607937       1.45616317
H        0.00000000       0.00000000       0.00000000       0.62029362       1.37024617      -0.29537261
O        0.00000000       0.00000000       0.00000000       1.36320114       0.39925087       0.61128491
H        0.00000000       0.00000000       0.00000000      -0.20306192      -0.12660173      -0.07689657
H        0.00000000       0.00000000       0.00000000      -1.13887894      -0.11294329      -0.22043942
H        0.00000000       0.00000000       0.00000000      -0.10191017      -0.16512251      -0.34037536
7
Lattice="529.1772105638412 0.0 0.0 0.0 529.1772105638412 0.0 0.0 0.0 529.1772105638412" Properties=species:S:1:pos:R:3:forces_component_raw:R:3 ipi_comment="Step:       17960  Bead:       0 forces_component_raw{ase}  cell{ase}" pbc="T T T"
O        0.00000000       0.00000000       0.00000000      -2.12161565      -1.36906886      -0.91620618
H        0.00000000       0.00000000       0.00000000       1.19525087      -0.54369962       1.49254537
H        0.00000000       0.00000000       0.00000000       0.90192217       1.88745630      -0.73302639
O        0.00000000       0.00000000       0.00000000       1.30821085       0.09582216      -1.99203539
H        0.00000000       0.00000000       0.00000000       0.11360218      -0.08980538       0.19278896
H        0.00000000       0.00000000       0.00000000      -1.07582212      -0.30649540       0.39713857
H        0.00000000       0.00000000       0.00000000      -0.32154834       0.32579085       1.55879498
7
Lattice="529.1772105638412 0.0 0.0 0.0 529.1772105638412 0.0 0.0 0.0 529.1772105638412" Properties=species:S:1:pos:R:3:forces_component_raw:R:3 ipi_comment="Step:       17980  Bead:       0 forces_component_raw{ase}  cell{ase}" pbc="T T T"
O        0.00000000       0.00000000       0.00000000      -0.43814963      -1.17933524       0.96283138
H        0.00000000       0.00000000       0.00000000       0.41397464      -0.17185073       0.73658735
H        0.00000000       0.00000000       0.00000000       0.36451656       1.32579410      -1.31347454
O        0.00000000       0.00000000       0.00000000       2.22630072       0.68967557      -1.74618423
H        0.00000000       0.00000000       0.00000000      -0.64046610      -0.07692932      -0.28170115
H        0.00000000       0.00000000       0.00000000      -0.45462197      -0.60044480      -0.45214695
H        0.00000000       0.00000000       0.00000000      -1.47155404       0.01309030       2.09408808
7
Lattice="529.1772105638412 0.0 0.0 0.0 529.1772105638412 0.0 0.0 0.0 529.1772105638412" Properties=species:S:1:pos:R:3:forces_component_raw:R:3 ipi_comment="Step:       18000  Bead:       0 forces_component_raw{ase}  cell{ase}" pbc="T T T"
O        0.00000000       0.00000000       0.00000000      -1.46853078      -0.71256977      -0.06500819
H        0.00000000       0.00000000       0.00000000       0.43392468      -0.22981161       0.22805472
H        0.00000000       0.00000000       0.00000000       0.72187221       1.05226743      -0.57425773
O        0.00000000       0.00000000       0.00000000       0.49580675      -0.39585644      -1.77602792
H        0.00000000       0.00000000       0.00000000       0.60110301      -0.29083782       0.52004695
H        0.00000000       0.00000000       0.00000000      -0.47131929      -0.14758650       0.52376354
H        0.00000000       0.00000000       0.00000000      -0.31285644       0.72439474       1.14342880
7
Lattice="529.1772105638412 0.0 0.0 0.0 529.1772105638412 0.0 0.0 0.0 529.1772105638412" Properties=species:S:1:pos:R:3:forces_component_raw:R:3 ipi_comment="Step:       18020  Bead:       0 forces_component_raw{ase}  cell{ase}" pbc="T T T"
O        0.00000000       0.00000000       0.00000000       0.08808683      -0.94967735       0.69351596
H        0.00000000       0.00000000       0.00000000      -0.26299954       0.08986151      -0.18420610
H        0.00000000       0.00000000       0.00000000       0.24200805       0.67071366      -0.43611431
O        0.00000000       0.00000000       0.00000000       0.00656255       0.99678004       1.46012330
H        0.00000000       0.00000000       0.00000000      -0.43958920       0.06049579      -0.68711734
H        0.00000000       0.00000000       0.00000000       0.40498555      -0.17576408      -0.72552538
H        0.00000000       0.00000000       0.00000000      -0.03905419      -0.69240958      -0.12067610
7
Lattice="529.1772105638412 0.0 0.0 0.0 529.1772105638412 0.0 0.0 0.0 529.1772105638412" Properties=species:S:1:pos:R:3:forces_component_raw:R:3 ipi_comment="Step:       18040  Bead:       0 forces_component_raw{ase}  cell{ase}" pbc="T T T"
O        0.00000000       0.00000000       0.00000000       0.31289548      -0.66235250      -0.01284730
H        0.00000000       0.00000000       0.00000000      -0.57252038       0.34141013      -0.46221346
H        0.00000000       0.00000000       0.00000000       0.16629359       0.27808151       0.15481824
O        0.00000000       0.00000000       0.00000000      -0.73493642      -1.51717377      -0.23496267
H        0.00000000       0.00000000       0.00000000       0.21315622      -0.08723539       0.44567275
H        0.00000000       0.00000000       0.00000000      -0.04505880       0.86145663       0.57628465
H        0.00000000       0.00000000       0.00000000       0.66017026       0.78581345      -0.46675241
7
Lattice="529.1772105638412 0.0 0.0 0.0 529.1772105638412 0.0 0.0 0.0 529.1772105638412" Properties=species:S:1:pos:R:3:forces_component_raw:R:3 ipi_comment="Step:       18060  Bead:       0 forces_component_raw{ase}  cell{ase}" pbc="T T T"
O        0.00000000       0.00000000       0.00000000       0.70586205       0.22489812       0.71995008
H        0.00000000       0.00000000       0.00000000      -0.80553180       0.56073797      -0.55530405
H        0.00000000       0.00000000       0.00000000       0.13946357      -0.85325790      -0.03553000
O        0.00000000       0.00000000       0.00000000      -0.99377388       0.55121666       2.39653254
H        0.00000000       0.00000000       0.00000000      -0.16373108       0.23141059      -0.29468340
H        0.00000000       0.00000000       0.00000000       0.55594546       0.45953995      -1.03744030
H        0.00000000       0.00000000       0.00000000       0.56176567      -1.17454541      -1.19352460
7
Lattice="529.1772105638412 0.0 0.0 0.0 529.1772105638412 0.0 0.0 0.0 529.1772105638412" Properties=species:S:1:pos:R:3:forces_component_raw:R:3 ipi_comment="Step:       18080  Bead:       0 forces_component_raw{ase}  cell{ase}" pbc="T T T"
O        0.00000000       0.00000000       0.00000000       0.79086101       1.46163106       1.68758798
H        0.00000000       0.00000000       0.00000000      -1.33891738       0.69081736      -1.02704883
H        0.00000000       0.00000000       0.00000000       0.55461407      -2.09204627      -0.54324836
O        0.00000000       0.00000000       0.00000000      -0.59819853      -1.30128610       0.00410575
H        0.00000000       0.00000000       0.00000000       0.09200399      -0.11336872       0.17405888
H        0.00000000       0.00000000       0.00000000      -0.03567579       0.36060593       0.87828660
H        0.00000000       0.00000000       0.00000000       0.53531265       0.99364650      -1.17374218
7
Lattice="529.1772105638412 0.0 0.0 0.0 529.1772105638412 0.0 0.0 0.0 529.1772105638412" Properties=species:S:1:pos:R:3:forces_component_raw:R:3 ipi_comment="Step:       18100  Bead:       0 forces_component_raw{ase}  cell{ase}" pbc="T T T"
O        0.00000000       0.00000000       0.00000000      -0.55011606       2.37105895       1.66002429
H        0.00000000       0.00000000       0.00000000      -0.67330700       0.26839477      -0.36769423
H        0.00000000       0.00000000       0.00000000       1.30227471      -2.59094477      -0.94008702
O        0.00000000       0.00000000       0.00000000       0.16679633       0.03138870       1.86805809
H        0.00000000       0.00000000       0.00000000       0.03270355       0.10757130      -0.35571617
H        0.00000000       0.00000000       0.00000000       0.06241146       0.32514393      -0.88093794
H        0.00000000       0.00000000       0.00000000      -0.34076303      -0.51261306      -0.98364687
7
Lattice="529.1772105638412 0.0 0.0 0.0 529.1772105638412 0.0 0.0 0.0 529.1772105638412" Properties=species:S:1:pos:R:3:forces_component_raw:R:3 ipi_comment="Step:       18120  Bead:       0 forces_component_raw{ase}  cell{ase}" pbc="T T T"
O        0.00000000       0.00000000       0.00000000      -1.97840131       1.03454030      -0.05952913
H        0.00000000       0.00000000       0.00000000       0.70438498      -0.06764372       0.38664532
H        0.00000000       0.00000000       0.00000000       1.01390708      -1.15358186      -0.81985653
O        0.00000000       0.00000000       0.00000000      -0.78085774      -0.60668904      -1.37981630
H        0.00000000       0.00000000       0.00000000       0.46853030       0.00803123       0.78882480
H        0.00000000       0.00000000       0.00000000       0.28590983       0.33304405       0.73310292
H        0.00000000       0.00000000       0.00000000       0.28652665       0.45229900       0.35062891
7
Lattice="529.1772105638412 0.0 0.0 0.0 529.1772105638412 0.0 0.0 0.0 529.1772105638412" Properties=species:S:1:pos:R:3:forces_component_raw:R:3 ipi_comment="Step:       18140  Bead:       0 forces_component_raw{ase}  cell{ase}" pbc="T T T"
O        0.00000000       0.00000000       0.00000000      -0.08558539      -0.25546426      -0.72472942
H        0.00000000       0.00000000       0.00000000       0.78430242       0.06470038       0.70150936
H        0.00000000       0.00000000       0.00000000      -0.32351562       0.20997602       0.38533026
O        0.00000000       0.00000000       0.00000000       0.90844381       1.25147677      -0.35257089
H        0.00000000       0.00000000       0.00000000      -0.38468602       0.12662932      -0.84098077
H        0.00000000       0.00000000       0.00000000      -0.29101652      -0.07132226      -0.90148258
H        0.00000000       0.00000000       0.00000000      -0.60794276      -1.32599592       1.73292423
7
Lattice="529.1772105638412 0.0 0.0 0.0 529.1772105638412 0.0 0.0 0.0 529.1772105638412" Properties=species:S:1:pos:R:3:forces_component_raw:R:3 ipi_comment="Step:       18160  Bead:       0 forces_component_raw{ase}  cell{ase}" pbc="T T T"
O        0.00000000       0.00000000       0.00000000       0.43540108      -0.01169407      -1.57780719
H        0.00000000       0.00000000       0.00000000       0.89507771      -0.26205170       0.23210561
H        0.00000000       0.00000000       0.00000000      -0.94127727       0.46486479       1.85296679
O        0.00000000       0.00000000       0.00000000      -0.07351740       1.66051317      -3.98331190
H        0.00000000       0.00000000       0.00000000      -0.14734125      -0.00237780       0.16730113
H        0.00000000       0.00000000       0.00000000      -0.19519363      -0.51204443       0.54346830
H        0.00000000       0.00000000       0.00000000       0.02685073      -1.33720994       2.76527691
7
Lattice="529.1772105638412 0.0 0.0 0.0 529.1772105638412 0.0 0.0 0.0 529.1772105638412" Properties=species:S:1:pos:R:3:forces_component_raw:R:3 ipi_comment="Step:       18180  Bead:       0 forces_component_raw{ase}  cell{ase}" pbc="T T T"
O        0.00000000       0.00000000       0.00000000       1.19551516       0.63571787      -2.46932388
H        0.00000000       0.00000000       0.00000000      -0.08059862      -0.11112571       0.02552757
H        0.00000000       0.00000000       0.00000000      -0.78377545      -0.29563677       2.47192050
O        0.00000000       0.00000000       0.00000000       0.40634227       1.57111431      -1.71333146
H        0.00000000       0.00000000       0.00000000      -0.49824122      -0.39550650       0.33243543
H        0.00000000       0.00000000       0.00000000       0.12314746       0.57824761      -0.69004059
H        0.00000000       0.00000000       0.00000000      -0.36238927      -1.98281086       2.04281235
7
Lattice="529.1772105638412 0.0 0.0 0.0 529.1772105638412 0.0 0.0 0.0 529.1772105638412" Properties=species:S:1:pos:R:3:forces_component_raw:R:3 ipi_comment="Step:       18200  Bead:       0 forces_component_raw{ase}  cell{ase}" pbc="T T T"
O        0.00000000       0.00000000       0.00000000       0.89993096       0.11354978      -1.47853875
H        0.00000000       0.00000000       0.00000000      -0.33641517       0.08600831      -0.50041282
H        0.00000000       0.00000000       0.00000000      -0.56432557      -0.31103653       2.63536287
O        0.00000000       0.00000000       0.00000000      -1.88083923      -1.15978110      -1.77735520
H        0.00000000       0.00000000       0.00000000       0.08735192       0.74033904      -0.42998758
H        0.00000000       0.00000000       0.00000000       1.26326466       0.79651797       0.43000543
H        0.00000000       0.00000000       0.00000000       0.53103244      -0.26559758       1.12092579
7
Lattice="529.1772105638412 0.0 0.0 0.0 529.1772105638412 0.0 0.0 0.0 529.1772105638412" Properties=species:S:1:pos:R:3:forces_component_raw:R:3 ipi_comment="Step:       18220  Bead:       0 forces_component_raw{ase}  cell{ase}" pbc="T T T"
O        0.00000000       0.00000000       0.00000000       1.47109294       0.25653681      -2.09981275
H        0.00000000       0.00000000       0.00000000      -0.77093661       0.26893342      -0.01234388
H        0.00000000       0.00000000       0.00000000      -0.67134369      -0.39212453       1.95046187
O        0.00000000       0.00000000       0.00000000      -0.57126379      -1.38549924       1.24653340
H        0.00000000       0.00000000       0.00000000      -0.24379662      -0.42454797       0.01710756
H        0.00000000       0.00000000       0.00000000       1.37427986       1.40546203      -0.22069301
H        0.00000000       0.00000000       0.00000000      -0.58803225       0.27123955      -0.88125313
7
Lattice="529.1772105638412 0.0 0.0 0.0 529.1772105638412 0.0 0.0 0.0 529.1772105638412" Properties=species:S:1:pos:R:3:forces_component_raw:R:3 ipi_comment="Step:       18240  Bead:       0 forces_component_raw{ase}  cell{ase}" pbc="T T T"
O        0.00000000       0.00000000       0.00000000       1.43066061      -0.32436624      -1.37371719
H        0.00000000       0.00000000       0.00000000      -1.17238212       0.33850253      -0.08575606
H        0.00000000       0.00000000       0.00000000      -0.54657483      -0.12104698       0.94939453
O        0.00000000       0.00000000       0.00000000      -1.02032209      -1.87324572       0.98219669
H        0.00000000       0.00000000       0.00000000       0.19957575       0.07067241       0.07713010
H        0.00000000       0.00000000       0.00000000       0.71940053       0.04802248       0.21388105
H        0.00000000       0.00000000       0.00000000       0.38964218       1.86146164      -0.76312918
7
Lattice="529.1772105638412 0.0 0.0 0.0 529.1772105638412 0.0 0.0 0.0 529.1772105638412" Properties=species:S:1:pos:R:3:forces_component_raw:R:3 ipi_comment="Step:       18260  Bead:       0 forces_component_raw{ase}  cell{ase}" pbc="T T T"
O        0.00000000       0.00000000       0.00000000      -0.21100462      -0.05897206       1.23437310
H        0.00000000       0.00000000       0.00000000      -0.56908977       0.15341575      -0.19385430
H        0.00000000       0.00000000       0.00000000       0.54202312      -0.02824502      -1.11002720
O        0.00000000       0.00000000       0.00000000       1.44193614      -1.47159839       0.69520909
H        0.00000000       0.00000000       0.00000000       0.38592595      -0.15411687      -0.19764590
H        0.00000000       0.00000000       0.00000000      -0.95934546      -0.11270642       0.11869805
H        0.00000000       0.00000000       0.00000000      -0.63044548       1.67222309      -0.54675287
7
Lattice="529.1772105638412 0.0 0.0 0.0 529.1772105638412 0.0 0.0 0.0 529.1772105638412" Properties=species:S:1:pos:R:3:forces_component_raw:R:3 ipi_comment="Step:       18280  Bead:       0 forces_component_raw{ase}  cell{ase}" pbc="T T T"
O        0.00000000       0.00000000       0.00000000      -1.56365753       0.30526716       2.53912259
H        0.00000000       0.00000000       0.00000000       0.11390287       0.09117197       0.30410883
H        0.00000000       0.00000000       0.00000000       1.59003055      -0.39007044      -2.71031714
O        0.00000000       0.00000000       0.00000000       0.81359816       0.21407226      -1.21376431
H        0.00000000       0.00000000       0.00000000       0.05890277       0.18174428       0.35124385
H        0.00000000       0.00000000       0.00000000      -1.20867849      -1.08583224       0.73387480
H        0.00000000       0.00000000       0.00000000       0.19590154       0.68364710      -0.00426879
7
Lattice="529.1772105638412 0.0 0.0 0.0 529.1772105638412 0.0 0.0 0.0 529.1772105638412" Properties=species:S:1:pos:R:3:forces_component_raw:R:3 ipi_comment="Step:       18300  Bead:       0 forces_component_raw{ase}  cell{ase}" pbc="T T T"
O        0.00000000       0.00000000       0.00000000      -1.85658741       1.06153310       3.48419333
H        0.00000000       0.00000000       0.00000000       1.15660501      -0.34255508      -0.16180339
H        0.00000000       0.00000000       0.00000000       0.90262491      -0.54013473      -2.92836142
O        0.00000000       0.00000000       0.00000000       2.01895881       1.61008454       0.51727200
H        0.00000000       0.00000000       0.00000000      -0.22302792      -0.36675054      -0.70300234
H        0.00000000       0.00000000       0.00000000      -1.73619533      -0.87510038      -0.21908847
H        0.00000000       0.00000000       0.00000000      -0.26237819      -0.54707682       0.01079029
7
Lattice="529.1772105638412 0.0 0.0 0.0 529.1772105638412 0.0 0.0 0.0 529.1772105638412" Properties=species:S:1:pos:R:3:forces_component_raw:R:3 ipi_comment="Step:       18320  Bead:       0 forces_component_raw{ase}  cell{ase}" pbc="T T T"
O        0.00000000       0.00000000       0.00000000      -1.44060362       0.82943767       1.68628145
H        0.00000000       0.00000000       0.00000000       1.66704965      -0.63649339       0.03059480
H        0.00000000       0.00000000       0.00000000       0.45034492      -0.15983997      -1.19919801
O        0.00000000       0.00000000       0.00000000      -0.55889726       1.19169808      -1.58911181
H        0.00000000       0.00000000       0.00000000      -0.33954644       0.42869660       0.39940116
H        0.00000000       0.00000000       0.00000000      -0.46772835      -0.97903019      -0.03036220
H        0.00000000       0.00000000       0.00000000       0.68938112      -0.67446876       0.70239473
7
Lattice="529.1772105638412 0.0 0.0 0.0 529.1772105638412 0.0 0.0 0.0 529.1772105638412" Properties=species:S:1:pos:R:3:forces_component_raw:R:3 ipi_comment="Step:       18340  Bead:       0 forces_component_raw{ase}  cell{ase}" pbc="T T T"
O        0.00000000       0.00000000       0.00000000      -0.72065586       0.33137402       0.37215674
H        0.00000000       0.00000000       0.00000000       0.69196355      -0.48824096      -0.80716419
H        0.00000000       0.00000000       0.00000000      -0.29548198       0.34047753       0.79732847
O        0.00000000       0.00000000       0.00000000      -0.14886779      -0.35925374       0.54273731
H        0.00000000       0.00000000       0.00000000       0.36817342      -0.27434462      -0.59643877
H        0.00000000       0.00000000       0.00000000       0.34870672       1.03020501      -0.24930631
H        0.00000000       0.00000000       0.00000000      -0.24383819      -0.58021701      -0.05931319
7
Lattice="529.1772105638412 0.0 0.0 0.0 529.1772105638412 0.0 0.0 0.0 529.1772105638412" Properties=species:S:1:pos:R:3:forces_component_raw:R:3 ipi_comment="Step:       18360  Bead:       0 forces_component_raw{ase}  cell{ase}" pbc="T T T"
O        0.00000000       0.00000000       0.00000000      -0.28962320      -0.36127588      -3.00389338
H        0.00000000       0.00000000       0.00000000       0.56494415      -0.06688887       0.13504449
H        0.00000000       0.00000000       0.00000000      -0.59807158       0.11931403       1.77369893
O        0.00000000       0.00000000       0.00000000      -0.48386985      -2.14148379       0.67400754
H        0.00000000       0.00000000       0.00000000      -0.46147937      -0.02721275       0.59449303
H        0.00000000       0.00000000       0.00000000       1.49321175       1.80000210       0.23379287
H        0.00000000       0.00000000       0.00000000      -0.22511195       0.67754525      -0.40714377
7
Lattice="529.1772105638412 0.0 0.0 0.0 529.1772105638412 0.0 0.0 0.0 529.1772105638412" Properties=species:S:1:pos:R:3:forces_component_raw:R:3 ipi_comment="Step:       18380  Bead:       0 forces_component_raw{ase}  cell{ase}" pbc="T T T"
O        0.00000000       0.00000000       0.00000000       0.25596440      -0.42230496      -2.37253213
H        0.00000000       0.00000000       0.00000000      -0.96710390       0.16581425       0.02994710
H        0.00000000       0.00000000       0.00000000      -0.24449003       0.02865853       1.92532337
O        0.00000000       0.00000000       0.00000000      -0.24948561      -2.59925366       1.46631170
H        0.00000000       0.00000000       0.00000000       0.56843537       0.18243487      -0.32714334
H        0.00000000       0.00000000       0.00000000       1.29746688       2.16994620      -0.32900387
H        0.00000000       0.00000000       0.00000000      -0.66078723       0.47470510      -0.39290267
7
Lattice="529.1772105638412 0.0 0.0 0.0 529.1772105638412 0.0 0.0 0.0 529.1772105638412" Properties=species:S:1:pos:R:3:forces_component_raw:R:3 ipi_comment="Step:       18400  Bead:       0 forces_component_raw{ase}  cell{ase}" pbc="T T T"
O        0.00000000       0.00000000       0.00000000       3.72077704      -0.34239912      -0.81583071
H        0.00000000       0.00000000       0.00000000      -2.51675082       0.45874006       0.25989947
H        0.00000000       0.00000000       0.00000000      -0.75185728      -0.07235347       0.58202130
O        0.00000000       0.00000000       0.00000000      -0.89438266      -0.99885208      -0.30854991
H        0.00000000       0.00000000       0.00000000      -0.23711489      -0.10659493       0.36950117
H        0.00000000       0.00000000       0.00000000       0.77150035       0.67780519       0.04317093
H        0.00000000       0.00000000       0.00000000      -0.09217194       0.38365427      -0.13021219
7
Lattice="529.1772105638412 0.0 0.0 0.0 529.1772105638412 0.0 0.0 0.0 529.1772105638412" Properties=species:S:1:pos:R:3:forces_component_raw:R:3 ipi_comment="Step:       18420  Bead:       0 forces_component_raw{ase}  cell{ase}" pbc="T T T"
O        0.00000000       0.00000000       0.00000000       1.75508678      -0.22110230       0.13414830
H        0.00000000       0.00000000       0.00000000      -2.18732644       0.14200139       1.07431007
H        0.00000000       0.00000000       0.00000000       0.75125212       0.16787401      -0.79044700
O        0.00000000       0.00000000       0.00000000       0.27938032      -0.70349753       0.31785458
H        0.00000000       0.00000000       0.00000000       0.01431941       0.14237841      -0.44605008
H        0.00000000       0.00000000       0.00000000      -0.25984863       0.26847392      -0.27003938
H        0.00000000       0.00000000       0.00000000      -0.35286343       0.20387220      -0.01977666
7
Lattice="529.1772105638412 0.0 0.0 0.0 529.1772105638412 0.0 0.0 0.0 529.1772105638412" Properties=species:S:1:pos:R:3:forces_component_raw:R:3 ipi_comment="Step:       18440  Bead:       0 forces_component_raw{ase}  cell{ase}" pbc="T T T"
O        0.00000000       0.00000000       0.00000000       1.43059397      -0.88074207       2.42141343
H        0.00000000       0.00000000       0.00000000      -0.68988264       0.32162133      -0.34301382
H        0.00000000       0.00000000       0.00000000      -0.39651072       0.94862151      -1.75099516
O        0.00000000       0.00000000       0.00000000      -0.56236887       0.82637465      -0.66690326
H        0.00000000       0.00000000       0.00000000       0.00151167      -0.41238755       0.01837271
H        0.00000000       0.00000000       0.00000000      -0.30911237      -0.85918164       0.26516891
H        0.00000000       0.00000000       0.00000000       0.52576888       0.05569386       0.05595693
7
Lattice="529.1772105638412 0.0 0.0 0.0 529.1772105638412 0.0 0.0 0.0 529.1772105638412" Properties=species:S:1:pos:R:3:forces_component_raw:R:3 ipi_comment="Step:       18460  Bead:       0 forces_component_raw{ase}  cell{ase}" pbc="T T T"
O        0.00000000       0.00000000       0.00000000      -2.00791431      -1.00871444       0.89118731
H        0.00000000       0.00000000       0.00000000       0.51754344      -0.30430734       0.40129176
H        0.00000000       0.00000000       0.00000000       0.64025986       0.83817142      -1.84787047
O        0.00000000       0.00000000       0.00000000       1.85036898       1.07595313      -0.42490056
H        0.00000000       0.00000000       0.00000000       0.66790509       0.63287652       0.45266044
H        0.00000000       0.00000000       0.00000000      -1.52939892      -0.40779567       0.10887831
H        0.00000000       0.00000000       0.00000000      -0.13876426      -0.82618362       0.41875318
7
Lattice="529.1772105638412 0.0 0.0 0.0 529.1772105638412 0.0 0.0 0.0 529.1772105638412" Properties=species:S:1:pos:R:3:forces_component_raw:R:3 ipi_comment="Step:       18480  Bead:       0 forces_component_raw{ase}  cell{ase}" pbc="T T T"
O        0.00000000       0.00000000       0.00000000       0.23512283      -0.34718797       1.12417078
H        0.00000000       0.00000000       0.00000000       0.18810362       0.18625282      -1.15679431
H        0.00000000       0.00000000       0.00000000      -0.69292653       0.25147378      -0.23920199
O        0.00000000       0.00000000       0.00000000       1.61264754       2.55080176       0.01829007
H        0.00000000       0.00000000       0.00000000      -0.95910084      -0.74163538      -0.56920749
H        0.00000000       0.00000000       0.00000000      -0.83730853      -1.56631935       0.80523288
H        0.00000000       0.00000000       0.00000000       0.45346198      -0.33338553       0.01751009
7
Lattice="529.1772105638412 0.0 0.0 0.0 529.1772105638412 0.0 0.0 0.0 529.1772105638412" Properties=species:S:1:pos:R:3:forces_component_raw:R:3 ipi_comment="Step:       18500  Bead:       0 forces_component_raw{ase}  cell{ase}" pbc="T T T"
O        0.00000000       0.00000000       0.00000000      -2.77676964       0.34195727      -1.04869640
H        0.00000000       0.00000000       0.00000000       0.83539140      -0.46223098       0.28159386
H        0.00000000       0.00000000       0.00000000       1.07225430      -0.25414929       0.40913010
O        0.00000000       0.00000000       0.00000000       1.42811156       0.51312578       0.66657567
H        0.00000000       0.00000000       0.00000000       0.86037028       0.38081676       0.20095743
H        0.00000000       0.00000000       0.00000000      -1.20706487      -0.95568496      -0.21196912
H        0.00000000       0.00000000       0.00000000      -0.21229267       0.43616533      -0.29759175
7
Lattice="529.1772105638412 0.0 0.0 0.0 529.1772105638412 0.0 0.0 0.0 529.1772105638412" Properties=species:S:1:pos:R:3:forces_component_raw:R:3 ipi_comment="Step:       18520  Bead:       0 forces_component_raw{ase}  cell{ase}" pbc="T T T"
O        0.00000000       0.00000000       0.00000000       1.05781818       0.49707878       0.36310679
H        0.00000000       0.00000000       0.00000000       0.54855603       0.36881897      -0.78496391
H        0.00000000       0.00000000       0.00000000      -0.94762409      -0.34378964       0.57428575
O        0.00000000       0.00000000       0.00000000       0.27018628      -1.03007400       0.37959465
H        0.00000000       0.00000000       0.00000000      -0.28300378      -0.47642282       0.16549632
H        0.00000000       0.00000000       0.00000000      -0.33788002      -0.17392719      -0.23207785
H        0.00000000       0.00000000       0.00000000      -0.30805272       1.15831590      -0.46544185
7
Lattice="529.1772105638412 0.0 0.0 0.0 529.1772105638412 0.0 0.0 0.0 529.1772105638412" Properties=species:S:1:pos:R:3:forces_component_raw:R:3 ipi_comment="Step:       18540  Bead:       0 forces_component_raw{ase}  cell{ase}" pbc="T T T"
O        0.00000000       0.00000000       0.00000000      -0.80679131       0.69150221      -0.95069087
H        0.00000000       0.00000000       0.00000000       0.18837827      -0.24307537       0.35509443
H        0.00000000       0.00000000       0.00000000       0.55054629      -0.47174281       1.03686261
O        0.00000000       0.00000000       0.00000000      -0.85043901      -2.28712106      -0.02374391
H        0.00000000       0.00000000       0.00000000       0.52633804       0.21470332      -0.29977024
H        0.00000000       0.00000000       0.00000000       0.75572270       1.06032455       0.15233806
H        0.00000000       0.00000000       0.00000000      -0.36375493       1.03540921      -0.27009037
7
Lattice="529.1772105638412 0.0 0.0 0.0 529.1772105638412 0.0 0.0 0.0 529.1772105638412" Properties=species:S:1:pos:R:3:forces_component_raw:R:3 ipi_comment="Step:       18560  Bead:       0 forces_component_raw{ase}  cell{ase}" pbc="T T T"
O        0.00000000       0.00000000       0.00000000       1.35323334       0.23481442      -0.63322145
H        0.00000000       0.00000000       0.00000000      -0.35583219       0.25009355      -0.03258565
H        0.00000000       0.00000000       0.00000000      -0.65569431      -0.26415283       0.38521335
O        0.00000000       0.00000000       0.00000000      -0.88282705      -1.86233640      -0.28619927
H        0.00000000       0.00000000       0.00000000      -0.38061228      -0.29294679       0.38472527
H        0.00000000       0.00000000       0.00000000       1.08683062       1.68056584       0.24014072
H        0.00000000       0.00000000       0.00000000      -0.16509825       0.25396222      -0.05807290
7
Lattice="529.1772105638412 0.0 0.0 0.0 529.1772105638412 0.0 0.0 0.0 529.1772105638412" Properties=species:S:1:pos:R:3:forces_component_raw:R:3 ipi_comment="Step:       18580  Bead:       0 forces_component_raw{ase}  cell{ase}" pbc="T T T"
O        0.00000000       0.00000000       0.00000000      -0.06066552      -0.36601979      -0.09856987
H        0.00000000       0.00000000       0.00000000      -0.71356440       0.04567131       0.13587299
H        0.00000000       0.00000000       0.00000000       0.23918319       0.11228527      -0.22296032
O        0.00000000       0.00000000       0.00000000      -0.60977245      -0.94069493       0.14971677
H        0.00000000       0.00000000       0.00000000       0.14240395       0.37661529      -0.21257961
H        0.00000000       0.00000000       0.00000000       0.54108274       1.13375163       0.02834778
H        0.00000000       0.00000000       0.00000000       0.46133259      -0.36160874       0.22017223
7
Lattice="529.1772105638412 0.0 0.0 0.0 529.1772105638412 0.0 0.0 0.0 529.1772105638412" Properties=species:S:1:pos:R:3:forces_component_raw:R:3 ipi_comment="Step:       18600  Bead:       0 forces_component_raw{ase}  cell{ase}" pbc="T T T"
O        0.00000000       0.00000000       0.00000000       0.28615585      -0.21283628       1.37382925
H        0.00000000       0.00000000       0.00000000      -0.73341453       0.01208908      -0.03013194
H        0.00000000       0.00000000       0.00000000       0.20172131       0.21657011      -1.41570759
O        0.00000000       0.00000000       0.00000000      -0.59424007      -0.11292323       0.00750805
H        0.00000000       0.00000000       0.00000000      -0.24145852      -0.36421359      -0.30191210
H        0.00000000       0.00000000       0.00000000       0.19286239       1.49342335       0.32586944
H        0.00000000       0.00000000       0.00000000       0.88837350      -1.03210926       0.04054488
7
Lattice="529.1772105638412 0.0 0.0 0.0 529.1772105638412 0.0 0.0 0.0 529.1772105638412" Properties=species:S:1:pos:R:3:forces_component_raw:R:3 ipi_comment="Step:       18620  Bead:       0 forces_component_raw{ase}  cell{ase}" pbc="T T T"
O        0.00000000       0.00000000       0.00000000      -1.15540445       0.17821668       1.43180394
H        0.00000000       0.00000000       0.00000000       0.46888697       0.06669626       0.24650337
H        0.00000000       0.00000000       0.00000000       0.75818390      -0.29321551      -1.70147133
O        0.00000000       0.00000000       0.00000000      -0.74110204      -1.28665805      -0.66706050
H        0.00000000       0.00000000       0.00000000      -0.00407040       0.28297007       0.32753903
H        0.00000000       0.00000000       0.00000000       0.17131364       1.16963721       0.21087131
H        0.00000000       0.00000000       0.00000000       0.50219238      -0.11764663       0.15181422
7
Lattice="529.1772105638412 0.0 0.0 0.0 529.1772105638412 0.0 0.0 0.0 529.1772105638412" Properties=species:S:1:pos:R:3:forces_component_raw:R:3 ipi_comment="Step:       18640  Bead:       0 forces_component_raw{ase}  cell{ase}" pbc="T T T"
O        0.00000000       0.00000000       0.00000000      -1.60416317       0.44254577       1.64048076
H        0.00000000       0.00000000       0.00000000       1.46683574       0.46598274      -0.10928029
H        0.00000000       0.00000000       0.00000000       0.55290651      -0.71433968      -1.18475402
O        0.00000000       0.00000000       0.00000000      -0.12402213      -0.19431415      -0.04018402
H        0.00000000       0.00000000       0.00000000      -0.03673518      -0.25721860      -0.10141577
H        0.00000000       0.00000000       0.00000000      -0.16736677       0.49739742       0.10650243
H        0.00000000       0.00000000       0.00000000      -0.08745468      -0.24005351      -0.31134903
7
Lattice="529.1772105638412 0.0 0.0 0.0 529.1772105638412 0.0 0.0 0.0 529.1772105638412" Properties=species:S:1:pos:R:3:forces_component_raw:R:3 ipi_comment="Step:       18660  Bead:       0 forces_component_raw{ase}  cell{ase}" pbc="T T T"
O        0.00000000       0.00000000       0.00000000      -0.92865372      -2.23744202       0.36887243
H        0.00000000       0.00000000       0.00000000       1.23837018       1.47476912      -0.15155976
H        0.00000000       0.00000000       0.00000000      -0.09555191       0.63150406      -0.00982551
O        0.00000000       0.00000000       0.00000000       0.00544393       0.13451970       0.31129056
H        0.00000000       0.00000000       0.00000000       0.01895925       0.11606233      -0.17325270
H        0.00000000       0.00000000       0.00000000       0.50981444      -0.53118950      -0.16074707
H        0.00000000       0.00000000       0.00000000      -0.74838221       0.41177645      -0.18477802
7
Lattice="529.1772105638412 0.0 0.0 0.0 529.1772105638412 0.0 0.0 0.0 529.1772105638412" Properties=species:S:1:pos:R:3:forces_component_raw:R:3 ipi_comment="Step:       18680  Bead:       0 forces_component_raw{ase}  cell{ase}" pbc="T T T"
O        0.00000000       0.00000000       0.00000000      -1.06746269      -1.06197703      -0.11568531
H        0.00000000       0.00000000       0.00000000       1.55797112       0.70394933      -0.79740501
H        0.00000000       0.00000000       0.00000000      -0.82045520       0.20957488       0.35738698
O        0.00000000       0.00000000       0.00000000       0.71517599       1.08220077       1.63930762
H        0.00000000       0.00000000       0.00000000       0.11583127      -0.04490864       0.09969366
H        0.00000000       0.00000000       0.00000000       0.02784058      -0.92558235      -0.92350799
H        0.00000000       0.00000000       0.00000000      -0.52890092       0.03674293      -0.25978977
7
Lattice="529.1772105638412 0.0 0.0 0.0 529.1772105638412 0.0 0.0 0.0 529.1772105638412" Properties=species:S:1:pos:R:3:forces_component_raw:R:3 ipi_comment="Step:       18700  Bead:       0 forces_component_raw{ase}  cell{ase}" pbc="T T T"
O        0.00000000       0.00000000       0.00000000      -0.56132531      -1.33188641      -1.24835372
H        0.00000000       0.00000000       0.00000000       1.04346097       0.61935353      -0.14147048
H        0.00000000       0.00000000       0.00000000      -0.69596476       1.02186346       1.15097761
O        0.00000000       0.00000000       0.00000000      -0.05061641       1.23801160       0.96101201
H        0.00000000       0.00000000       0.00000000      -0.00667748      -0.42777658       0.17152315
H        0.00000000       0.00000000       0.00000000       0.16468228      -1.26743818      -1.13220167
H        0.00000000       0.00000000       0.00000000       0.10644060       0.14787239       0.23851340
7
Lattice="529.1772105638412 0.0 0.0 0.0 529.1772105638412 0.0 0.0 0.0 529.1772105638412" Properties=species:S:1:pos:R:3:forces_component_raw:R:3 ipi_comment="Step:       18720  Bead:       0 forces_component_raw{ase}  cell{ase}" pbc="T T T"
O        0.00000000       0.00000000       0.00000000      -0.30723018      -0.64616490      -0.04532203
H        0.00000000       0.00000000       0.00000000       0.28858256       0.06814174      -0.42817891
H        0.00000000       0.00000000       0.00000000      -0.42056334       0.52630854       0.84425754
O        0.00000000       0.00000000       0.00000000      -0.12488908       0.72738367       0.55406857
H        0.00000000       0.00000000       0.00000000       0.25897059       0.53645826      -0.43983740
H        0.00000000       0.00000000       0.00000000      -0.04284418      -1.38436675      -0.85153878
H        0.00000000       0.00000000       0.00000000       0.34797368       0.17223948       0.36655086
7
Lattice="529.1772105638412 0.0 0.0 0.0 529.1772105638412 0.0 0.0 0.0 529.1772105638412" Properties=species:S:1:pos:R:3:forces_component_raw:R:3 ipi_comment="Step:       18740  Bead:       0 forces_component_raw{ase}  cell{ase}" pbc="T T T"
O        0.00000000       0.00000000       0.00000000       0.91332424       0.60086811       0.23559323
H        0.00000000       0.00000000       0.00000000      -0.34410098      -0.23680657       0.01013809
H        0.00000000       0.00000000       0.00000000      -0.25176120      -0.05011000       0.00786120
O        0.00000000       0.00000000       0.00000000       0.01518196       1.02274585      -0.95055664
H        0.00000000       0.00000000       0.00000000      -0.11878882      -0.67423260       0.34385836
H        0.00000000       0.00000000       0.00000000      -0.08935726      -0.45725283       0.37237078
H        0.00000000       0.00000000       0.00000000      -0.12449801      -0.20521194      -0.01926503
7
Lattice="529.1772105638412 0.0 0.0 0.0 529.1772105638412 0.0 0.0 0.0 529.1772105638412" Properties=species:S:1:pos:R:3:forces_component_raw:R:3 ipi_comment="Step:       18760  Bead:       0 forces_component_raw{ase}  cell{ase}" pbc="T T T"
O        0.00000000       0.00000000       0.00000000       1.00914383       0.68532467       1.25723231
H        0.00000000       0.00000000       0.00000000      -1.12170267      -0.40633679      -0.01963887
H        0.00000000       0.00000000       0.00000000       0.54566741      -0.43282563      -0.78856057
O        0.00000000       0.00000000       0.00000000      -0.20836544      -0.85452092      -0.40633002
H        0.00000000       0.00000000       0.00000000      -0.10403472       0.65172368       0.06665040
H        0.00000000       0.00000000       0.00000000      -0.04361796       0.51399595      -0.03670600
H        0.00000000       0.00000000       0.00000000      -0.07709020      -0.15736091      -0.07264735
7
Lattice="529.1772105638412 0.0 0.0 0.0 529.1772105638412 0.0 0.0 0.0 529.1772105638412" Properties=species:S:1:pos:R:3:forces_component_raw:R:3 ipi_comment="Step:       18780  Bead:       0 forces_component_raw{ase}  cell{ase}" pbc="T T T"
O        0.00000000       0.00000000       0.00000000       0.54862028       0.80515158       0.85138959
H        0.00000000       0.00000000       0.00000000      -1.75074041      -0.57155597      -0.14933297
H        0.00000000       0.00000000       0.00000000       0.94782090      -0.34390742      -0.83822394
O        0.00000000       0.00000000       0.00000000      -0.32189828      -0.12162071       0.51308954
H        0.00000000       0.00000000       0.00000000       0.38112024      -0.36981857      -0.41143197
H        0.00000000       0.00000000       0.00000000       0.18732736       0.72451246       0.20533061
H        0.00000000       0.00000000       0.00000000       0.00774992      -0.12276140      -0.17082064
7
Lattice="529.1772105638412 0.0 0.0 0.0 529.1772105638412 0.0 0.0 0.0 529.1772105638412" Properties=species:S:1:pos:R:3:forces_component_raw:R:3 ipi_comment="Step:       18800  Bead:       0 forces_component_raw{ase}  cell{ase}" pbc="T T T"
O        0.00000000       0.00000000       0.00000000      -0.13571984       0.69086218       0.38488850
H        0.00000000       0.00000000       0.00000000      -0.59638906      -0.47071666      -0.10723060
H        0.00000000       0.00000000       0.00000000       0.60597217      -0.56727040      -1.22242475
O        0.00000000       0.00000000       0.00000000       0.92851013      -0.88604641       0.35049564
H        0.00000000       0.00000000       0.00000000      -0.28489611       0.45939276       0.51659519
H        0.00000000       0.00000000       0.00000000       0.08122930       0.29866624       0.04864310
H        0.00000000       0.00000000       0.00000000      -0.59870654       0.47511220       0.02903291
7
Lattice="529.1772105638412 0.0 0.0 0.0 529.1772105638412 0.0 0.0 0.0 529.1772105638412" Properties=species:S:1:pos:R:3:forces_component_raw:R:3 ipi_comment="Step:       18820  Bead:       0 forces_component_raw{ase}  cell{ase}" pbc="T T T"
O        0.00000000       0.00000000       0.00000000      -1.23294926       0.14482823       0.32689154
H        0.00000000       0.00000000       0.00000000      -0.22596058       0.07881033       0.05310842
H        0.00000000       0.00000000       0.00000000       0.93254703      -0.25753245      -0.65880340
O        0.00000000       0.00000000       0.00000000       0.78152257       0.14517824       0.72467917
H        0.00000000       0.00000000       0.00000000       0.51141018      -0.18559909      -0.11528175
H        0.00000000       0.00000000       0.00000000      -0.16799545      -0.37502176      -0.05585668
H        0.00000000       0.00000000       0.00000000      -0.59857440       0.44933647      -0.27473739
7
Lattice="529.1772105638412 0.0 0.0 0.0 529.1772105638412 0.0 0.0 0.0 529.1772105638412" Properties=species:S:1:pos:R:3:forces_component_raw:R:3 ipi_comment="Step:       18840  Bead:       0 forces_component_raw{ase}  cell{ase}" pbc="T T T"
O        0.00000000       0.00000000       0.00000000       1.32903338       0.47837418       0.03406486
H        0.00000000       0.00000000       0.00000000      -0.57478243      -0.45825032      -0.02395844
H        0.00000000       0.00000000       0.00000000      -0.38510352       0.08933549       0.18434155
O        0.00000000       0.00000000       0.00000000       0.59450793      -0.53203899       0.13152039
H        0.00000000       0.00000000       0.00000000      -0.58464164       0.04441565      -0.03019036
H        0.00000000       0.00000000       0.00000000      -0.04816929      -0.50045729      -0.01891968
H        0.00000000       0.00000000       0.00000000      -0.33084428       0.87862122      -0.27685839
7
Lattice="529.1772105638412 0.0 0.0 0.0 529.1772105638412 0.0 0.0 0.0 529.1772105638412" Properties=species:S:1:pos:R:3:forces_component_raw:R:3 ipi_comment="Step:       18860  Bead:       0 forces_component_raw{ase}  cell{ase}" pbc="T T T"
O        0.00000000       0.00000000       0.00000000       1.28737235      -0.01173064      -0.32319966
H        0.00000000       0.00000000       0.00000000      -0.95844549      -0.41567868       0.18504642
H        0.00000000       0.00000000       0.00000000      -0.28823954       0.70986056       0.83398664
O        0.00000000       0.00000000       0.00000000       0.36031386      -0.48781476       0.18196166
H        0.00000000       0.00000000       0.00000000       0.20358749      -0.05221213      -0.02543584
H        0.00000000       0.00000000       0.00000000      -0.22811723      -0.02420387      -0.25354725
H        0.00000000       0.00000000       0.00000000      -0.37647140       0.28177962      -0.59881222
7
Lattice="529.1772105638412 0.0 0.0 0.0 529.1772105638412 0.0 0.0 0.0 529.1772105638412" Properties=species:S:1:pos:R:3:forces_component_raw:R:3 ipi_comment="Step:       18880  Bead:       0 forces_component_raw{ase}  cell{ase}" pbc="T T T"
O        0.00000000       0.00000000       0.00000000       1.17521513      -0.08742814       0.26795942
H        0.00000000       0.00000000       0.00000000       0.30003351      -0.04553387      -0.15868174
H        0.00000000       0.00000000       0.00000000      -1.10804081       0.29877371       0.55662650
O        0.00000000       0.00000000       0.00000000      -0.81902325      -0.89524526      -0.96930993
H        0.00000000       0.00000000       0.00000000      -0.22813176       0.22781412       0.02442584
H        0.00000000       0.00000000       0.00000000       0.49826634       0.35146439       0.17943582
H        0.00000000       0.00000000       0.00000000       0.18168102       0.15015495       0.09954408
7
Lattice="529.1772105638412 0.0 0.0 0.0 529.1772105638412 0.0 0.0 0.0 529.1772105638412" Properties=species:S:1:pos:R:3:forces_component_raw:R:3 ipi_comment="Step:       18900  Bead:       0 forces_component_raw{ase}  cell{ase}" pbc="T T T"
O        0.00000000       0.00000000       0.00000000      -1.25509668      -1.46625734      -0.17957434
H        0.00000000       0.00000000       0.00000000       1.37578869       1.30867410       0.38984379
H        0.00000000       0.00000000       0.00000000       0.01593128       0.47157389       0.41354409
O        0.00000000       0.00000000       0.00000000      -0.13303474       0.30317742      -1.16061902
H        0.00000000       0.00000000       0.00000000       0.09016167      -0.04976070      -0.01360633
H        0.00000000       0.00000000       0.00000000       0.08041602       0.28176004      -0.28957561
H        0.00000000       0.00000000       0.00000000      -0.17416626      -0.84916759       0.83998752
7
Lattice="529.1772105638412 0.0 0.0 0.0 529.1772105638412 0.0 0.0 0.0 529.1772105638412" Properties=species:S:1:pos:R:3:forces_component_raw:R:3 ipi_comment="Step:       18920  Bead:       0 forces_component_raw{ase}  cell{ase}" pbc="T T T"
O        0.00000000       0.00000000       0.00000000      -1.67230916      -0.36599031       0.22203712
H        0.00000000       0.00000000       0.00000000       1.40917850       0.60712218      -0.03504485
H        0.00000000       0.00000000       0.00000000       0.20015794      -0.43057084      -0.38139361
O        0.00000000       0.00000000       0.00000000      -0.23521452       0.72826040      -1.04542649
H        0.00000000       0.00000000       0.00000000      -0.03033409       0.09434375      -0.37501046
H        0.00000000       0.00000000       0.00000000       0.00132625      -0.16484416       0.33390877
H        0.00000000       0.00000000       0.00000000       0.32719499      -0.46832109       1.28092945
7
Lattice="529.1772105638412 0.0 0.0 0.0 529.1772105638412 0.0 0.0 0.0 529.1772105638412" Properties=species:S:1:pos:R:3:forces_component_raw:R:3 ipi_comment="Step:       18940  Bead:       0 forces_component_raw{ase}  cell{ase}" pbc="T T T"
O        0.00000000       0.00000000       0.00000000      -1.84129167      -0.79913616      -1.01550186
H        0.00000000       0.00000000       0.00000000       1.05603791       0.69704521       0.42916045
H        0.00000000       0.00000000       0.00000000       0.72174061      -0.40866801      -0.49973050
O        0.00000000       0.00000000       0.00000000       0.62782449       1.33127010       0.43404189
H        0.00000000       0.00000000       0.00000000      -0.13004892       0.08333043       0.20492688
H        0.00000000       0.00000000       0.00000000      -0.38710758      -0.40265042      -0.23333496
H        0.00000000       0.00000000       0.00000000      -0.04715475      -0.50119114       0.68043816
7
Lattice="529.1772105638412 0.0 0.0 0.0 529.1772105638412 0.0 0.0 0.0 529.1772105638412" Properties=species:S:1:pos:R:3:forces_component_raw:R:3 ipi_comment="Step:       18960  Bead:       0 forces_component_raw{ase}  cell{ase}" pbc="T T T"
O        0.00000000       0.00000000       0.00000000      -0.09548911       0.71158129       0.39378429
H        0.00000000       0.00000000       0.00000000      -0.57780165      -0.36436522      -0.21561724
H        0.00000000       0.00000000       0.00000000       0.52221871      -0.44140992      -0.36361110
O        0.00000000       0.00000000       0.00000000       0.01292523       0.08531258       0.99250251
H        0.00000000       0.00000000       0.00000000       0.19876832      -0.01897325      -0.24354309
H        0.00000000       0.00000000       0.00000000      -0.26191205      -0.75083983       0.17637837
H        0.00000000       0.00000000       0.00000000       0.20129052       0.77869427      -0.73989380
7
Lattice="529.1772105638412 0.0 0.0 0.0 529.1772105638412 0.0 0.0 0.0 529.1772105638412" Properties=species:S:1:pos:R:3:forces_component_raw:R:3 ipi_comment="Step:       18980  Bead:       0 forces_component_raw{ase}  cell{ase}" pbc="T T T"
O        0.00000000       0.00000000       0.00000000       2.49747110       1.67458475       0.85936976
H        0.00000000       0.00000000       0.00000000      -2.19698191      -1.10010326      -0.23655592
H        0.00000000       0.00000000       0.00000000      -0.00888413       0.04823472       0.04008541
O        0.00000000       0.00000000       0.00000000       0.20809601      -1.54552436       1.39669621
H        0.00000000       0.00000000       0.00000000      -0.18869975      -0.16795366       0.11460550
H        0.00000000       0.00000000       0.00000000       0.05926422      -0.03779534      -0.12644860
H        0.00000000       0.00000000       0.00000000      -0.37026522       1.12855673      -2.04775238
7
Lattice="529.1772105638412 0.0 0.0 0.0 529.1772105638412 0.0 0.0 0.0 529.1772105638412" Properties=species:S:1:pos:R:3:forces_component_raw:R:3 ipi_comment="Step:       19000  Bead:       0 forces_component_raw{ase}  cell{ase}" pbc="T T T"
O        0.00000000       0.00000000       0.00000000       2.75495959       1.99949491       1.15214730
H        0.00000000       0.00000000       0.00000000      -2.50824166      -1.66768456      -0.35229141
H        0.00000000       0.00000000       0.00000000      -0.24171615       0.16572467       0.13650718
O        0.00000000       0.00000000       0.00000000       0.78462053      -2.83430696       1.52525688
H        0.00000000       0.00000000       0.00000000       0.12581274       0.30231109      -0.36052227
H        0.00000000       0.00000000       0.00000000       0.11772083       0.91572660      -0.14036086
H        0.00000000       0.00000000       0.00000000      -1.03315592       1.11873412      -1.96073676
7
Lattice="529.1772105638412 0.0 0.0 0.0 529.1772105638412 0.0 0.0 0.0 529.1772105638412" Properties=species:S:1:pos:R:3:forces_component_raw:R:3 ipi_comment="Step:       19020  Bead:       0 forces_component_raw{ase}  cell{ase}" pbc="T T T"
O        0.00000000       0.00000000       0.00000000       1.80528880       1.16303182      -0.22203863
H        0.00000000       0.00000000       0.00000000      -1.33097303      -1.16312099      -0.11134268
H        0.00000000       0.00000000       0.00000000      -0.32668585      -0.10276929      -0.09026961
O        0.00000000       0.00000000       0.00000000       0.92025328      -0.71485347       1.04553652
H        0.00000000       0.00000000       0.00000000      -0.01108563       0.07011215       0.74489790
H        0.00000000       0.00000000       0.00000000      -0.02647451       0.53298378       0.05776304
H        0.00000000       0.00000000       0.00000000      -1.03032315       0.21461582      -1.42454648
7
Lattice="529.1772105638412 0.0 0.0 0.0 529.1772105638412 0.0 0.0 0.0 529.1772105638412" Properties=species:S:1:pos:R:3:forces_component_raw:R:3 ipi_comment="Step:       19040  Bead:       0 forces_component_raw{ase}  cell{ase}" pbc="T T T"
O        0.00000000       0.00000000       0.00000000      -0.36466217      -0.29911995       0.23609281
H        0.00000000       0.00000000       0.00000000      -0.14574945       0.22350419       0.02152929
H        0.00000000       0.00000000       0.00000000       0.56689125      -0.05306242      -0.21116854
O        0.00000000       0.00000000       0.00000000       0.33890078       0.44367156       0.72959817
H        0.00000000       0.00000000       0.00000000      -0.00386308      -0.05735068      -0.41275597
H        0.00000000       0.00000000       0.00000000       0.01475123      -0.14907143      -0.00955927
H        0.00000000       0.00000000       0.00000000      -0.40626839      -0.10857138      -0.35373652
7
Lattice="529.1772105638412 0.0 0.0 0.0 529.1772105638412 0.0 0.0 0.0 529.1772105638412" Properties=species:S:1:pos:R:3:forces_component_raw:R:3 ipi_comment="Step:       19060  Bead:       0 forces_component_raw{ase}  cell{ase}" pbc="T T T"
O        0.00000000       0.00000000       0.00000000      -1.95990468       0.20120922       1.13695181
H        0.00000000       0.00000000       0.00000000       0.76109523       0.36883122      -0.42707640
H        0.00000000       0.00000000       0.00000000       1.09797204      -0.76968551      -0.45040965
O        0.00000000       0.00000000       0.00000000      -0.95528168      -0.42420134      -1.08957923
H        0.00000000       0.00000000       0.00000000      -0.01421955       0.14863248      -0.16734538
H        0.00000000       0.00000000       0.00000000       0.19681871       0.01238021       0.43795398
H        0.00000000       0.00000000       0.00000000       0.87351972       0.46283367       0.55950487
7
Lattice="529.1772105638412 0.0 0.0 0.0 529.1772105638412 0.0 0.0 0.0 529.1772105638412" Properties=species:S:1:pos:R:3:forces_component_raw:R:3 ipi_comment="Step:       19080  Bead:       0 forces_component_raw{ase}  cell{ase}" pbc="T T T"
O        0.00000000       0.00000000       0.00000000      -2.01131535      -1.05381274       0.13592756
H        0.00000000       0.00000000       0.00000000       1.04231990       1.36999882       0.07407887
H        0.00000000       0.00000000       0.00000000       1.13738609      -0.38749671      -0.42839438
O        0.00000000       0.00000000       0.00000000      -1.37765813       0.32013187      -1.18258715
H        0.00000000       0.00000000       0.00000000      -0.20422953      -0.07543269       0.32840604
H        0.00000000       0.00000000       0.00000000      -0.11921477      -0.47337195       0.22243315
H        0.00000000       0.00000000       0.00000000       1.53271151       0.29998353       0.85013610
7
Lattice="529.1772105638412 0.0 0.0 0.0 529.1772105638412 0.0 0.0 0.0 529.1772105638412" Properties=species:S:1:pos:R:3:forces_component_raw:R:3 ipi_comment="Step:       19100  Bead:       0 forces_component_raw{ase}  cell{ase}" pbc="T T T"
O        0.00000000       0.00000000       0.00000000      -1.88216377      -1.04874504       0.30135590
H        0.00000000       0.00000000       0.00000000       1.16851974       1.10449708      -0.10801038
H        0.00000000       0.00000000       0.00000000       0.52872026      -0.24439952      -0.13245398
O        0.00000000       0.00000000       0.00000000      -1.39001966      -1.11377645      -0.84285635
H        0.00000000       0.00000000       0.00000000       0.27423686       0.25579995      -0.22428140
H        0.00000000       0.00000000       0.00000000       0.38165549       0.23421219       0.23219019
H        0.00000000       0.00000000       0.00000000       0.91905135       0.81241179       0.77405590
7
Lattice="529.1772105638412 0.0 0.0 0.0 529.1772105638412 0.0 0.0 0.0 529.1772105638412" Properties=species:S:1:pos:R:3:forces_component_raw:R:3 ipi_comment="Step:       19120  Bead:       0 forces_component_raw{ase}  cell{ase}" pbc="T T T"
O        0.00000000       0.00000000       0.00000000       0.31744391      -0.44864166      -0.35252273
H        0.00000000       0.00000000       0.00000000       0.02908453       0.62062991       0.34488875
H        0.00000000       0.00000000       0.00000000      -0.11018062       0.21114369       0.03782835
O        0.00000000       0.00000000       0.00000000       0.33938053       0.60824192       0.63935042
H        0.00000000       0.00000000       0.00000000      -0.39927936      -0.51936114      -0.05080022
H        0.00000000       0.00000000       0.00000000      -0.79799038      -0.13328517      -0.46206987
H        0.00000000       0.00000000       0.00000000       0.62154144      -0.33872750      -0.15667468
7
Lattice="529.1772105638412 0.0 0.0 0.0 529.1772105638412 0.0 0.0 0.0 529.1772105638412" Properties=species:S:1:pos:R:3:forces_component_raw:R:3 ipi_comment="Step:       19140  Bead:       0 forces_component_raw{ase}  cell{ase}" pbc="T T T"
O        0.00000000       0.00000000       0.00000000       1.53121305       0.57032234      -0.83510590
H        0.00000000       0.00000000       0.00000000      -0.17405260      -0.83461231      -0.01958457
H        0.00000000       0.00000000       0.00000000      -1.51711655      -0.05650392       0.55171895
O        0.00000000       0.00000000       0.00000000       1.67020774      -0.89871836      -1.05586696
H        0.00000000       0.00000000       0.00000000       0.30102655       0.64100707       0.40964294
H        0.00000000       0.00000000       0.00000000      -0.83172012       0.41500452       1.01745618
H        0.00000000       0.00000000       0.00000000      -0.97955811       0.16350067      -0.06826067
7
Lattice="529.1772105638412 0.0 0.0 0.0 529.1772105638412 0.0 0.0 0.0 529.1772105638412" Properties=species:S:1:pos:R:3:forces_component_raw:R:3 ipi_comment="Step:       19160  Bead:       0 forces_component_raw{ase}  cell{ase}" pbc="T T T"
O        0.00000000       0.00000000       0.00000000       2.90595413       1.68079949      -0.72734988
H        0.00000000       0.00000000       0.00000000      -0.64395386      -1.48493505       0.39190024
H        0.00000000       0.00000000       0.00000000      -2.09503460       0.23177682       0.69039780
O        0.00000000       0.00000000       0.00000000       1.94846642      -0.54009879       0.81105775
H        0.00000000       0.00000000       0.00000000      -0.44942409      -0.10849645      -0.29690716
H        0.00000000       0.00000000       0.00000000      -1.58847213      -0.06085560       0.13959754
H        0.00000000       0.00000000       0.00000000      -0.07753587       0.28180957      -1.00869608
7
Lattice="529.1772105638412 0.0 0.0 0.0 529.1772105638412 0.0 0.0 0.0 529.1772105638412" Properties=species:S:1:pos:R:3:forces_component_raw:R:3 ipi_comment="Step:       19180  Bead:       0 forces_component_raw{ase}  cell{ase}" pbc="T T T"
O        0.00000000       0.00000000       0.00000000       1.91708422       1.43862689      -1.14892352
H        0.00000000       0.00000000       0.00000000      -0.36678705      -1.13649261       0.39206195
H        0.00000000       0.00000000       0.00000000      -1.64991784       0.15442285       0.85219801
O        0.00000000       0.00000000       0.00000000       0.52315402      -0.37490842      -1.27145112
H        0.00000000       0.00000000       0.00000000       0.38247734      -0.24334452       0.28328863
H        0.00000000       0.00000000       0.00000000       0.12602815       0.24160168       0.72094762
H        0.00000000       0.00000000       0.00000000      -0.93203867      -0.07990583       0.17187837
7
Lattice="529.1772105638412 0.0 0.0 0.0 529.1772105638412 0.0 0.0 0.0 529.1772105638412" Properties=species:S:1:pos:R:3:forces_component_raw:R:3 ipi_comment="Step:       19200  Bead:       0 forces_component_raw{ase}  cell{ase}" pbc="T T T"
O        0.00000000       0.00000000       0.00000000       0.11547159       0.06292486      -0.23492897
H        0.00000000       0.00000000       0.00000000       0.00019419      -0.43698913      -0.06693468
H        0.00000000       0.00000000       0.00000000      -0.33444578       0.15606517       0.49300617
O        0.00000000       0.00000000       0.00000000      -0.04132786       0.51770246       1.57813633
H        0.00000000       0.00000000       0.00000000       0.05827970       0.28923899      -0.08819239
H        0.00000000       0.00000000       0.00000000      -0.15536869      -0.49162352      -1.08518315
H        0.00000000       0.00000000       0.00000000       0.35719675      -0.09731881      -0.59590328
7
Lattice="529.1772105638412 0.0 0.0 0.0 529.1772105638412 0.0 0.0 0.0 529.1772105638412" Properties=species:S:1:pos:R:3:forces_component_raw:R:3 ipi_comment="Step:       19220  Bead:       0 forces_component_raw{ase}  cell{ase}" pbc="T T T"
O        0.00000000       0.00000000       0.00000000      -0.46186560      -0.71385157       0.02035323
H        0.00000000       0.00000000       0.00000000       0.16731508       0.47352466      -0.10032898
H        0.00000000       0.00000000       0.00000000       0.36198694      -0.12426305      -0.43071032
O        0.00000000       0.00000000       0.00000000      -1.46206045      -0.19220765       0.40007553
H        0.00000000       0.00000000       0.00000000      -0.40091205       0.02991087       0.40805662
H        0.00000000       0.00000000       0.00000000       1.42916465      -0.08200091      -1.06668771
H        0.00000000       0.00000000       0.00000000       0.36637142       0.60888779       0.76924169
7
Lattice="529.1772105638412 0.0 0.0 0.0 529.1772105638412 0.0 0.0 0.0 529.1772105638412" Properties=species:S:1:pos:R:3:forces_component_raw:R:3 ipi_comment="Step:       19240  Bead:       0 forces_component_raw{ase}  cell{ase}" pbc="T T T"
O        0.00000000       0.00000000       0.00000000      -1.40010214      -1.25353313       1.03896415
H        0.00000000       0.00000000       0.00000000       0.16310929       0.96400678      -0.10684562
H        0.00000000       0.00000000       0.00000000       1.03526414       0.07189447      -1.09613896
O        0.00000000       0.00000000       0.00000000      -1.73743296       0.66608375       1.54717017
H        0.00000000       0.00000000       0.00000000       0.60443825      -0.24054991      -0.30350488
H        0.00000000       0.00000000       0.00000000       0.48859167      -0.29017758      -0.96666789
H        0.00000000       0.00000000       0.00000000       0.84613168       0.08227550      -0.11297695
7
Lattice="529.1772105638412 0.0 0.0 0.0 529.1772105638412 0.0 0.0 0.0 529.1772105638412" Properties=species:S:1:pos:R:3:forces_component_raw:R:3 ipi_comment="Step:       19260  Bead:       0 forces_component_raw{ase}  cell{ase}" pbc="T T T"
O        0.00000000       0.00000000       0.00000000      -0.88599754      -0.74192411       1.47880090
H        0.00000000       0.00000000       0.00000000       0.12990566       0.44531801      -0.06234375
H        0.00000000       0.00000000       0.00000000       0.99464160       0.10182396      -1.40717411
O        0.00000000       0.00000000       0.00000000      -0.12246056      -0.50397098      -0.01470737
H        0.00000000       0.00000000       0.00000000      -0.59664768       0.44867927      -0.09447669
H        0.00000000       0.00000000       0.00000000       0.01735550      -0.08713914      -0.12037157
H        0.00000000       0.00000000       0.00000000       0.46320307       0.33721280       0.22027262
7
Lattice="529.1772105638412 0.0 0.0 0.0 529.1772105638412 0.0 0.0 0.0 529.1772105638412" Properties=species:S:1:pos:R:3:forces_component_raw:R:3 ipi_comment="Step:       19280  Bead:       0 forces_component_raw{ase}  cell{ase}" pbc="T T T"
O        0.00000000       0.00000000       0.00000000      -0.57998204      -0.01768118       1.34820473
H        0.00000000       0.00000000       0.00000000       0.00653549       0.32032210       0.05476451
H        0.00000000       0.00000000       0.00000000       0.56555563       0.13024366      -1.24245644
O        0.00000000       0.00000000       0.00000000      -0.62596464      -0.47435975      -0.78766215
H        0.00000000       0.00000000       0.00000000       0.20077707      -0.16885684       0.04819610
H        0.00000000       0.00000000       0.00000000      -0.26682955       0.05993380       0.35851234
H        0.00000000       0.00000000       0.00000000       0.69990790       0.15039834       0.22044098
7
Lattice="529.1772105638412 0.0 0.0 0.0 529.1772105638412 0.0 0.0 0.0 529.1772105638412" Properties=species:S:1:pos:R:3:forces_component_raw:R:3 ipi_comment="Step:       19300  Bead:       0 forces_component_raw{ase}  cell{ase}" pbc="T T T"
O        0.00000000       0.00000000       0.00000000      -0.11979873       0.69976205       0.57441896
H        0.00000000       0.00000000       0.00000000       0.13169700      -0.46804196       0.15906966
H        0.00000000       0.00000000       0.00000000       0.10610852       0.03741390      -0.68842375
O        0.00000000       0.00000000       0.00000000       1.46136022       0.51998139      -0.27637687
H        0.00000000       0.00000000       0.00000000      -0.23501456      -0.55566192      -0.10662293
H        0.00000000       0.00000000       0.00000000      -0.71777511      -0.12856954       0.67228180
H        0.00000000       0.00000000       0.00000000      -0.62657738      -0.10488372      -0.33434692
7
Lattice="529.1772105638412 0.0 0.0 0.0 529.1772105638412 0.0 0.0 0.0 529.1772105638412" Properties=species:S:1:pos:R:3:forces_component_raw:R:3 ipi_comment="Step:       19320  Bead:       0 forces_component_raw{ase}  cell{ase}" pbc="T T T"
O        0.00000000       0.00000000       0.00000000      -0.36761725       0.51492363      -0.97269869
H        0.00000000       0.00000000       0.00000000       0.25414768      -0.87326700       0.23894465
H        0.00000000       0.00000000       0.00000000       0.13189107       0.26005173       0.95587242
O        0.00000000       0.00000000       0.00000000       1.43486333      -0.58387369      -0.41047943
H        0.00000000       0.00000000       0.00000000       0.14216962       0.55077011      -0.12708098
H        0.00000000       0.00000000       0.00000000      -0.92937404       0.11448419       0.88299221
H        0.00000000       0.00000000       0.00000000      -0.66608060       0.01691101      -0.56755018
7
Lattice="529.1772105638412 0.0 0.0 0.0 529.1772105638412 0.0 0.0 0.0 529.1772105638412" Properties=species:S:1:pos:R:3:forces_component_raw:R:3 ipi_comment="Step:       19340  Bead:       0 forces_component_raw{ase}  cell{ase}" pbc="T T T"
O        0.00000000       0.00000000       0.00000000      -0.62195754       1.26860464      -1.74196411
H        0.00000000       0.00000000       0.00000000       0.12708829      -0.46372452      -0.22318229
H        0.00000000       0.00000000       0.00000000       0.52711272      -0.57566637       1.62691188
O        0.00000000       0.00000000       0.00000000       1.68457473       0.63278937       0.17432746
H        0.00000000       0.00000000       0.00000000      -0.14201513      -0.61681140       0.49529278
H        0.00000000       0.00000000       0.00000000      -0.84225840      -0.07967833       0.43042880
H        0.00000000       0.00000000       0.00000000      -0.73254454      -0.16551343      -0.76181460
7
Lattice="529.1772105638412 0.0 0.0 0.0 529.1772105638412 0.0 0.0 0.0 529.1772105638412" Properties=species:S:1:pos:R:3:forces_component_raw:R:3 ipi_comment="Step:       19360  Bead:       0 forces_component_raw{ase}  cell{ase}" pbc="T T T"
O        0.00000000       0.00000000       0.00000000      -0.35623387      -2.16391302      -1.79331875
H        0.00000000       0.00000000       0.00000000      -0.09538037       0.72688538       0.12235807
H        0.00000000       0.00000000       0.00000000       0.55599308       0.78821230       1.81181467
O        0.00000000       0.00000000       0.00000000       1.10882581      -0.47429833       0.01636693
H        0.00000000       0.00000000       0.00000000       0.06674841       0.93280876      -0.32675606
H        0.00000000       0.00000000       0.00000000      -0.28500259       0.31776875       0.57638466
H        0.00000000       0.00000000       0.00000000      -0.99495042      -0.12746383      -0.40684939
7
Lattice="529.1772105638412 0.0 0.0 0.0 529.1772105638412 0.0 0.0 0.0 529.1772105638412" Properties=species:S:1:pos:R:3:forces_component_raw:R:3 ipi_comment="Step:       19380  Bead:       0 forces_component_raw{ase}  cell{ase}" pbc="T T T"
O        0.00000000       0.00000000       0.00000000      -0.35877666       0.28684211      -0.35024303
H        0.00000000       0.00000000       0.00000000      -0.72050643       1.22156263      -0.84611607
H        0.00000000       0.00000000       0.00000000       0.84252006      -1.00704611       1.11747897
O        0.00000000       0.00000000       0.00000000       0.21661305       0.66023886       0.69296277
H        0.00000000       0.00000000       0.00000000       0.44795314      -0.65390563       0.26610890
H        0.00000000       0.00000000       0.00000000      -0.24572969      -0.14039761      -0.25281435
H        0.00000000       0.00000000       0.00000000      -0.18207341      -0.36729413      -0.62737721
7
Lattice="529.1772105638412 0.0 0.0 0.0 529.1772105638412 0.0 0.0 0.0 529.1772105638412" Properties=species:S:1:pos:R:3:forces_component_raw:R:3 ipi_comment="Step:       19400  Bead:       0 forces_component_raw{ase}  cell{ase}" pbc="T T T"
O        0.00000000       0.00000000       0.00000000       0.07897222      -2.02589775      -0.26482177
H        0.00000000       0.00000000       0.00000000      -0.00064773       1.66814900       0.08157988
H        0.00000000       0.00000000       0.00000000       0.15220740       0.57272864       0.26926577
O        0.00000000       0.00000000       0.00000000      -0.47689748      -0.64956206      -0.96411753
H        0.00000000       0.00000000       0.00000000      -0.73793596       0.28185737       0.15177949
H        0.00000000       0.00000000       0.00000000       0.75453091      -0.42057127       0.01183534
H        0.00000000       0.00000000       0.00000000       0.22977066       0.57329607       0.71447867
7
Lattice="529.1772105638412 0.0 0.0 0.0 529.1772105638412 0.0 0.0 0.0 529.1772105638412" Properties=species:S:1:pos:R:3:forces_component_raw:R:3 ipi_comment="Step:       19420  Bead:       0 forces_component_raw{ase}  cell{ase}" pbc="T T T"
O        0.00000000       0.00000000       0.00000000       0.75754035       0.66269857       1.77567935
H        0.00000000       0.00000000       0.00000000      -0.19517198      -0.19148156      -0.22524256
H        0.00000000       0.00000000       0.00000000      -1.02405548      -0.37192091      -1.12873352
O        0.00000000       0.00000000       0.00000000      -2.00507474       0.43102312      -0.16756439
H        0.00000000       0.00000000       0.00000000       1.26336444      -0.21210004      -0.54184628
H        0.00000000       0.00000000       0.00000000       0.00820160      -0.05355300      -0.17306091
H        0.00000000       0.00000000       0.00000000       1.19519580      -0.26466608       0.46076819
7
Lattice="529.1772105638412 0.0 0.0 0.0 529.1772105638412 0.0 0.0 0.0 529.1772105638412" Properties=species:S:1:pos:R:3:forces_component_raw:R:3 ipi_comment="Step:       19440  Bead:       0 forces_component_raw{ase}  cell{ase}" pbc="T T T"
O        0.00000000       0.00000000       0.00000000       1.07807350       0.56921786      -0.19300583
H        0.00000000       0.00000000       0.00000000       0.27359402      -1.42299414       0.82898581
H        0.00000000       0.00000000       0.00000000      -1.13117790       0.10712332      -1.13758052
O        0.00000000       0.00000000       0.00000000       1.00389362      -0.49323458      -0.85456121
H        0.00000000       0.00000000       0.00000000      -0.77739990       0.38084340       0.28115606
H        0.00000000       0.00000000       0.00000000      -1.02382612       0.48724282       0.52095008
H        0.00000000       0.00000000       0.00000000       0.57684302       0.37180120       0.55405581
7
Lattice="529.1772105638412 0.0 0.0 0.0 529.1772105638412 0.0 0.0 0.0 529.1772105638412" Properties=species:S:1:pos:R:3:forces_component_raw:R:3 ipi_comment="Step:       19460  Bead:       0 forces_component_raw{ase}  cell{ase}" pbc="T T T"
O        0.00000000       0.00000000       0.00000000      -0.26058990       3.32082749      -2.00778103
H        0.00000000       0.00000000       0.00000000       0.28675997      -3.25540043       1.98499930
H        0.00000000       0.00000000       0.00000000      -0.24102736      -0.09666437      -0.44014651
O        0.00000000       0.00000000       0.00000000       1.21936441      -0.21760431      -0.55619776
H        0.00000000       0.00000000       0.00000000       0.40357971      -0.41337964       0.48624092
H        0.00000000       0.00000000       0.00000000      -1.10244906       0.72290361       0.72887814
H        0.00000000       0.00000000       0.00000000      -0.30563778      -0.06068215      -0.19599310
7
Lattice="529.1772105638412 0.0 0.0 0.0 529.1772105638412 0.0 0.0 0.0 529.1772105638412" Properties=species:S:1:pos:R:3:forces_component_raw:R:3 ipi_comment="Step:       19480  Bead:       0 forces_component_raw{ase}  cell{ase}" pbc="T T T"
O        0.00000000       0.00000000       0.00000000      -0.11653744       1.89325643      -1.19914663
H        0.00000000       0.00000000       0.00000000      -0.16049778      -2.80789972       1.45770181
H        0.00000000       0.00000000       0.00000000       0.33819020       0.47878379       0.53732157
O        0.00000000       0.00000000       0.00000000       0.69164801      -0.99633497       0.94525582
H        0.00000000       0.00000000       0.00000000       0.16816643       0.92681468      -1.19276417
H        0.00000000       0.00000000       0.00000000      -0.87917298       0.49132568       0.09941231
H        0.00000000       0.00000000       0.00000000      -0.04179651       0.01405430      -0.64778054
7
Lattice="529.1772105638412 0.0 0.0 0.0 529.1772105638412 0.0 0.0 0.0 529.1772105638412" Properties=species:S:1:pos:R:3:forces_component_raw:R:3 ipi_comment="Step:       19500  Bead:       0 forces_component_raw{ase}  cell{ase}" pbc="T T T"
O        0.00000000       0.00000000       0.00000000       0.12472851       1.55888343      -1.37688732
H        0.00000000       0.00000000       0.00000000      -0.23235871      -0.59347874       0.58182252
H        0.00000000       0.00000000       0.00000000       0.10292949      -0.52399254       0.01432905
O        0.00000000       0.00000000       0.00000000       0.83431697      -0.17533401      -0.40242276
H        0.00000000       0.00000000       0.00000000      -0.31612456      -0.41934434       1.28592158
H        0.00000000       0.00000000       0.00000000       0.24112579      -0.14058824       0.18271054
H        0.00000000       0.00000000       0.00000000      -0.75461745       0.29385439      -0.28547368
7
Lattice="529.1772105638412 0.0 0.0 0.0 529.1772105638412 0.0 0.0 0.0 529.1772105638412" Properties=species:S:1:pos:R:3:forces_component_raw:R:3 ipi_comment="Step:       19520  Bead:       0 forces_component_raw{ase}  cell{ase}" pbc="T T T"
O        0.00000000       0.00000000       0.00000000      -0.53357005      -1.06195379       1.48986757
H        0.00000000       0.00000000       0.00000000       0.45446125       0.89315868      -0.77689982
H        0.00000000       0.00000000       0.00000000      -0.03718697       0.20489031      -0.16320986
O        0.00000000       0.00000000       0.00000000      -0.55611521       0.61385113       1.14442480
H        0.00000000       0.00000000       0.00000000       0.18251692       0.14832293      -0.78068638
H        0.00000000       0.00000000       0.00000000       0.77970219      -0.77579558      -0.39902636
H        0.00000000       0.00000000       0.00000000      -0.28980824      -0.02247363      -0.51447010
7
Lattice="529.1772105638412 0.0 0.0 0.0 529.1772105638412 0.0 0.0 0.0 529.1772105638412" Properties=species:S:1:pos:R:3:forces_component_raw:R:3 ipi_comment="Step:       19540  Bead:       0 forces_component_raw{ase}  cell{ase}" pbc="T T T"
O        0.00000000       0.00000000       0.00000000      -0.34132984      -1.50157428       0.69685650
H        0.00000000       0.00000000       0.00000000       0.11485483       1.49499917      -1.14708305
H        0.00000000       0.00000000       0.00000000       0.13949834       0.09411389       0.45126563
O        0.00000000       0.00000000       0.00000000      -1.05623985       0.81988853       0.23023881
H        0.00000000       0.00000000       0.00000000       0.51153410      -0.06978799       0.26056534
H        0.00000000       0.00000000       0.00000000       1.01381994      -0.59406859       0.03628743
H        0.00000000       0.00000000       0.00000000      -0.38213751      -0.24357082      -0.52813077
7
Lattice="529.1772105638412 0.0 0.0 0.0 529.1772105638412 0.0 0.0 0.0 529.1772105638412" Properties=species:S:1:pos:R:3:forces_component_raw:R:3 ipi_comment="Step:       19560  Bead:       0 forces_component_raw{ase}  cell{ase}" pbc="T T T"
O        0.00000000       0.00000000       0.00000000      -0.04525398      -1.17855752      -0.34356099
H        0.00000000       0.00000000       0.00000000      -0.13447018       1.37246204      -1.27783084
H        0.00000000       0.00000000       0.00000000       0.66248000       0.07850447       1.58360052
O        0.00000000       0.00000000       0.00000000      -0.32135108       0.65377307      -0.13234571
H        0.00000000       0.00000000       0.00000000      -1.11674643       0.09545384       0.20016073
H        0.00000000       0.00000000       0.00000000       1.11419189      -1.26047278       0.09612045
H        0.00000000       0.00000000       0.00000000      -0.15885034       0.23883674      -0.12614402
7
Lattice="529.1772105638412 0.0 0.0 0.0 529.1772105638412 0.0 0.0 0.0 529.1772105638412" Properties=species:S:1:pos:R:3:forces_component_raw:R:3 ipi_comment="Step:       19580  Bead:       0 forces_component_raw{ase}  cell{ase}" pbc="T T T"
O        0.00000000       0.00000000       0.00000000      -0.53180868      -1.81856966      -1.51075876
H        0.00000000       0.00000000       0.00000000      -0.12827991       0.94296909      -0.08579013
H        0.00000000       0.00000000       0.00000000       0.41005680       0.76585686       1.48599387
O        0.00000000       0.00000000       0.00000000      -1.52092052       1.13698530      -0.59210098
H        0.00000000       0.00000000       0.00000000       0.68299866      -0.06330836       0.29760212
H        0.00000000       0.00000000       0.00000000       1.14629483      -0.82820779       0.42214096
H        0.00000000       0.00000000       0.00000000      -0.05834118      -0.13572538      -0.01708713
7
Lattice="529.1772105638412 0.0 0.0 0.0 529.1772105638412 0.0 0.0 0.0 529.1772105638412" Properties=species:S:1:pos:R:3:forces_component_raw:R:3 ipi_comment="Step:       19600  Bead:       0 forces_component_raw{ase}  cell{ase}" pbc="T T T"
O        0.00000000       0.00000000       0.00000000      -0.39355010       0.00744712      -0.26036167
H        0.00000000       0.00000000       0.00000000       0.00957140      -0.28731149      -0.17650250
H        0.00000000       0.00000000       0.00000000       0.25555465      -0.08624834       0.56328124
O        0.00000000       0.00000000       0.00000000      -0.26707351       1.12223363      -0.04079026
H        0.00000000       0.00000000       0.00000000      -0.01958281      -0.35664135      -0.79866463
H        0.00000000       0.00000000       0.00000000       0.36902317      -0.68060285       0.29245022
H        0.00000000       0.00000000       0.00000000       0.04605725       0.28112322       0.42058733
7
Lattice="529.1772105638412 0.0 0.0 0.0 529.1772105638412 0.0 0.0 0.0 529.1772105638412" Properties=species:S:1:pos:R:3:forces_component_raw:R:3 ipi_comment="Step:       19620  Bead:       0 forces_component_raw{ase}  cell{ase}" pbc="T T T"
O        0.00000000       0.00000000       0.00000000      -0.65774197       0.03839678      -0.76584363
H        0.00000000       0.00000000       0.00000000       0.63815874      -0.37219453       0.33571324
H        0.00000000       0.00000000       0.00000000       0.01999706       0.06238377      -0.00155938
O        0.00000000       0.00000000       0.00000000       0.02376486       0.20080374      -0.89950705
H        0.00000000       0.00000000       0.00000000      -0.17944086       0.25362665       0.92970610
H        0.00000000       0.00000000       0.00000000       0.23380734      -0.13534221       0.38552287
H        0.00000000       0.00000000       0.00000000      -0.07854512      -0.04767430       0.01596773
7
Lattice="529.1772105638412 0.0 0.0 0.0 529.1772105638412 0.0 0.0 0.0 529.1772105638412" Properties=species:S:1:pos:R:3:forces_component_raw:R:3 ipi_comment="Step:       19640  Bead:       0 forces_component_raw{ase}  cell{ase}" pbc="T T T"
O        0.00000000       0.00000000       0.00000000       0.16559254       1.47587121       1.60107613
H        0.00000000       0.00000000       0.00000000       0.51761890      -0.59032816       0.10270789
H        0.00000000       0.00000000       0.00000000      -0.44431758      -0.35810074      -1.32426441
O        0.00000000       0.00000000       0.00000000       0.17973758      -1.31224203       1.23867059
H        0.00000000       0.00000000       0.00000000      -0.13975798       0.19633469      -0.38282320
H        0.00000000       0.00000000       0.00000000      -0.40984869       0.63108724      -0.61896765
H        0.00000000       0.00000000       0.00000000       0.13097511      -0.04262227      -0.61639965
7
Lattice="529.1772105638412 0.0 0.0 0.0 529.1772105638412 0.0 0.0 0.0 529.1772105638412" Properties=species:S:1:pos:R:3:forces_component_raw:R:3 ipi_comment="Step:       19660  Bead:       0 forces_component_raw{ase}  cell{ase}" pbc="T T T"
O        0.00000000       0.00000000       0.00000000       0.67059958       2.02802086       2.92148019
H        0.00000000       0.00000000       0.00000000       0.23030645      -0.09022982       0.17263973
H        0.00000000       0.00000000       0.00000000      -1.08744228      -1.15115488      -3.12411452
O        0.00000000       0.00000000       0.00000000      -0.42187467      -1.43602181       1.15981269
H        0.00000000       0.00000000       0.00000000       0.74638808      -0.21682048       0.16155067
H        0.00000000       0.00000000       0.00000000      -0.34691635       0.95478428      -0.95793766
H        0.00000000       0.00000000       0.00000000       0.20893903      -0.08857840      -0.33343071
7
Lattice="529.1772105638412 0.0 0.0 0.0 529.1772105638412 0.0 0.0 0.0 529.1772105638412" Properties=species:S:1:pos:R:3:forces_component_raw:R:3 ipi_comment="Step:       19680  Bead:       0 forces_component_raw{ase}  cell{ase}" pbc="T T T"
O        0.00000000       0.00000000       0.00000000       1.39827097       2.05163002       2.70773650
H        0.00000000       0.00000000       0.00000000       0.22252852      -0.52126664       0.34454125
H        0.00000000       0.00000000       0.00000000      -0.97510463      -0.98951155      -2.88969994
O        0.00000000       0.00000000       0.00000000       0.81308472      -1.99661124       0.88012612
H        0.00000000       0.00000000       0.00000000      -0.78480923       0.14783943      -0.12189628
H        0.00000000       0.00000000       0.00000000      -0.46723878       1.04997087      -1.02641392
H        0.00000000       0.00000000       0.00000000      -0.20673156       0.25794905       0.10560614
7
Lattice="529.1772105638412 0.0 0.0 0.0 529.1772105638412 0.0 0.0 0.0 529.1772105638412" Properties=species:S:1:pos:R:3:forces_component_raw:R:3 ipi_comment="Step:       19700  Bead:       0 forces_component_raw{ase}  cell{ase}" pbc="T T T"
O        0.00000000       0.00000000       0.00000000      -0.30949527       1.01989734       0.66556579
H        0.00000000       0.00000000       0.00000000       0.25759262       0.34640521       0.12799406
H        0.00000000       0.00000000       0.00000000      -0.55056954      -0.69131315      -1.20460999
O        0.00000000       0.00000000       0.00000000      -0.78585738      -0.65498138       0.14917582
H        0.00000000       0.00000000       0.00000000       1.15893054      -0.03469442       0.52001721
H        0.00000000       0.00000000       0.00000000       0.07679706       0.07601371      -0.41837025
H        0.00000000       0.00000000       0.00000000       0.15260214      -0.06132731       0.16022712
7
Lattice="529.1772105638412 0.0 0.0 0.0 529.1772105638412 0.0 0.0 0.0 529.1772105638412" Properties=species:S:1:pos:R:3:forces_component_raw:R:3 ipi_comment="Step:       19720  Bead:       0 forces_component_raw{ase}  cell{ase}" pbc="T T T"
O        0.00000000       0.00000000       0.00000000      -0.10521788      -0.52436197      -0.08402416
H        0.00000000       0.00000000       0.00000000      -0.11576304      -0.37917647      -0.24321061
H        0.00000000       0.00000000       0.00000000       0.65065408       0.42589033       0.79395223
O        0.00000000       0.00000000       0.00000000       0.05193742       0.55868626       0.03476094
H        0.00000000       0.00000000       0.00000000      -0.77159023       0.48006171      -0.71592689
H        0.00000000       0.00000000       0.00000000       0.08379262      -0.44376645       0.65218139
H        0.00000000       0.00000000       0.00000000       0.20618707      -0.11733338      -0.43773288
7
Lattice="529.1772105638412 0.0 0.0 0.0 529.1772105638412 0.0 0.0 0.0 529.1772105638412" Properties=species:S:1:pos:R:3:forces_component_raw:R:3 ipi_comment="Step:       19740  Bead:       0 forces_component_raw{ase}  cell{ase}" pbc="T T T"
O        0.00000000       0.00000000       0.00000000      -1.35326910      -1.94234968      -2.20580674
H        0.00000000       0.00000000       0.00000000       0.39585576      -0.02584073       0.41178322
H        0.00000000       0.00000000       0.00000000       0.69977254       1.05761671       1.70312286
O        0.00000000       0.00000000       0.00000000       0.91243810       2.03347826      -1.51545191
H        0.00000000       0.00000000       0.00000000      -0.32150516      -0.96756232       0.31237596
H        0.00000000       0.00000000       0.00000000      -0.14346345      -0.22717686       1.33089352
H        0.00000000       0.00000000       0.00000000      -0.18982853       0.07183424      -0.03691664
7
Lattice="529.1772105638412 0.0 0.0 0.0 529.1772105638412 0.0 0.0 0.0 529.1772105638412" Properties=species:S:1:pos:R:3:forces_component_raw:R:3 ipi_comment="Step:       19760  Bead:       0 forces_component_raw{ase}  cell{ase}" pbc="T T T"
O        0.00000000       0.00000000       0.00000000      -1.23772264      -0.74568016      -1.21541643
H        0.00000000       0.00000000       0.00000000      -0.28965685       0.19188693      -0.66463965
H        0.00000000       0.00000000       0.00000000       1.02968800      -0.17465353       1.83969093
O        0.00000000       0.00000000       0.00000000      -0.41129580       0.85101074      -0.30781776
H        0.00000000       0.00000000       0.00000000       0.68334603       0.41050440      -0.30091697
H        0.00000000       0.00000000       0.00000000       0.02665035      -0.55223358       0.53380001
H        0.00000000       0.00000000       0.00000000       0.19899094       0.01916508       0.11530006
7
Lattice="529.1772105638412 0.0 0.0 0.0 529.1772105638412 0.0 0.0 0.0 529.1772105638412" Properties=species:S:1:pos:R:3:forces_component_raw:R:3 ipi_comment="Step:       19780  Bead:       0 forces_component_raw{ase}  cell{ase}" pbc="T T T"
O        0.00000000       0.00000000       0.00000000       0.42935020      -0.76985181      -1.16174150
H        0.00000000       0.00000000       0.00000000      -0.30560041       0.67152137      -0.07775879
H        0.00000000       0.00000000       0.00000000       0.31007877       0.86832226       1.12236119
O        0.00000000       0.00000000       0.00000000       0.31284314      -0.75336635      -0.58443594
H        0.00000000       0.00000000       0.00000000      -0.66749424       0.18613286       0.35820127
H        0.00000000       0.00000000       0.00000000      -0.12864628       0.17718460       0.42731020
H        0.00000000       0.00000000       0.00000000       0.04946882      -0.37994287      -0.08393624
7
Lattice="529.1772105638412 0.0 0.0 0.0 529.1772105638412 0.0 0.0 0.0 529.1772105638412" Properties=species:S:1:pos:R:3:forces_component_raw:R:3 ipi_comment="Step:       19800  Bead:       0 forces_component_raw{ase}  cell{ase}" pbc="T T T"
O        0.00000000       0.00000000       0.00000000       0.32113087       0.75081122      -0.10848273
H        0.00000000       0.00000000       0.00000000      -0.47364247       0.17999458      -0.38959086
H        0.00000000       0.00000000       0.00000000       0.14827697      -0.14686970       0.28299958
O        0.00000000       0.00000000       0.00000000      -1.02002406       0.59557551       0.24321085
H        0.00000000       0.00000000       0.00000000       0.67281330      -0.75400019      -0.12060149
H        0.00000000       0.00000000       0.00000000      -0.10651359      -0.46131998       0.04811680
H        0.00000000       0.00000000       0.00000000       0.45795894      -0.16419143       0.04434782
7
Lattice="529.1772105638412 0.0 0.0 0.0 529.1772105638412 0.0 0.0 0.0 529.1772105638412" Properties=species:S:1:pos:R:3:forces_component_raw:R:3 ipi_comment="Step:       19820  Bead:       0 forces_component_raw{ase}  cell{ase}" pbc="T T T"
O        0.00000000       0.00000000       0.00000000       1.68029881       1.36609495       1.22307515
H        0.00000000       0.00000000       0.00000000      -0.51976353       0.14644167      -0.04962486
H        0.00000000       0.00000000       0.00000000      -0.41100323      -0.59917808      -1.19049633
O        0.00000000       0.00000000       0.00000000      -0.31798005      -1.48164702       0.73051912
H        0.00000000       0.00000000       0.00000000      -0.74927473       0.26827496       0.01035535
H        0.00000000       0.00000000       0.00000000       0.59885043       0.30447513      -0.74743998
H        0.00000000       0.00000000       0.00000000      -0.28112772      -0.00446177       0.02361152
7
Lattice="529.1772105638412 0.0 0.0 0.0 529.1772105638412 0.0 0.0 0.0 529.1772105638412" Properties=species:S:1:pos:R:3:forces_component_raw:R:3 ipi_comment="Step:       19840  Bead:       0 forces_component_raw{ase}  cell{ase}" pbc="T T T"
O        0.00000000       0.00000000       0.00000000       0.03332895       0.55737931       1.53325510
H        0.00000000       0.00000000       0.00000000      -0.00320464       0.20303065      -0.11461309
H        0.00000000       0.00000000       0.00000000      -0.44897711      -1.37046337      -1.52742231
O        0.00000000       0.00000000       0.00000000      -1.34731698      -0.77880931       1.12530947
H        0.00000000       0.00000000       0.00000000       0.52654308       0.77962214       0.17754416
H        0.00000000       0.00000000       0.00000000       1.85768176       0.17321086      -1.34373176
H        0.00000000       0.00000000       0.00000000      -0.61805487       0.43602982       0.14965808
7
Lattice="529.1772105638412 0.0 0.0 0.0 529.1772105638412 0.0 0.0 0.0 529.1772105638412" Properties=species:S:1:pos:R:3:forces_component_raw:R:3 ipi_comment="Step:       19860  Bead:       0 forces_component_raw{ase}  cell{ase}" pbc="T T T"
O        0.00000000       0.00000000       0.00000000       0.02563798       1.37736774       1.17764914
H        0.00000000       0.00000000       0.00000000       0.08434378      -0.07629444       0.28702313
H        0.00000000       0.00000000       0.00000000      -0.24193302      -1.21601165      -1.44378567
O        0.00000000       0.00000000       0.00000000      -0.63355392      -0.30770615       1.01333606
H        0.00000000       0.00000000       0.00000000       0.07816989      -0.82072973      -0.02867267
H        0.00000000       0.00000000       0.00000000       1.37345052       0.04086781      -0.71389103
H        0.00000000       0.00000000       0.00000000      -0.68611515       1.00250638      -0.29165882
7
Lattice="529.1772105638412 0.0 0.0 0.0 529.1772105638412 0.0 0.0 0.0 529.1772105638412" Properties=species:S:1:pos:R:3:forces_component_raw:R:3 ipi_comment="Step:       19880  Bead:       0 forces_component_raw{ase}  cell{ase}" pbc="T T T"
O        0.00000000       0.00000000       0.00000000      -0.00989206       0.03218699       0.12411830
H        0.00000000       0.00000000       0.00000000       0.07692721       0.02941030       0.20894069
H        0.00000000       0.00000000       0.00000000      -0.03964485      -0.45550260      -0.32112360
O        0.00000000       0.00000000       0.00000000       0.32395282      -0.91402871       0.75723744
H        0.00000000       0.00000000       0.00000000      -0.58551294       0.35938266      -0.06560049
H        0.00000000       0.00000000       0.00000000       0.78805453       0.35899276      -0.38132751
H        0.00000000       0.00000000       0.00000000      -0.55388463       0.58955860      -0.32224485
7
Lattice="529.1772105638412 0.0 0.0 0.0 529.1772105638412 0.0 0.0 0.0 529.1772105638412" Properties=species:S:1:pos:R:3:forces_component_raw:R:3 ipi_comment="Step:       19900  Bead:       0 forces_component_raw{ase}  cell{ase}" pbc="T T T"
O        0.00000000       0.00000000       0.00000000      -0.30016643      -0.08841665      -0.64905340
H        0.00000000       0.00000000       0.00000000       0.12415886      -0.32678625       0.16104281
H        0.00000000       0.00000000       0.00000000      -0.18674508       0.23635010       0.63631791
O        0.00000000       0.00000000       0.00000000      -0.69913250      -0.40418580       0.67239618
H        0.00000000       0.00000000       0.00000000       0.75350535      -0.16908188      -0.12852907
H        0.00000000       0.00000000       0.00000000       0.77261102      -0.08364117      -0.20238560
H        0.00000000       0.00000000       0.00000000      -0.46423125       0.83576167      -0.48978871
7
Lattice="529.1772105638412 0.0 0.0 0.0 529.1772105638412 0.0 0.0 0.0 529.1772105638412" Properties=species:S:1:pos:R:3:forces_component_raw:R:3 ipi_comment="Step:       19920  Bead:       0 forces_component_raw{ase}  cell{ase}" pbc="T T T"
O        0.00000000       0.00000000       0.00000000       1.36751247      -0.78178406      -0.20616193
H        0.00000000       0.00000000       0.00000000      -0.25269455       0.44888297      -0.07284695
H        0.00000000       0.00000000       0.00000000      -0.67989457       0.60386306      -0.04685906
O        0.00000000       0.00000000       0.00000000       0.12721431      -0.71612746       0.53389716
H        0.00000000       0.00000000       0.00000000      -0.31511968       0.20882872       0.11152639
H        0.00000000       0.00000000       0.00000000       0.11411473      -0.00027987      -0.03867152
H        0.00000000       0.00000000       0.00000000      -0.36113268       0.23661676      -0.28088412
7
Lattice="529.1772105638412 0.0 0.0 0.0 529.1772105638412 0.0 0.0 0.0 529.1772105638412" Properties=species:S:1:pos:R:3:forces_component_raw:R:3 ipi_comment="Step:       19940  Bead:       0 forces_component_raw{ase}  cell{ase}" pbc="T T T"
O        0.00000000       0.00000000       0.00000000      -0.13659567       0.62911779       0.63952768
H        0.00000000       0.00000000       0.00000000       0.11061566      -0.50673968      -0.78057772
H        0.00000000       0.00000000       0.00000000      -0.01813675       0.38405526       0.24503309
O        0.00000000       0.00000000       0.00000000      -0.32672513       0.11699134      -0.39327425
H        0.00000000       0.00000000       0.00000000       0.45679480      -0.14876907      -0.29227656
H        0.00000000       0.00000000       0.00000000      -0.32363987      -0.13894773       0.18160069
H        0.00000000       0.00000000       0.00000000       0.23768693      -0.33570802       0.39996708
7
Lattice="529.1772105638412 0.0 0.0 0.0 529.1772105638412 0.0 0.0 0.0 529.1772105638412" Properties=species:S:1:pos:R:3:forces_component_raw:R:3 ipi_comment="Step:       19960  Bead:       0 forces_component_raw{ase}  cell{ase}" pbc="T T T"
O        0.00000000       0.00000000       0.00000000      -0.25415450       1.05251575       0.33510012
H        0.00000000       0.00000000       0.00000000       0.29557598      -0.16277403      -0.61132622
H        0.00000000       0.00000000       0.00000000       0.27120346      -0.63189137      -0.00960451
O        0.00000000       0.00000000       0.00000000       0.11743365      -0.31310144      -0.30755162
H        0.00000000       0.00000000       0.00000000      -0.20407556       0.36077678       0.12484994
H        0.00000000       0.00000000       0.00000000      -0.75842190       0.13803330       0.09816125
H        0.00000000       0.00000000       0.00000000       0.53243888      -0.44355890       0.37037098
7
Lattice="529.1772105638412 0.0 0.0 0.0 529.1772105638412 0.0 0.0 0.0 529.1772105638412" Properties=species:S:1:pos:R:3:forces_component_raw:R:3 ipi_comment="Step:       19980  Bead:       0 forces_component_raw{ase}  cell{ase}" pbc="T T T"
O        0.00000000       0.00000000       0.00000000      -0.67422867       0.71310997       0.53882635
H        0.00000000       0.00000000       0.00000000       0.19718276      -0.30073810      -0.42974189
H        0.00000000       0.00000000       0.00000000       0.23059580      -0.42038345      -0.00568153
O        0.00000000       0.00000000       0.00000000       0.57660967       1.45952714      -1.11193371
H        0.00000000       0.00000000       0.00000000       0.03767134      -1.05714774       0.38943315
H        0.00000000       0.00000000       0.00000000      -0.85279173      -0.12156086       0.27203536
H        0.00000000       0.00000000       0.00000000       0.48496088      -0.27280694       0.34706220
7
Lattice="529.1772105638412 0.0 0.0 0.0 529.1772105638412 0.0 0.0 0.0 529.1772105638412" Properties=species:S:1:pos:R:3:forces_component_raw:R:3 ipi_comment="Step:       20000  Bead:       0 forces_component_raw{ase}  cell{ase}" pbc="T T T"
O        0.00000000       0.00000000       0.00000000      -0.93066186      -0.31992605       0.09642178
H        0.00000000       0.00000000       0.00000000       0.11850211       0.01910475       0.02660215
H        0.00000000       0.00000000       0.00000000       0.29796746      -0.61518127       0.21337631
O        0.00000000       0.00000000       0.00000000       0.22568376       0.31195054      -0.87921882
H        0.00000000       0.00000000       0.00000000       0.08951543       0.77250064      -0.10362143
H        0.00000000       0.00000000       0.00000000       0.10615161       0.19686344       0.07054441
H        0.00000000       0.00000000       0.00000000       0.09284145      -0.36531198       0.57589561
