7
Lattice="529.1772105638412 0.0 0.0 0.0 529.1772105638412 0.0 0.0 0.0 529.1772105638412" Properties=species:S:1:pos:R:3:forces_component_raw:R:3 ipi_comment="Step:           0  Bead:       0 forces_component_raw{ase}  cell{ase}" pbc="T T T"
O        0.00000000       0.00000000       0.00000000      -1.23336065      -1.35288358      -1.12245453
H        0.00000000       0.00000000       0.00000000       2.01229072       1.68940640       1.49479628
H        0.00000000       0.00000000       0.00000000      -0.71304512       0.55680859       0.36525303
O        0.00000000       0.00000000       0.00000000       0.01228762      -0.26853019       0.08137882
H        0.00000000       0.00000000       0.00000000      -0.13132770      -0.50208682      -0.52605081
H        0.00000000       0.00000000       0.00000000       0.43725991       0.07981989      -0.17056686
H        0.00000000       0.00000000       0.00000000      -0.38410485      -0.20253444      -0.12235588
7
Lattice="529.1772105638412 0.0 0.0 0.0 529.1772105638412 0.0 0.0 0.0 529.1772105638412" Properties=species:S:1:pos:R:3:forces_component_raw:R:3 ipi_comment="Step:          20  Bead:       0 forces_component_raw{ase}  cell{ase}" pbc="T T T"
O        0.00000000       0.00000000       0.00000000       0.65086931      -1.02018631      -1.70450306
H        0.00000000       0.00000000       0.00000000       0.99361104       0.40564579       0.52316141
H        0.00000000       0.00000000       0.00000000      -1.80973185       0.42908904       0.81603742
O        0.00000000       0.00000000       0.00000000      -0.64663971       0.24286434       0.64996541
H        0.00000000       0.00000000       0.00000000       0.65157485       0.07383537       0.26675135
H        0.00000000       0.00000000       0.00000000       0.68769419       0.28175113      -0.33228177
H        0.00000000       0.00000000       0.00000000      -0.52737767      -0.41299939      -0.21913064
7
Lattice="529.1772105638412 0.0 0.0 0.0 529.1772105638412 0.0 0.0 0.0 529.1772105638412" Properties=species:S:1:pos:R:3:forces_component_raw:R:3 ipi_comment="Step:          40  Bead:       0 forces_component_raw{ase}  cell{ase}" pbc="T T T"
O        0.00000000       0.00000000       0.00000000       1.08450032      -0.01717222      -0.02232122
H        0.00000000       0.00000000       0.00000000      -0.22219020      -0.13069952      -0.30426735
H        0.00000000       0.00000000       0.00000000      -0.51782084      -0.13389544       0.11661142
O        0.00000000       0.00000000       0.00000000      -0.03726303       0.33297056       0.51805878
H        0.00000000       0.00000000       0.00000000      -0.66284359       0.15215035       0.15565440
H        0.00000000       0.00000000       0.00000000       0.13361162      -0.29731286      -0.37305397
H        0.00000000       0.00000000       0.00000000       0.22200561       0.09395921      -0.09068215
7
Lattice="529.1772105638412 0.0 0.0 0.0 529.1772105638412 0.0 0.0 0.0 529.1772105638412" Properties=species:S:1:pos:R:3:forces_component_raw:R:3 ipi_comment="Step:          60  Bead:       0 forces_component_raw{ase}  cell{ase}" pbc="T T T"
O        0.00000000       0.00000000       0.00000000       0.02306306       0.73728788       1.90345598
H        0.00000000       0.00000000       0.00000000      -1.24397981      -0.84806609      -1.44659233
H        0.00000000       0.00000000       0.00000000       0.66071302       0.46681410      -0.10578811
O        0.00000000       0.00000000       0.00000000      -1.29472184      -1.14158583       0.42348522
H        0.00000000       0.00000000       0.00000000       0.63152319      -0.41228446      -0.50796223
H        0.00000000       0.00000000       0.00000000       0.66020382       0.16120809      -0.45623487
H        0.00000000       0.00000000       0.00000000       0.56319875       1.03662646       0.18963636
7
Lattice="529.1772105638412 0.0 0.0 0.0 529.1772105638412 0.0 0.0 0.0 529.1772105638412" Properties=species:S:1:pos:R:3:forces_component_raw:R:3 ipi_comment="Step:          80  Bead:       0 forces_component_raw{ase}  cell{ase}" pbc="T T T"
O        0.00000000       0.00000000       0.00000000       0.55303317      -0.16058934       2.03540206
H        0.00000000       0.00000000       0.00000000      -1.59192014      -0.61025882      -1.96822477
H        0.00000000       0.00000000       0.00000000       1.33988917       0.50069141      -0.59350097
O        0.00000000       0.00000000       0.00000000      -0.28527498      -1.05787909      -0.14993516
H        0.00000000       0.00000000       0.00000000      -0.50088036      -0.11960015       0.59594095
H        0.00000000       0.00000000       0.00000000      -0.13542187       0.05627422       0.12889403
H        0.00000000       0.00000000       0.00000000       0.62057495       1.39136136      -0.04857592
7
Lattice="529.1772105638412 0.0 0.0 0.0 529.1772105638412 0.0 0.0 0.0 529.1772105638412" Properties=species:S:1:pos:R:3:forces_component_raw:R:3 ipi_comment="Step:         100  Bead:       0 forces_component_raw{ase}  cell{ase}" pbc="T T T"
O        0.00000000       0.00000000       0.00000000       0.50465000      -0.44558025       2.81134391
H        0.00000000       0.00000000       0.00000000      -1.86289239       0.02583109      -1.90660882
H        0.00000000       0.00000000       0.00000000       1.38590360       0.49371651      -0.62539548
O        0.00000000       0.00000000       0.00000000      -0.33736122      -1.80825437      -0.14318049
H        0.00000000       0.00000000       0.00000000      -0.09999324       0.64359927       0.08557445
H        0.00000000       0.00000000       0.00000000      -0.71021581      -0.39209387       0.66900569
H        0.00000000       0.00000000       0.00000000       1.11990929       1.48278153      -0.89073932
7
Lattice="529.1772105638412 0.0 0.0 0.0 529.1772105638412 0.0 0.0 0.0 529.1772105638412" Properties=species:S:1:pos:R:3:forces_component_raw:R:3 ipi_comment="Step:         120  Bead:       0 forces_component_raw{ase}  cell{ase}" pbc="T T T"
O        0.00000000       0.00000000       0.00000000       0.21543717       0.77424824       2.23153329
H        0.00000000       0.00000000       0.00000000      -1.81895793       0.06706128      -1.40597844
H        0.00000000       0.00000000       0.00000000       1.43818510      -0.12546453      -0.38487703
O        0.00000000       0.00000000       0.00000000       1.48092914      -2.32566023      -1.75791550
H        0.00000000       0.00000000       0.00000000       0.13247913      -0.55510873      -0.12707630
H        0.00000000       0.00000000       0.00000000      -1.11650443       0.52826709       1.01258731
H        0.00000000       0.00000000       0.00000000      -0.33156815       1.63665724       0.43172684
7
Lattice="529.1772105638412 0.0 0.0 0.0 529.1772105638412 0.0 0.0 0.0 529.1772105638412" Properties=species:S:1:pos:R:3:forces_component_raw:R:3 ipi_comment="Step:         140  Bead:       0 forces_component_raw{ase}  cell{ase}" pbc="T T T"
O        0.00000000       0.00000000       0.00000000      -0.91493368      -0.17292345       0.56674266
H        0.00000000       0.00000000       0.00000000      -0.53632712       0.07790592      -0.44565243
H        0.00000000       0.00000000       0.00000000       1.51328516      -0.51104730      -0.40408257
O        0.00000000       0.00000000       0.00000000      -0.42678291       1.42082596       0.52678985
H        0.00000000       0.00000000       0.00000000       0.25872487       0.05998021      -0.01630893
H        0.00000000       0.00000000       0.00000000      -0.31753284      -1.05332804       0.14625669
H        0.00000000       0.00000000       0.00000000       0.42356619       0.17858648      -0.37374491
7
Lattice="529.1772105638412 0.0 0.0 0.0 529.1772105638412 0.0 0.0 0.0 529.1772105638412" Properties=species:S:1:pos:R:3:forces_component_raw:R:3 ipi_comment="Step:         160  Bead:       0 forces_component_raw{ase}  cell{ase}" pbc="T T T"
O        0.00000000       0.00000000       0.00000000      -0.94184029      -0.22843489      -0.65636981
H        0.00000000       0.00000000       0.00000000       0.44631118       0.14384082       0.90645951
H        0.00000000       0.00000000       0.00000000       0.78503388      -0.55465210      -0.28934792
O        0.00000000       0.00000000       0.00000000       0.42457220       0.39224970      -0.79200530
H        0.00000000       0.00000000       0.00000000      -0.36177343       0.49816781       0.20845979
H        0.00000000       0.00000000       0.00000000       0.14697325       0.62112904      -0.11854735
H        0.00000000       0.00000000       0.00000000      -0.49927700      -0.87230039       0.74135101
7
Lattice="529.1772105638412 0.0 0.0 0.0 529.1772105638412 0.0 0.0 0.0 529.1772105638412" Properties=species:S:1:pos:R:3:forces_component_raw:R:3 ipi_comment="Step:         180  Bead:       0 forces_component_raw{ase}  cell{ase}" pbc="T T T"
O        0.00000000       0.00000000       0.00000000      -0.63173533      -0.21260479      -2.36496211
H        0.00000000       0.00000000       0.00000000       0.39397845      -0.01701187       2.17943335
H        0.00000000       0.00000000       0.00000000      -0.10591936       0.09441552       0.03841194
O        0.00000000       0.00000000       0.00000000      -2.47440577       0.84166646       2.28228379
H        0.00000000       0.00000000       0.00000000       0.64602399      -0.12970543      -0.03629041
H        0.00000000       0.00000000       0.00000000       1.68299926       0.14944461      -1.76216281
H        0.00000000       0.00000000       0.00000000       0.48905859      -0.72620440      -0.33671433
7
Lattice="529.1772105638412 0.0 0.0 0.0 529.1772105638412 0.0 0.0 0.0 529.1772105638412" Properties=species:S:1:pos:R:3:forces_component_raw:R:3 ipi_comment="Step:         200  Bead:       0 forces_component_raw{ase}  cell{ase}" pbc="T T T"
O        0.00000000       0.00000000       0.00000000       0.65827286       0.20338075      -1.99153078
H        0.00000000       0.00000000       0.00000000      -0.31973642       0.03217551       2.43882180
H        0.00000000       0.00000000       0.00000000      -0.39622861       0.25407237      -0.07506835
O        0.00000000       0.00000000       0.00000000      -0.56005561      -1.00832677      -0.01240885
H        0.00000000       0.00000000       0.00000000      -0.23515913       0.31913105       0.23597896
H        0.00000000       0.00000000       0.00000000       1.31999421       1.04419399      -1.58637548
H        0.00000000       0.00000000       0.00000000      -0.46708751      -0.84462696       0.99058241
7
Lattice="529.1772105638412 0.0 0.0 0.0 529.1772105638412 0.0 0.0 0.0 529.1772105638412" Properties=species:S:1:pos:R:3:forces_component_raw:R:3 ipi_comment="Step:         220  Bead:       0 forces_component_raw{ase}  cell{ase}" pbc="T T T"
O        0.00000000       0.00000000       0.00000000       1.27335549       0.39460212      -0.71144080
H        0.00000000       0.00000000       0.00000000      -0.50971937      -0.42269191       1.80416167
H        0.00000000       0.00000000       0.00000000      -0.69957602       0.66419196      -0.80684799
O        0.00000000       0.00000000       0.00000000      -0.88419843       1.42102814       0.25156361
H        0.00000000       0.00000000       0.00000000      -0.56150127      -0.19775069      -0.22516152
H        0.00000000       0.00000000       0.00000000       0.76693624      -0.58776158      -0.30825973
H        0.00000000       0.00000000       0.00000000       0.61470366      -1.27161789      -0.00401515
7
Lattice="529.1772105638412 0.0 0.0 0.0 529.1772105638412 0.0 0.0 0.0 529.1772105638412" Properties=species:S:1:pos:R:3:forces_component_raw:R:3 ipi_comment="Step:         240  Bead:       0 forces_component_raw{ase}  cell{ase}" pbc="T T T"
O        0.00000000       0.00000000       0.00000000       1.06233907      -0.70863843      -0.34491533
H        0.00000000       0.00000000       0.00000000      -0.65772319      -0.05698031       0.94228828
H        0.00000000       0.00000000       0.00000000      -0.90672958       1.03044522      -0.56804145
O        0.00000000       0.00000000       0.00000000       0.65584231      -0.21470767      -0.58427519
H        0.00000000       0.00000000       0.00000000       0.58241129       0.04229177      -0.03922200
H        0.00000000       0.00000000       0.00000000      -0.30555725       0.78667224      -0.17744446
H        0.00000000       0.00000000       0.00000000      -0.43058267      -0.87908286       0.77161008
7
Lattice="529.1772105638412 0.0 0.0 0.0 529.1772105638412 0.0 0.0 0.0 529.1772105638412" Properties=species:S:1:pos:R:3:forces_component_raw:R:3 ipi_comment="Step:         260  Bead:       0 forces_component_raw{ase}  cell{ase}" pbc="T T T"
O        0.00000000       0.00000000       0.00000000       0.46686018      -1.28978765       1.10461867
H        0.00000000       0.00000000       0.00000000       0.37189126      -0.09579185       0.07912779
H        0.00000000       0.00000000       0.00000000      -0.49677295       1.03601897      -1.19550681
O        0.00000000       0.00000000       0.00000000       0.26430357       2.52279139      -0.33031643
H        0.00000000       0.00000000       0.00000000      -0.58004266      -0.34060633      -0.32250202
H        0.00000000       0.00000000       0.00000000      -0.63326085      -1.04973090       0.51347876
H        0.00000000       0.00000000       0.00000000       0.60702109      -0.78289336       0.15110016
7
Lattice="529.1772105638412 0.0 0.0 0.0 529.1772105638412 0.0 0.0 0.0 529.1772105638412" Properties=species:S:1:pos:R:3:forces_component_raw:R:3 ipi_comment="Step:         280  Bead:       0 forces_component_raw{ase}  cell{ase}" pbc="T T T"
O        0.00000000       0.00000000       0.00000000      -0.37711096      -1.62385512       0.87980718
H        0.00000000       0.00000000       0.00000000       0.71913850       0.71835494      -1.24454081
H        0.00000000       0.00000000       0.00000000      -0.27410251       0.17735392      -0.04980034
O        0.00000000       0.00000000       0.00000000       0.90547377      -1.07523012      -0.49095744
H        0.00000000       0.00000000       0.00000000       0.37858966       0.38203514       0.45644882
H        0.00000000       0.00000000       0.00000000      -0.65877688       0.75780922       0.19610569
H        0.00000000       0.00000000       0.00000000      -0.69321168       0.66353208       0.25293672
7
Lattice="529.1772105638412 0.0 0.0 0.0 529.1772105638412 0.0 0.0 0.0 529.1772105638412" Properties=species:S:1:pos:R:3:forces_component_raw:R:3 ipi_comment="Step:         300  Bead:       0 forces_component_raw{ase}  cell{ase}" pbc="T T T"
O        0.00000000       0.00000000       0.00000000      -0.78301853       0.74570620       1.07088638
H        0.00000000       0.00000000       0.00000000       0.80065918      -0.28011090      -1.54252243
H        0.00000000       0.00000000       0.00000000       0.19045818      -0.66398394       0.12495530
O        0.00000000       0.00000000       0.00000000      -0.85233116       0.41016781       0.87882817
H        0.00000000       0.00000000       0.00000000      -0.05780459      -0.47308636       0.00930537
H        0.00000000       0.00000000       0.00000000      -0.01887500      -0.74656958       0.27276701
H        0.00000000       0.00000000       0.00000000       0.72091198       1.00787652      -0.81421989
7
Lattice="529.1772105638412 0.0 0.0 0.0 529.1772105638412 0.0 0.0 0.0 529.1772105638412" Properties=species:S:1:pos:R:3:forces_component_raw:R:3 ipi_comment="Step:         320  Bead:       0 forces_component_raw{ase}  cell{ase}" pbc="T T T"
O        0.00000000       0.00000000       0.00000000      -0.19867772       0.76663906       0.25898087
H        0.00000000       0.00000000       0.00000000       0.36138201       0.29426482      -1.16017175
H        0.00000000       0.00000000       0.00000000      -0.18843921      -1.07132077       0.97005105
O        0.00000000       0.00000000       0.00000000       0.46641016      -2.81016589       1.06371999
H        0.00000000       0.00000000       0.00000000       0.05000085       0.36844796      -0.05857104
H        0.00000000       0.00000000       0.00000000       0.34836257       0.87714529      -0.39208838
H        0.00000000       0.00000000       0.00000000      -0.83903861       1.57498932      -0.68192077
7
Lattice="529.1772105638412 0.0 0.0 0.0 529.1772105638412 0.0 0.0 0.0 529.1772105638412" Properties=species:S:1:pos:R:3:forces_component_raw:R:3 ipi_comment="Step:         340  Bead:       0 forces_component_raw{ase}  cell{ase}" pbc="T T T"
O        0.00000000       0.00000000       0.00000000       0.31897059       2.82199002      -0.81455070
H        0.00000000       0.00000000       0.00000000      -0.15816739      -0.39450500       0.74188149
H        0.00000000       0.00000000       0.00000000      -0.43373042      -1.72686458       0.39219803
O        0.00000000       0.00000000       0.00000000      -1.48226548      -0.77185297       0.60579813
H        0.00000000       0.00000000       0.00000000      -0.08250177      -0.30791277      -0.07577011
H        0.00000000       0.00000000       0.00000000       0.88572651      -0.73049963      -0.29898125
H        0.00000000       0.00000000       0.00000000       0.95196796       1.10964477      -0.55057538
7
Lattice="529.1772105638412 0.0 0.0 0.0 529.1772105638412 0.0 0.0 0.0 529.1772105638412" Properties=species:S:1:pos:R:3:forces_component_raw:R:3 ipi_comment="Step:         360  Bead:       0 forces_component_raw{ase}  cell{ase}" pbc="T T T"
O        0.00000000       0.00000000       0.00000000       0.84970987       0.34330705      -2.01081729
H        0.00000000       0.00000000       0.00000000      -0.14711711       0.05514342       1.83386505
H        0.00000000       0.00000000       0.00000000      -0.60273802      -0.58083224       0.35823932
O        0.00000000       0.00000000       0.00000000       0.14662159      -0.93862242      -0.40077615
H        0.00000000       0.00000000       0.00000000      -0.09826586       0.53399891      -0.22336978
H        0.00000000       0.00000000       0.00000000       0.20561659       0.44200924       0.13371074
H        0.00000000       0.00000000       0.00000000      -0.35382712       0.14499587       0.30914813
7
Lattice="529.1772105638412 0.0 0.0 0.0 529.1772105638412 0.0 0.0 0.0 529.1772105638412" Properties=species:S:1:pos:R:3:forces_component_raw:R:3 ipi_comment="Step:         380  Bead:       0 forces_component_raw{ase}  cell{ase}" pbc="T T T"
O        0.00000000       0.00000000       0.00000000       0.39774299       0.39980576      -1.86058236
H        0.00000000       0.00000000       0.00000000       0.01819915      -0.42037010       2.17865730
H        0.00000000       0.00000000       0.00000000      -0.27501023       0.22846755      -0.19051449
O        0.00000000       0.00000000       0.00000000      -0.11455333       1.20446706       0.76499045
H        0.00000000       0.00000000       0.00000000       0.02339825      -0.51788116      -0.47516933
H        0.00000000       0.00000000       0.00000000       0.04390961      -0.29620838      -0.16240215
H        0.00000000       0.00000000       0.00000000      -0.09368643      -0.59828079      -0.25497946
7
Lattice="529.1772105638412 0.0 0.0 0.0 529.1772105638412 0.0 0.0 0.0 529.1772105638412" Properties=species:S:1:pos:R:3:forces_component_raw:R:3 ipi_comment="Step:         400  Bead:       0 forces_component_raw{ase}  cell{ase}" pbc="T T T"
O        0.00000000       0.00000000       0.00000000      -0.74757683      -2.38406420      -2.83716608
H        0.00000000       0.00000000       0.00000000       0.50186890      -0.25958645       1.72226549
H        0.00000000       0.00000000       0.00000000       0.68665826       1.37395907      -0.08645612
O        0.00000000       0.00000000       0.00000000       0.10297850       2.05203176       1.16443217
H        0.00000000       0.00000000       0.00000000       0.21032363       0.34475321       0.66588581
H        0.00000000       0.00000000       0.00000000       0.47821945       0.22479332      -0.19876021
H        0.00000000       0.00000000       0.00000000      -1.23247195      -1.35188651      -0.43020117
7
Lattice="529.1772105638412 0.0 0.0 0.0 529.1772105638412 0.0 0.0 0.0 529.1772105638412" Properties=species:S:1:pos:R:3:forces_component_raw:R:3 ipi_comment="Step:         420  Bead:       0 forces_component_raw{ase}  cell{ase}" pbc="T T T"
O        0.00000000       0.00000000       0.00000000      -0.20293498      -2.19143677      -0.38687801
H        0.00000000       0.00000000       0.00000000      -0.04777497      -0.39371181       0.60685504
H        0.00000000       0.00000000       0.00000000       0.51418632       2.53200985      -0.28064650
O        0.00000000       0.00000000       0.00000000       1.14774716       2.01003314       1.39403892
H        0.00000000       0.00000000       0.00000000      -0.18248999      -0.56255180      -0.12692001
H        0.00000000       0.00000000       0.00000000       0.65748429      -0.03074265      -0.26947397
H        0.00000000       0.00000000       0.00000000      -1.88621796      -1.36359990      -0.93697536
7
Lattice="529.1772105638412 0.0 0.0 0.0 529.1772105638412 0.0 0.0 0.0 529.1772105638412" Properties=species:S:1:pos:R:3:forces_component_raw:R:3 ipi_comment="Step:         440  Bead:       0 forces_component_raw{ase}  cell{ase}" pbc="T T T"
O        0.00000000       0.00000000       0.00000000      -0.77476454      -2.02680302       0.45036730
H        0.00000000       0.00000000       0.00000000      -0.07023194       0.25604469       0.32854325
H        0.00000000       0.00000000       0.00000000       0.56291545       1.94932867      -0.11042051
O        0.00000000       0.00000000       0.00000000       0.37324819       1.12630916       1.29471815
H        0.00000000       0.00000000       0.00000000       0.48311368      -0.39883405      -0.66292757
H        0.00000000       0.00000000       0.00000000       0.94332403      -0.03271639      -0.33118689
H        0.00000000       0.00000000       0.00000000      -1.51760483      -0.87332934      -0.96909380
7
Lattice="529.1772105638412 0.0 0.0 0.0 529.1772105638412 0.0 0.0 0.0 529.1772105638412" Properties=species:S:1:pos:R:3:forces_component_raw:R:3 ipi_comment="Step:         460  Bead:       0 forces_component_raw{ase}  cell{ase}" pbc="T T T"
O        0.00000000       0.00000000       0.00000000      -0.15750206      -0.32984853       0.71963006
H        0.00000000       0.00000000       0.00000000      -0.02754891       0.02076333      -0.44236297
H        0.00000000       0.00000000       0.00000000       0.15527490       0.66429496      -0.10601476
O        0.00000000       0.00000000       0.00000000      -0.48625735      -1.07510305      -0.05662656
H        0.00000000       0.00000000       0.00000000      -0.47303569       0.84277475       0.66589201
H        0.00000000       0.00000000       0.00000000       1.31806112      -0.10311431      -0.55741882
H        0.00000000       0.00000000       0.00000000      -0.32899249      -0.01976709      -0.22309905
7
Lattice="529.1772105638412 0.0 0.0 0.0 529.1772105638412 0.0 0.0 0.0 529.1772105638412" Properties=species:S:1:pos:R:3:forces_component_raw:R:3 ipi_comment="Step:         480  Bead:       0 forces_component_raw{ase}  cell{ase}" pbc="T T T"
O        0.00000000       0.00000000       0.00000000      -0.09568763       2.77774954       0.65290350
H        0.00000000       0.00000000       0.00000000       0.17367150      -0.19971988      -0.54041392
H        0.00000000       0.00000000       0.00000000      -0.59362531      -1.21663761       0.67560154
O        0.00000000       0.00000000       0.00000000      -1.58052838      -0.43743253      -0.86253023
H        0.00000000       0.00000000       0.00000000       0.48899713      -0.99642682      -0.56862438
H        0.00000000       0.00000000       0.00000000       0.90243721      -0.04092187      -0.33891592
H        0.00000000       0.00000000       0.00000000       0.70473534       0.11338963       0.98197925
7
Lattice="529.1772105638412 0.0 0.0 0.0 529.1772105638412 0.0 0.0 0.0 529.1772105638412" Properties=species:S:1:pos:R:3:forces_component_raw:R:3 ipi_comment="Step:         500  Bead:       0 forces_component_raw{ase}  cell{ase}" pbc="T T T"
O        0.00000000       0.00000000       0.00000000       0.73713035       1.68422711      -1.22615433
H        0.00000000       0.00000000       0.00000000       0.11508267       0.06995648      -0.23585141
H        0.00000000       0.00000000       0.00000000      -0.96299505      -2.09503770       1.27112305
O        0.00000000       0.00000000       0.00000000      -1.22122550       0.32953286      -1.42579484
H        0.00000000       0.00000000       0.00000000       0.49295169       0.24179417      -0.19586554
H        0.00000000       0.00000000       0.00000000      -0.51263929      -0.15356195       0.11882120
H        0.00000000       0.00000000       0.00000000       1.35169530      -0.07691062       1.69372154
7
Lattice="529.1772105638412 0.0 0.0 0.0 529.1772105638412 0.0 0.0 0.0 529.1772105638412" Properties=species:S:1:pos:R:3:forces_component_raw:R:3 ipi_comment="Step:         520  Bead:       0 forces_component_raw{ase}  cell{ase}" pbc="T T T"
O        0.00000000       0.00000000       0.00000000       0.76277793       2.09144116      -0.46585649
H        0.00000000       0.00000000       0.00000000      -0.01609921      -0.50307936      -0.13701260
H        0.00000000       0.00000000       0.00000000      -0.59365696      -1.85421443       0.18517014
O        0.00000000       0.00000000       0.00000000       0.31517738       1.34885884      -1.82769490
H        0.00000000       0.00000000       0.00000000      -0.26748362      -0.22260106       0.13218015
H        0.00000000       0.00000000       0.00000000      -1.87643099      -0.45556718       0.45247874
H        0.00000000       0.00000000       0.00000000       1.67571593      -0.40483815       1.66073490
7
Lattice="529.1772105638412 0.0 0.0 0.0 529.1772105638412 0.0 0.0 0.0 529.1772105638412" Properties=species:S:1:pos:R:3:forces_component_raw:R:3 ipi_comment="Step:         540  Bead:       0 forces_component_raw{ase}  cell{ase}" pbc="T T T"
O        0.00000000       0.00000000       0.00000000       0.11958885      -0.80625093      -0.04257983
H        0.00000000       0.00000000       0.00000000       0.13868441       0.46168691      -0.64234835
H        0.00000000       0.00000000       0.00000000      -0.02476990      -0.50267184       0.28975657
O        0.00000000       0.00000000       0.00000000      -0.13408142      -0.32437199      -2.04205728
H        0.00000000       0.00000000       0.00000000       0.15312490       0.44310963      -0.41641921
H        0.00000000       0.00000000       0.00000000      -1.65685559       0.84826195       1.50537587
H        0.00000000       0.00000000       0.00000000       1.40430904      -0.11976379       1.34827209
7
Lattice="529.1772105638412 0.0 0.0 0.0 529.1772105638412 0.0 0.0 0.0 529.1772105638412" Properties=species:S:1:pos:R:3:forces_component_raw:R:3 ipi_comment="Step:         560  Bead:       0 forces_component_raw{ase}  cell{ase}" pbc="T T T"
O        0.00000000       0.00000000       0.00000000      -0.05801755      -2.13053513       1.07614112
H        0.00000000       0.00000000       0.00000000      -0.00314601       0.02525672      -1.20915032
H        0.00000000       0.00000000       0.00000000       0.34130108       2.17431069      -0.22091758
O        0.00000000       0.00000000       0.00000000       2.25886441      -1.26460672      -0.91308260
H        0.00000000       0.00000000       0.00000000      -0.50995839      -0.00263566       0.56647885
H        0.00000000       0.00000000       0.00000000      -2.38595272       1.22150684       0.79154188
H        0.00000000       0.00000000       0.00000000       0.35690892      -0.02329678      -0.09101152
7
Lattice="529.1772105638412 0.0 0.0 0.0 529.1772105638412 0.0 0.0 0.0 529.1772105638412" Properties=species:S:1:pos:R:3:forces_component_raw:R:3 ipi_comment="Step:         580  Bead:       0 forces_component_raw{ase}  cell{ase}" pbc="T T T"
O        0.00000000       0.00000000       0.00000000      -0.35813147      -1.97084237       1.50283707
H        0.00000000       0.00000000       0.00000000      -0.02875769       0.01042762       0.28024536
H        0.00000000       0.00000000       0.00000000       0.11525062       2.34800482      -0.52447844
O        0.00000000       0.00000000       0.00000000       2.98015452      -0.79035598       0.30990869
H        0.00000000       0.00000000       0.00000000       0.43579269      -0.18221378      -1.06892753
H        0.00000000       0.00000000       0.00000000      -1.72333134       1.11493516       0.71950978
H        0.00000000       0.00000000       0.00000000      -1.42097736      -0.52995569      -1.21909464
7
Lattice="529.1772105638412 0.0 0.0 0.0 529.1772105638412 0.0 0.0 0.0 529.1772105638412" Properties=species:S:1:pos:R:3:forces_component_raw:R:3 ipi_comment="Step:         600  Bead:       0 forces_component_raw{ase}  cell{ase}" pbc="T T T"
O        0.00000000       0.00000000       0.00000000      -1.03300774       0.17590463      -2.49617100
H        0.00000000       0.00000000       0.00000000       0.72974301      -0.06850881       1.58948517
H        0.00000000       0.00000000       0.00000000       0.17294078       0.24169302       0.53910071
O        0.00000000       0.00000000       0.00000000       3.00920582       0.02906102       1.29924512
H        0.00000000       0.00000000       0.00000000      -0.06901007      -0.14109823       0.78960061
H        0.00000000       0.00000000       0.00000000      -1.60161293       0.41920048      -0.14771810
H        0.00000000       0.00000000       0.00000000      -1.20825863      -0.65625191      -1.57354260
7
Lattice="529.1772105638412 0.0 0.0 0.0 529.1772105638412 0.0 0.0 0.0 529.1772105638412" Properties=species:S:1:pos:R:3:forces_component_raw:R:3 ipi_comment="Step:         620  Bead:       0 forces_component_raw{ase}  cell{ase}" pbc="T T T"
O        0.00000000       0.00000000       0.00000000      -0.86909455       2.10440851      -1.77193189
H        0.00000000       0.00000000       0.00000000       1.06455255      -0.94195247       1.90942800
H        0.00000000       0.00000000       0.00000000      -0.53770667      -1.50012923      -0.41451669
O        0.00000000       0.00000000       0.00000000       0.18590564       0.40251556       1.42581129
H        0.00000000       0.00000000       0.00000000       0.36798477       0.20694643      -0.11163279
H        0.00000000       0.00000000       0.00000000       0.40929955      -0.21279928      -0.17634657
H        0.00000000       0.00000000       0.00000000      -0.62094146      -0.05898958      -0.86081147
7
Lattice="529.1772105638412 0.0 0.0 0.0 529.1772105638412 0.0 0.0 0.0 529.1772105638412" Properties=species:S:1:pos:R:3:forces_component_raw:R:3 ipi_comment="Step:         640  Bead:       0 forces_component_raw{ase}  cell{ase}" pbc="T T T"
O        0.00000000       0.00000000       0.00000000      -1.50203061       0.74629694      -3.44886065
H        0.00000000       0.00000000       0.00000000       1.15211439       0.36250201       1.46301449
H        0.00000000       0.00000000       0.00000000       0.21955356      -1.37283874       1.52087880
O        0.00000000       0.00000000       0.00000000      -2.46009899       0.87755221       0.23525846
H        0.00000000       0.00000000       0.00000000       0.24657100       0.01107189       0.20270039
H        0.00000000       0.00000000       0.00000000       2.20581317      -0.58101040      -0.29171425
H        0.00000000       0.00000000       0.00000000       0.13807780      -0.04357356       0.31872290
7
Lattice="529.1772105638412 0.0 0.0 0.0 529.1772105638412 0.0 0.0 0.0 529.1772105638412" Properties=species:S:1:pos:R:3:forces_component_raw:R:3 ipi_comment="Step:         660  Bead:       0 forces_component_raw{ase}  cell{ase}" pbc="T T T"
O        0.00000000       0.00000000       0.00000000       0.87436700       1.97526896       0.15370759
H        0.00000000       0.00000000       0.00000000      -0.17654985      -0.64891660       0.24953243
H        0.00000000       0.00000000       0.00000000      -0.50415909      -1.34978128      -0.12056530
O        0.00000000       0.00000000       0.00000000      -3.06146122       2.34028411      -0.67989671
H        0.00000000       0.00000000       0.00000000      -0.36959308      -0.20542520      -0.28689909
H        0.00000000       0.00000000       0.00000000       2.99093581      -1.13808239      -0.65259046
H        0.00000000       0.00000000       0.00000000       0.24646014      -0.97334755       1.33671153
7
Lattice="529.1772105638412 0.0 0.0 0.0 529.1772105638412 0.0 0.0 0.0 529.1772105638412" Properties=species:S:1:pos:R:3:forces_component_raw:R:3 ipi_comment="Step:         680  Bead:       0 forces_component_raw{ase}  cell{ase}" pbc="T T T"
O        0.00000000       0.00000000       0.00000000       0.61564267      -1.25994659       1.64352513
H        0.00000000       0.00000000       0.00000000      -0.68456280       0.68136591      -1.61199594
H        0.00000000       0.00000000       0.00000000       0.28073782       0.50163108       0.41022903
O        0.00000000       0.00000000       0.00000000      -4.18561269       2.03355980      -0.28791201
H        0.00000000       0.00000000       0.00000000       0.23264813       0.53451443       0.11118454
H        0.00000000       0.00000000       0.00000000       2.36115408      -1.03121639      -1.17837882
H        0.00000000       0.00000000       0.00000000       1.37999261      -1.45990849       0.91334772
7
Lattice="529.1772105638412 0.0 0.0 0.0 529.1772105638412 0.0 0.0 0.0 529.1772105638412" Properties=species:S:1:pos:R:3:forces_component_raw:R:3 ipi_comment="Step:         700  Bead:       0 forces_component_raw{ase}  cell{ase}" pbc="T T T"
O        0.00000000       0.00000000       0.00000000      -0.00956893       1.33179105       3.11605216
H        0.00000000       0.00000000       0.00000000      -0.00212213      -1.42830992      -1.87117696
H        0.00000000       0.00000000       0.00000000      -0.06520532       0.83794201      -1.04623544
O        0.00000000       0.00000000       0.00000000      -0.96710307      -0.61896312      -2.16105342
H        0.00000000       0.00000000       0.00000000      -0.21414840      -0.62260890      -0.18259783
H        0.00000000       0.00000000       0.00000000      -0.37671250       0.42672744       0.42701882
H        0.00000000       0.00000000       0.00000000       1.63486040       0.07342152       1.71799267
7
Lattice="529.1772105638412 0.0 0.0 0.0 529.1772105638412 0.0 0.0 0.0 529.1772105638412" Properties=species:S:1:pos:R:3:forces_component_raw:R:3 ipi_comment="Step:         720  Bead:       0 forces_component_raw{ase}  cell{ase}" pbc="T T T"
O        0.00000000       0.00000000       0.00000000       0.23944257      -2.50852037       2.19668341
H        0.00000000       0.00000000       0.00000000      -0.09704874       0.62649447      -2.24399257
H        0.00000000       0.00000000       0.00000000      -0.11181991       1.71920276      -0.11104816
O        0.00000000       0.00000000       0.00000000       0.48228669      -1.14171291      -0.97787428
H        0.00000000       0.00000000       0.00000000      -0.04826185       0.17905200       0.05578450
H        0.00000000       0.00000000       0.00000000      -1.80816043       0.59136564       0.34719902
H        0.00000000       0.00000000       0.00000000       1.34356141       0.53411842       0.73324782
7
Lattice="529.1772105638412 0.0 0.0 0.0 529.1772105638412 0.0 0.0 0.0 529.1772105638412" Properties=species:S:1:pos:R:3:forces_component_raw:R:3 ipi_comment="Step:         740  Bead:       0 forces_component_raw{ase}  cell{ase}" pbc="T T T"
O        0.00000000       0.00000000       0.00000000      -0.07221186      -0.35436076       2.04964829
H        0.00000000       0.00000000       0.00000000       0.05663870      -0.73739028      -1.16374898
H        0.00000000       0.00000000       0.00000000      -0.13783655       0.52182222      -1.09930599
O        0.00000000       0.00000000       0.00000000       2.20709920      -0.55936068      -0.35860020
H        0.00000000       0.00000000       0.00000000       0.49319032      -0.14642982      -0.17200616
H        0.00000000       0.00000000       0.00000000      -2.67261410       0.76078969       0.46867389
H        0.00000000       0.00000000       0.00000000       0.12573463       0.51492971       0.27533904
7
Lattice="529.1772105638412 0.0 0.0 0.0 529.1772105638412 0.0 0.0 0.0 529.1772105638412" Properties=species:S:1:pos:R:3:forces_component_raw:R:3 ipi_comment="Step:         760  Bead:       0 forces_component_raw{ase}  cell{ase}" pbc="T T T"
O        0.00000000       0.00000000       0.00000000       0.43135268      -0.42263788      -1.53608191
H        0.00000000       0.00000000       0.00000000      -0.27177185       0.68181515       0.30567980
H        0.00000000       0.00000000       0.00000000      -0.03810796      -0.87276697       0.83981568
O        0.00000000       0.00000000       0.00000000       3.86069775       0.63440669       0.14002143
H        0.00000000       0.00000000       0.00000000      -0.71493006       0.17107669       0.41458625
H        0.00000000       0.00000000       0.00000000      -2.78134156       0.06058046      -0.19515759
H        0.00000000       0.00000000       0.00000000      -0.48589867      -0.25247419       0.03113662
7
Lattice="529.1772105638412 0.0 0.0 0.0 529.1772105638412 0.0 0.0 0.0 529.1772105638412" Properties=species:S:1:pos:R:3:forces_component_raw:R:3 ipi_comment="Step:         780  Bead:       0 forces_component_raw{ase}  cell{ase}" pbc="T T T"
O        0.00000000       0.00000000       0.00000000      -0.93711305       2.46536351      -0.48530546
H        0.00000000       0.00000000       0.00000000      -0.17694223      -0.76078034       1.33694208
H        0.00000000       0.00000000       0.00000000       0.81013501      -1.09546232      -0.51690018
O        0.00000000       0.00000000       0.00000000       1.82854450      -0.93766535      -0.13948226
H        0.00000000       0.00000000       0.00000000       0.89306998      -0.36437023      -0.03798021
H        0.00000000       0.00000000       0.00000000      -2.12180424       1.14697767      -0.06881335
H        0.00000000       0.00000000       0.00000000      -0.29588956      -0.45406270      -0.08846065
7
Lattice="529.1772105638412 0.0 0.0 0.0 529.1772105638412 0.0 0.0 0.0 529.1772105638412" Properties=species:S:1:pos:R:3:forces_component_raw:R:3 ipi_comment="Step:         800  Bead:       0 forces_component_raw{ase}  cell{ase}" pbc="T T T"
O        0.00000000       0.00000000       0.00000000       1.40767539       0.62377989      -2.80456973
H        0.00000000       0.00000000       0.00000000      -1.46051586       0.25209028       2.10398341
H        0.00000000       0.00000000       0.00000000       0.14426106      -0.39882508       0.98713875
O        0.00000000       0.00000000       0.00000000       1.76688004      -0.89011818       0.06014204
H        0.00000000       0.00000000       0.00000000      -0.76416099       0.48955390       0.10873634
H        0.00000000       0.00000000       0.00000000      -1.15950847       0.11080921      -0.40700191
H        0.00000000       0.00000000       0.00000000       0.06536871      -0.18729007      -0.04842901
7
Lattice="529.1772105638412 0.0 0.0 0.0 529.1772105638412 0.0 0.0 0.0 529.1772105638412" Properties=species:S:1:pos:R:3:forces_component_raw:R:3 ipi_comment="Step:         820  Bead:       0 forces_component_raw{ase}  cell{ase}" pbc="T T T"
O        0.00000000       0.00000000       0.00000000      -0.82861126       1.34126902      -0.79913700
H        0.00000000       0.00000000       0.00000000      -0.05817270      -0.27641454       1.07588351
H        0.00000000       0.00000000       0.00000000       0.71747434       0.00091452      -0.01992142
O        0.00000000       0.00000000       0.00000000      -1.43477989      -0.15008384       0.38701308
H        0.00000000       0.00000000       0.00000000       0.23088199      -0.69834811      -0.19009537
H        0.00000000       0.00000000       0.00000000       1.23098040      -0.38106364      -0.04024822
H        0.00000000       0.00000000       0.00000000       0.14222732       0.16372657      -0.41349459
7
Lattice="529.1772105638412 0.0 0.0 0.0 529.1772105638412 0.0 0.0 0.0 529.1772105638412" Properties=species:S:1:pos:R:3:forces_component_raw:R:3 ipi_comment="Step:         840  Bead:       0 forces_component_raw{ase}  cell{ase}" pbc="T T T"
O        0.00000000       0.00000000       0.00000000       0.66795385      -1.40046740       0.38384581
H        0.00000000       0.00000000       0.00000000      -0.05420828       0.31896705      -0.32696992
H        0.00000000       0.00000000       0.00000000      -0.47744769       0.51117790      -0.15465361
O        0.00000000       0.00000000       0.00000000      -3.03971291       0.97519005       0.54749739
H        0.00000000       0.00000000       0.00000000       0.08279814       0.38236487      -0.14027584
H        0.00000000       0.00000000       0.00000000       2.05209780      -1.08109915      -0.06042543
H        0.00000000       0.00000000       0.00000000       0.76851934       0.29386664      -0.24901834
7
Lattice="529.1772105638412 0.0 0.0 0.0 529.1772105638412 0.0 0.0 0.0 529.1772105638412" Properties=species:S:1:pos:R:3:forces_component_raw:R:3 ipi_comment="Step:         860  Bead:       0 forces_component_raw{ase}  cell{ase}" pbc="T T T"
O        0.00000000       0.00000000       0.00000000       0.17178988      -0.75766456       2.01892615
H        0.00000000       0.00000000       0.00000000       0.64065707      -0.53211922      -1.07532835
H        0.00000000       0.00000000       0.00000000      -0.57225144       0.81125164      -1.12247396
O        0.00000000       0.00000000       0.00000000      -1.91667724      -0.20929289       0.37629932
H        0.00000000       0.00000000       0.00000000      -0.59020358       0.35858837       0.24336346
H        0.00000000       0.00000000       0.00000000       1.66427338      -0.55410707      -0.56308615
H        0.00000000       0.00000000       0.00000000       0.60241181       0.88334370       0.12229936
7
Lattice="529.1772105638412 0.0 0.0 0.0 529.1772105638412 0.0 0.0 0.0 529.1772105638412" Properties=species:S:1:pos:R:3:forces_component_raw:R:3 ipi_comment="Step:         880  Bead:       0 forces_component_raw{ase}  cell{ase}" pbc="T T T"
O        0.00000000       0.00000000       0.00000000       0.37620986      -1.27012158       1.19899893
H        0.00000000       0.00000000       0.00000000      -0.07132384      -0.43858779      -1.33903957
H        0.00000000       0.00000000       0.00000000      -0.56883621       0.87811732      -0.53010565
O        0.00000000       0.00000000       0.00000000      -0.28114051       0.44158417       0.08780026
H        0.00000000       0.00000000       0.00000000       0.87918890       0.04246547       0.43023178
H        0.00000000       0.00000000       0.00000000      -0.33123750       0.11388634       0.16153669
H        0.00000000       0.00000000       0.00000000      -0.00286078       0.23265588      -0.00942266
7
Lattice="529.1772105638412 0.0 0.0 0.0 529.1772105638412 0.0 0.0 0.0 529.1772105638412" Properties=species:S:1:pos:R:3:forces_component_raw:R:3 ipi_comment="Step:         900  Bead:       0 forces_component_raw{ase}  cell{ase}" pbc="T T T"
O        0.00000000       0.00000000       0.00000000       0.22043443      -0.11499804       0.14319295
H        0.00000000       0.00000000       0.00000000      -0.14198430       0.55822414       0.25064021
H        0.00000000       0.00000000       0.00000000       0.08413768      -0.30186331       0.23699668
O        0.00000000       0.00000000       0.00000000       2.08386136       0.81667996      -2.19779683
H        0.00000000       0.00000000       0.00000000      -0.49255583      -0.39199606      -0.61242366
H        0.00000000       0.00000000       0.00000000      -0.98057705      -0.27690542       1.88531733
H        0.00000000       0.00000000       0.00000000      -0.77331597      -0.28914130       0.29407331
7
Lattice="529.1772105638412 0.0 0.0 0.0 529.1772105638412 0.0 0.0 0.0 529.1772105638412" Properties=species:S:1:pos:R:3:forces_component_raw:R:3 ipi_comment="Step:         920  Bead:       0 forces_component_raw{ase}  cell{ase}" pbc="T T T"
O        0.00000000       0.00000000       0.00000000      -1.58079732       1.16273809      -2.17609144
H        0.00000000       0.00000000       0.00000000       0.68207550       0.21340579       1.96743608
H        0.00000000       0.00000000       0.00000000       0.54133856      -1.02540040       0.19521333
O        0.00000000       0.00000000       0.00000000       0.33559096       0.42839068      -2.45288492
H        0.00000000       0.00000000       0.00000000       0.80711919       0.49669463       0.56010234
H        0.00000000       0.00000000       0.00000000      -0.97948522      -0.74500358       2.15180064
H        0.00000000       0.00000000       0.00000000       0.19415832      -0.53082526      -0.24557561
7
Lattice="529.1772105638412 0.0 0.0 0.0 529.1772105638412 0.0 0.0 0.0 529.1772105638412" Properties=species:S:1:pos:R:3:forces_component_raw:R:3 ipi_comment="Step:         940  Bead:       0 forces_component_raw{ase}  cell{ase}" pbc="T T T"
O        0.00000000       0.00000000       0.00000000      -1.05616474       0.66831422      -1.25250745
H        0.00000000       0.00000000       0.00000000       0.48658699       0.77545822       1.54521168
H        0.00000000       0.00000000       0.00000000       0.85601956      -0.81667340       0.39770034
O        0.00000000       0.00000000       0.00000000       1.39133549      -0.13832574      -2.61071611
H        0.00000000       0.00000000       0.00000000      -0.68323088      -0.35881531      -0.69708461
H        0.00000000       0.00000000       0.00000000      -0.96256602      -0.27157176       2.35770155
H        0.00000000       0.00000000       0.00000000      -0.03198063       0.14161390       0.25969479
7
Lattice="529.1772105638412 0.0 0.0 0.0 529.1772105638412 0.0 0.0 0.0 529.1772105638412" Properties=species:S:1:pos:R:3:forces_component_raw:R:3 ipi_comment="Step:         960  Bead:       0 forces_component_raw{ase}  cell{ase}" pbc="T T T"
O        0.00000000       0.00000000       0.00000000      -0.94757968       0.67600727      -0.65461582
H        0.00000000       0.00000000       0.00000000       0.11312567      -0.23773705       0.17075062
H        0.00000000       0.00000000       0.00000000       0.28030282       0.23970212       0.30313560
O        0.00000000       0.00000000       0.00000000       0.61911094      -0.17968158      -1.16708446
H        0.00000000       0.00000000       0.00000000       0.58411956      -0.51933450       0.34311479
H        0.00000000       0.00000000       0.00000000      -0.81495834      -0.01807198       1.07002950
H        0.00000000       0.00000000       0.00000000       0.16587907       0.03911573      -0.06533021
7
Lattice="529.1772105638412 0.0 0.0 0.0 529.1772105638412 0.0 0.0 0.0 529.1772105638412" Properties=species:S:1:pos:R:3:forces_component_raw:R:3 ipi_comment="Step:         980  Bead:       0 forces_component_raw{ase}  cell{ase}" pbc="T T T"
O        0.00000000       0.00000000       0.00000000      -0.17698246      -0.13542962       0.63012123
H        0.00000000       0.00000000       0.00000000       0.12746909      -0.14848769      -0.41016460
H        0.00000000       0.00000000       0.00000000       0.14728612      -0.01198903      -0.22608465
O        0.00000000       0.00000000       0.00000000      -0.52242541      -0.76831991       0.59800643
H        0.00000000       0.00000000       0.00000000      -0.22114123       0.73466659      -0.02914283
H        0.00000000       0.00000000       0.00000000       0.41756255       0.10156125      -0.51794016
H        0.00000000       0.00000000       0.00000000       0.22823125       0.22799838      -0.04479530
7
Lattice="529.1772105638412 0.0 0.0 0.0 529.1772105638412 0.0 0.0 0.0 529.1772105638412" Properties=species:S:1:pos:R:3:forces_component_raw:R:3 ipi_comment="Step:        1000  Bead:       0 forces_component_raw{ase}  cell{ase}" pbc="T T T"
O        0.00000000       0.00000000       0.00000000       0.44644809      -0.48628545       0.21900249
H        0.00000000       0.00000000       0.00000000      -0.55055672       0.09217235      -0.46048725
H        0.00000000       0.00000000       0.00000000       0.13055706       0.12983535       0.22113314
O        0.00000000       0.00000000       0.00000000      -1.78047574       0.20861530       2.03082538
H        0.00000000       0.00000000       0.00000000       0.00318810      -0.20490766      -0.21691296
H        0.00000000       0.00000000       0.00000000       1.64256275      -0.06263813      -1.88023377
H        0.00000000       0.00000000       0.00000000       0.10827667       0.32320833       0.08667314
7
Lattice="529.1772105638412 0.0 0.0 0.0 529.1772105638412 0.0 0.0 0.0 529.1772105638412" Properties=species:S:1:pos:R:3:forces_component_raw:R:3 ipi_comment="Step:        1020  Bead:       0 forces_component_raw{ase}  cell{ase}" pbc="T T T"
O        0.00000000       0.00000000       0.00000000       1.04735124      -0.63367129      -0.09155238
H        0.00000000       0.00000000       0.00000000      -0.42417535      -0.01427037      -0.56398952
H        0.00000000       0.00000000       0.00000000      -0.52088344       0.00667669       0.06211197
O        0.00000000       0.00000000       0.00000000      -2.17890239      -0.01521817       2.50166774
H        0.00000000       0.00000000       0.00000000       0.00995523      -0.11684765       0.43801510
H        0.00000000       0.00000000       0.00000000       2.04812789       0.17194751      -2.56652308
H        0.00000000       0.00000000       0.00000000       0.01852679       0.60138339       0.22027004
7
Lattice="529.1772105638412 0.0 0.0 0.0 529.1772105638412 0.0 0.0 0.0 529.1772105638412" Properties=species:S:1:pos:R:3:forces_component_raw:R:3 ipi_comment="Step:        1040  Bead:       0 forces_component_raw{ase}  cell{ase}" pbc="T T T"
O        0.00000000       0.00000000       0.00000000       1.38859189      -1.52522695      -0.77729833
H        0.00000000       0.00000000       0.00000000       0.06883621       0.22737114       0.12473792
H        0.00000000       0.00000000       0.00000000      -1.20531059       0.25749415       0.35711557
O        0.00000000       0.00000000       0.00000000      -1.48794079       0.47486985       2.40352488
H        0.00000000       0.00000000       0.00000000       0.18217689       0.31312138      -0.35990495
H        0.00000000       0.00000000       0.00000000       0.97458101       0.16046226      -1.60367632
H        0.00000000       0.00000000       0.00000000       0.07906544       0.09190810      -0.14449853
7
Lattice="529.1772105638412 0.0 0.0 0.0 529.1772105638412 0.0 0.0 0.0 529.1772105638412" Properties=species:S:1:pos:R:3:forces_component_raw:R:3 ipi_comment="Step:        1060  Bead:       0 forces_component_raw{ase}  cell{ase}" pbc="T T T"
O        0.00000000       0.00000000       0.00000000       0.63990909      -0.62016273      -1.00276590
H        0.00000000       0.00000000       0.00000000       0.66928429       0.00261420       0.50366765
H        0.00000000       0.00000000       0.00000000      -1.49677205       0.59317774       0.31548983
O        0.00000000       0.00000000       0.00000000       0.61820078      -0.19129629      -0.62314451
H        0.00000000       0.00000000       0.00000000       0.03519267       0.22119388       0.49603677
H        0.00000000       0.00000000       0.00000000       0.19078910       0.30062366      -0.06987464
H        0.00000000       0.00000000       0.00000000      -0.65660399      -0.30615050       0.38059059
7
Lattice="529.1772105638412 0.0 0.0 0.0 529.1772105638412 0.0 0.0 0.0 529.1772105638412" Properties=species:S:1:pos:R:3:forces_component_raw:R:3 ipi_comment="Step:        1080  Bead:       0 forces_component_raw{ase}  cell{ase}" pbc="T T T"
O        0.00000000       0.00000000       0.00000000      -0.63642395       0.74378699      -0.37048388
H        0.00000000       0.00000000       0.00000000       0.65359032       0.39837867       0.91115701
H        0.00000000       0.00000000       0.00000000      -0.13339490       0.16508591       0.19023947
O        0.00000000       0.00000000       0.00000000       1.16640008       0.51871616      -1.06367445
H        0.00000000       0.00000000       0.00000000      -0.01096493      -0.63637400      -0.30347794
H        0.00000000       0.00000000       0.00000000      -0.35795230      -0.41906691       0.81112272
H        0.00000000       0.00000000       0.00000000      -0.68125415      -0.77052677      -0.17488280
7
Lattice="529.1772105638412 0.0 0.0 0.0 529.1772105638412 0.0 0.0 0.0 529.1772105638412" Properties=species:S:1:pos:R:3:forces_component_raw:R:3 ipi_comment="Step:        1100  Bead:       0 forces_component_raw{ase}  cell{ase}" pbc="T T T"
O        0.00000000       0.00000000       0.00000000      -1.00348175       1.05933583       0.32443541
H        0.00000000       0.00000000       0.00000000       0.37945187      -0.03398073       0.26040447
H        0.00000000       0.00000000       0.00000000       0.64675474      -0.46231574      -0.11192112
O        0.00000000       0.00000000       0.00000000       1.01798249      -0.13905799      -2.63660670
H        0.00000000       0.00000000       0.00000000      -0.10520184       0.61099363      -0.21925417
H        0.00000000       0.00000000       0.00000000       0.09044054      -0.09799027       2.07198811
H        0.00000000       0.00000000       0.00000000      -1.02594614      -0.93698478       0.31095392
7
Lattice="529.1772105638412 0.0 0.0 0.0 529.1772105638412 0.0 0.0 0.0 529.1772105638412" Properties=species:S:1:pos:R:3:forces_component_raw:R:3 ipi_comment="Step:        1120  Bead:       0 forces_component_raw{ase}  cell{ase}" pbc="T T T"
O        0.00000000       0.00000000       0.00000000      -1.15467632       0.31038550      -0.75766289
H        0.00000000       0.00000000       0.00000000       0.10567504      -0.03759760       0.13513845
H        0.00000000       0.00000000       0.00000000       0.92919547      -0.21832368       0.41460919
O        0.00000000       0.00000000       0.00000000       0.55079568       1.66335893      -1.63307202
H        0.00000000       0.00000000       0.00000000      -0.03820300      -0.54194546       0.35581967
H        0.00000000       0.00000000       0.00000000      -0.25308797      -1.12188328       1.72062803
H        0.00000000       0.00000000       0.00000000      -0.13969874      -0.05399442      -0.23546043
7
Lattice="529.1772105638412 0.0 0.0 0.0 529.1772105638412 0.0 0.0 0.0 529.1772105638412" Properties=species:S:1:pos:R:3:forces_component_raw:R:3 ipi_comment="Step:        1140  Bead:       0 forces_component_raw{ase}  cell{ase}" pbc="T T T"
O        0.00000000       0.00000000       0.00000000      -0.29838455       0.68376005       0.77336329
H        0.00000000       0.00000000       0.00000000      -0.18271667      -0.81170368      -0.90149743
H        0.00000000       0.00000000       0.00000000       0.44953913      -0.56241232      -0.09625080
O        0.00000000       0.00000000       0.00000000      -0.82611942      -0.98588753      -0.57956141
H        0.00000000       0.00000000       0.00000000       0.10774821       0.30277920      -0.63386774
H        0.00000000       0.00000000       0.00000000       0.06589714       0.21159786       1.51674569
H        0.00000000       0.00000000       0.00000000       0.68403602       1.16186643      -0.07893166
7
Lattice="529.1772105638412 0.0 0.0 0.0 529.1772105638412 0.0 0.0 0.0 529.1772105638412" Properties=species:S:1:pos:R:3:forces_component_raw:R:3 ipi_comment="Step:        1160  Bead:       0 forces_component_raw{ase}  cell{ase}" pbc="T T T"
O        0.00000000       0.00000000       0.00000000       1.27271664      -0.60962993       1.51742006
H        0.00000000       0.00000000       0.00000000      -0.85056520       0.14822489      -1.89852667
H        0.00000000       0.00000000       0.00000000      -0.34407818       0.17547834       0.17168248
O        0.00000000       0.00000000       0.00000000      -0.15755779      -0.94089371       0.41009110
H        0.00000000       0.00000000       0.00000000      -0.10354885      -0.13874346       0.20932499
H        0.00000000       0.00000000       0.00000000      -0.04016062      -0.54602832       0.43423021
H        0.00000000       0.00000000       0.00000000       0.22319408       1.91159237      -0.84422249
7
Lattice="529.1772105638412 0.0 0.0 0.0 529.1772105638412 0.0 0.0 0.0 529.1772105638412" Properties=species:S:1:pos:R:3:forces_component_raw:R:3 ipi_comment="Step:        1180  Bead:       0 forces_component_raw{ase}  cell{ase}" pbc="T T T"
O        0.00000000       0.00000000       0.00000000       0.05160713      -0.27227461       2.61511183
H        0.00000000       0.00000000       0.00000000      -0.30386692       0.99309659      -1.84894944
H        0.00000000       0.00000000       0.00000000       0.16767561      -0.01794583      -0.02647530
O        0.00000000       0.00000000       0.00000000       0.25986573      -2.68541575      -0.75467253
H        0.00000000       0.00000000       0.00000000       0.12698925      -0.14961308      -0.25967759
H        0.00000000       0.00000000       0.00000000      -0.03953021       0.23135665       0.63554752
H        0.00000000       0.00000000       0.00000000      -0.26274049       1.90079570      -0.36088470
7
Lattice="529.1772105638412 0.0 0.0 0.0 529.1772105638412 0.0 0.0 0.0 529.1772105638412" Properties=species:S:1:pos:R:3:forces_component_raw:R:3 ipi_comment="Step:        1200  Bead:       0 forces_component_raw{ase}  cell{ase}" pbc="T T T"
O        0.00000000       0.00000000       0.00000000      -0.01816058      -0.71586645       2.00820542
H        0.00000000       0.00000000       0.00000000      -0.24852993       1.16004980      -1.81899000
H        0.00000000       0.00000000       0.00000000       0.16027713      -0.01761681       0.12227166
O        0.00000000       0.00000000       0.00000000      -0.15103912      -1.14909017       0.46024883
H        0.00000000       0.00000000       0.00000000       0.15149319       0.37163529       0.45945135
H        0.00000000       0.00000000       0.00000000       0.23884985      -0.31825697      -0.43686587
H        0.00000000       0.00000000       0.00000000      -0.13289046       0.66914523      -0.79432100
7
Lattice="529.1772105638412 0.0 0.0 0.0 529.1772105638412 0.0 0.0 0.0 529.1772105638412" Properties=species:S:1:pos:R:3:forces_component_raw:R:3 ipi_comment="Step:        1220  Bead:       0 forces_component_raw{ase}  cell{ase}" pbc="T T T"
O        0.00000000       0.00000000       0.00000000       0.57746649       0.09474579       0.94641054
H        0.00000000       0.00000000       0.00000000       0.12479033      -0.03125229      -0.63051158
H        0.00000000       0.00000000       0.00000000      -0.37219852       0.23899820      -0.34847784
O        0.00000000       0.00000000       0.00000000      -0.45019651       0.58667028       1.08340502
H        0.00000000       0.00000000       0.00000000      -0.58709169      -0.31590310       0.09891294
H        0.00000000       0.00000000       0.00000000       0.47185725       0.26543221      -1.78355098
H        0.00000000       0.00000000       0.00000000       0.23537260      -0.83869100       0.63381159
7
Lattice="529.1772105638412 0.0 0.0 0.0 529.1772105638412 0.0 0.0 0.0 529.1772105638412" Properties=species:S:1:pos:R:3:forces_component_raw:R:3 ipi_comment="Step:        1240  Bead:       0 forces_component_raw{ase}  cell{ase}" pbc="T T T"
O        0.00000000       0.00000000       0.00000000       0.95744193      -1.49399257      -1.51705861
H        0.00000000       0.00000000       0.00000000      -0.25350973       0.06668364       0.76113343
H        0.00000000       0.00000000       0.00000000      -0.99360955       1.07102168       0.21754237
O        0.00000000       0.00000000       0.00000000      -1.47354460       1.93554485       1.07349730
H        0.00000000       0.00000000       0.00000000       0.36121187       0.05684172      -0.04314506
H        0.00000000       0.00000000       0.00000000       0.74643970       0.29024586      -1.34853149
H        0.00000000       0.00000000       0.00000000       0.65557051      -1.92634511       0.85656220
7
Lattice="529.1772105638412 0.0 0.0 0.0 529.1772105638412 0.0 0.0 0.0 529.1772105638412" Properties=species:S:1:pos:R:3:forces_component_raw:R:3 ipi_comment="Step:        1260  Bead:       0 forces_component_raw{ase}  cell{ase}" pbc="T T T"
O        0.00000000       0.00000000       0.00000000      -0.42108768       0.25290245      -1.12889719
H        0.00000000       0.00000000       0.00000000       0.67542660      -0.66325367       1.64864433
H        0.00000000       0.00000000       0.00000000      -0.29071009       0.12475675      -0.80616367
O        0.00000000       0.00000000       0.00000000      -1.04798889       1.85575235       0.11030658
H        0.00000000       0.00000000       0.00000000       0.10896967       0.20482323       0.23561783
H        0.00000000       0.00000000       0.00000000       0.54814804       0.12945849      -0.72656083
H        0.00000000       0.00000000       0.00000000       0.42724246      -1.90443969       0.66705299
7
Lattice="529.1772105638412 0.0 0.0 0.0 529.1772105638412 0.0 0.0 0.0 529.1772105638412" Properties=species:S:1:pos:R:3:forces_component_raw:R:3 ipi_comment="Step:        1280  Bead:       0 forces_component_raw{ase}  cell{ase}" pbc="T T T"
O        0.00000000       0.00000000       0.00000000       0.14901096      -1.15562761      -1.86450136
H        0.00000000       0.00000000       0.00000000       0.21724528       0.43605405       1.56825984
H        0.00000000       0.00000000       0.00000000      -0.01422095      -0.05482620       0.31833196
O        0.00000000       0.00000000       0.00000000      -0.25449956       2.16841412       0.66115153
H        0.00000000       0.00000000       0.00000000      -0.66910929       0.39787492      -0.53076387
H        0.00000000       0.00000000       0.00000000       0.31724674       0.03230947      -0.55408085
H        0.00000000       0.00000000       0.00000000       0.25432688      -1.82419861       0.40160304
7
Lattice="529.1772105638412 0.0 0.0 0.0 529.1772105638412 0.0 0.0 0.0 529.1772105638412" Properties=species:S:1:pos:R:3:forces_component_raw:R:3 ipi_comment="Step:        1300  Bead:       0 forces_component_raw{ase}  cell{ase}" pbc="T T T"
O        0.00000000       0.00000000       0.00000000      -1.10679770       1.19511485      -1.87103463
H        0.00000000       0.00000000       0.00000000       0.45388198      -0.31743366       1.38791585
H        0.00000000       0.00000000       0.00000000       0.21003866      -0.08169401       0.35708886
O        0.00000000       0.00000000       0.00000000       0.13113177       0.33916622      -0.47628638
H        0.00000000       0.00000000       0.00000000       0.60784990      -1.09914434       0.15065196
H        0.00000000       0.00000000       0.00000000      -0.20455802      -0.09652299       0.19923466
H        0.00000000       0.00000000       0.00000000      -0.09154651       0.06051397       0.25242961
7
Lattice="529.1772105638412 0.0 0.0 0.0 529.1772105638412 0.0 0.0 0.0 529.1772105638412" Properties=species:S:1:pos:R:3:forces_component_raw:R:3 ipi_comment="Step:        1320  Bead:       0 forces_component_raw{ase}  cell{ase}" pbc="T T T"
O        0.00000000       0.00000000       0.00000000      -0.36064512       0.60208899      -0.14640594
H        0.00000000       0.00000000       0.00000000       0.30759183      -0.11441178       0.69852311
H        0.00000000       0.00000000       0.00000000       0.22618091      -0.53135324      -0.18584293
O        0.00000000       0.00000000       0.00000000      -0.02377224      -1.41165948      -0.17635477
H        0.00000000       0.00000000       0.00000000      -0.08274928       1.44283367       0.01256661
H        0.00000000       0.00000000       0.00000000      -0.22706246      -0.41768193       0.79066384
H        0.00000000       0.00000000       0.00000000       0.16045657       0.43018389      -0.99315006
7
Lattice="529.1772105638412 0.0 0.0 0.0 529.1772105638412 0.0 0.0 0.0 529.1772105638412" Properties=species:S:1:pos:R:3:forces_component_raw:R:3 ipi_comment="Step:        1340  Bead:       0 forces_component_raw{ase}  cell{ase}" pbc="T T T"
O        0.00000000       0.00000000       0.00000000       0.56262130       0.57037169       0.28698546
H        0.00000000       0.00000000       0.00000000      -0.32665896       0.14482901      -0.45899594
H        0.00000000       0.00000000       0.00000000      -0.28837216       0.31653807       0.39812994
O        0.00000000       0.00000000       0.00000000       1.94125891      -1.48384834      -1.38969422
H        0.00000000       0.00000000       0.00000000      -0.13344146      -1.33423066       0.13605006
H        0.00000000       0.00000000       0.00000000      -1.20673120       0.38955191       0.87192244
H        0.00000000       0.00000000       0.00000000      -0.54867649       1.39678848       0.15560257
7
Lattice="529.1772105638412 0.0 0.0 0.0 529.1772105638412 0.0 0.0 0.0 529.1772105638412" Properties=species:S:1:pos:R:3:forces_component_raw:R:3 ipi_comment="Step:        1360  Bead:       0 forces_component_raw{ase}  cell{ase}" pbc="T T T"
O        0.00000000       0.00000000       0.00000000       0.10163820      -1.63714981       1.19415713
H        0.00000000       0.00000000       0.00000000       0.19332373       0.65169192      -0.89058274
H        0.00000000       0.00000000       0.00000000      -0.32293087       0.25446796      -0.39356673
O        0.00000000       0.00000000       0.00000000      -0.21819830      -0.85052628       0.73346329
H        0.00000000       0.00000000       0.00000000       0.41798878       0.74891651      -0.73460609
H        0.00000000       0.00000000       0.00000000      -0.68283886      -0.11826074       1.27410364
H        0.00000000       0.00000000       0.00000000       0.51101703       0.95086062      -1.18296838
7
Lattice="529.1772105638412 0.0 0.0 0.0 529.1772105638412 0.0 0.0 0.0 529.1772105638412" Properties=species:S:1:pos:R:3:forces_component_raw:R:3 ipi_comment="Step:        1380  Bead:       0 forces_component_raw{ase}  cell{ase}" pbc="T T T"
O        0.00000000       0.00000000       0.00000000       0.83998645      -1.50836230       0.36804193
H        0.00000000       0.00000000       0.00000000      -0.14342082       0.78237003      -1.04056430
H        0.00000000       0.00000000       0.00000000      -0.47903574       0.37675023       0.04294285
O        0.00000000       0.00000000       0.00000000      -0.04976010      -0.86128408      -0.94896031
H        0.00000000       0.00000000       0.00000000      -0.66290236      -0.02167940       1.32135773
H        0.00000000       0.00000000       0.00000000       0.14569742       0.07664531      -0.17736840
H        0.00000000       0.00000000       0.00000000       0.34943524       1.15556026       0.43455088
7
Lattice="529.1772105638412 0.0 0.0 0.0 529.1772105638412 0.0 0.0 0.0 529.1772105638412" Properties=species:S:1:pos:R:3:forces_component_raw:R:3 ipi_comment="Step:        1400  Bead:       0 forces_component_raw{ase}  cell{ase}" pbc="T T T"
O        0.00000000       0.00000000       0.00000000       0.16673470       0.94963241       3.06611181
H        0.00000000       0.00000000       0.00000000      -0.04184556       0.38269362      -1.45811773
H        0.00000000       0.00000000       0.00000000       0.00943351       0.15159610      -0.20861466
O        0.00000000       0.00000000       0.00000000      -0.89727080       0.41903293       2.34074688
H        0.00000000       0.00000000       0.00000000       0.04405600      -1.43667126      -1.67197776
H        0.00000000       0.00000000       0.00000000       0.73564136      -0.15331645      -1.68655527
H        0.00000000       0.00000000       0.00000000      -0.01674938      -0.31296730      -0.38159311
7
Lattice="529.1772105638412 0.0 0.0 0.0 529.1772105638412 0.0 0.0 0.0 529.1772105638412" Properties=species:S:1:pos:R:3:forces_component_raw:R:3 ipi_comment="Step:        1420  Bead:       0 forces_component_raw{ase}  cell{ase}" pbc="T T T"
O        0.00000000       0.00000000       0.00000000      -0.18842268      -0.47803354      -0.50832188
H        0.00000000       0.00000000       0.00000000      -0.26962137       0.19488847      -0.55432123
H        0.00000000       0.00000000       0.00000000       0.43225914      -0.24833113       0.30944610
O        0.00000000       0.00000000       0.00000000       0.27045012       0.75677455       1.85197306
H        0.00000000       0.00000000       0.00000000      -0.21874586       0.21737583       0.40297511
H        0.00000000       0.00000000       0.00000000       1.20364285       0.38094151      -1.86581934
H        0.00000000       0.00000000       0.00000000      -1.22956252      -0.82361573       0.36406809
7
Lattice="529.1772105638412 0.0 0.0 0.0 529.1772105638412 0.0 0.0 0.0 529.1772105638412" Properties=species:S:1:pos:R:3:forces_component_raw:R:3 ipi_comment="Step:        1440  Bead:       0 forces_component_raw{ase}  cell{ase}" pbc="T T T"
O        0.00000000       0.00000000       0.00000000      -1.11636663       1.24685741      -0.86902613
H        0.00000000       0.00000000       0.00000000       0.21000126      -0.42812073       0.66416562
H        0.00000000       0.00000000       0.00000000       0.79835725      -0.76152110      -0.06270877
O        0.00000000       0.00000000       0.00000000       0.90584803       0.44522983       1.92739749
H        0.00000000       0.00000000       0.00000000       0.30146471       0.06000544       0.37289095
H        0.00000000       0.00000000       0.00000000       0.58080912       0.23495847      -1.54869199
H        0.00000000       0.00000000       0.00000000      -1.68011403      -0.79740936      -0.48402721
7
Lattice="529.1772105638412 0.0 0.0 0.0 529.1772105638412 0.0 0.0 0.0 529.1772105638412" Properties=species:S:1:pos:R:3:forces_component_raw:R:3 ipi_comment="Step:        1460  Bead:       0 forces_component_raw{ase}  cell{ase}" pbc="T T T"
O        0.00000000       0.00000000       0.00000000      -0.11568773       2.21533514      -0.53057981
H        0.00000000       0.00000000       0.00000000       0.36092174      -0.76227051       2.10877109
H        0.00000000       0.00000000       0.00000000       0.16307694      -0.63333327      -0.14626640
O        0.00000000       0.00000000       0.00000000       0.83332670       0.49777413      -0.87727910
H        0.00000000       0.00000000       0.00000000      -0.05786490      -0.45266155      -0.96832520
H        0.00000000       0.00000000       0.00000000       0.65690923      -0.16980070       0.41288763
H        0.00000000       0.00000000       0.00000000      -1.84068203      -0.69504345       0.00079191
7
Lattice="529.1772105638412 0.0 0.0 0.0 529.1772105638412 0.0 0.0 0.0 529.1772105638412" Properties=species:S:1:pos:R:3:forces_component_raw:R:3 ipi_comment="Step:        1480  Bead:       0 forces_component_raw{ase}  cell{ase}" pbc="T T T"
O        0.00000000       0.00000000       0.00000000       0.00329244       0.73247254      -1.46775282
H        0.00000000       0.00000000       0.00000000       0.46210611      -0.81421405       1.96566976
H        0.00000000       0.00000000       0.00000000      -0.21543431       0.39489049       0.01842904
O        0.00000000       0.00000000       0.00000000       1.22868061       0.07351244      -0.62172640
H        0.00000000       0.00000000       0.00000000      -0.43025565       0.37791267       0.96341729
H        0.00000000       0.00000000       0.00000000      -0.55138683      -0.68738914      -0.32405973
H        0.00000000       0.00000000       0.00000000      -0.49700219      -0.07718506      -0.53397727
7
Lattice="529.1772105638412 0.0 0.0 0.0 529.1772105638412 0.0 0.0 0.0 529.1772105638412" Properties=species:S:1:pos:R:3:forces_component_raw:R:3 ipi_comment="Step:        1500  Bead:       0 forces_component_raw{ase}  cell{ase}" pbc="T T T"
O        0.00000000       0.00000000       0.00000000       0.63201642      -1.22383750      -0.28833818
H        0.00000000       0.00000000       0.00000000       0.27130714      -0.46466303       0.50249964
H        0.00000000       0.00000000       0.00000000      -0.96128643       1.33176291      -0.18817897
O        0.00000000       0.00000000       0.00000000      -0.60965002      -0.11974299      -1.04547811
H        0.00000000       0.00000000       0.00000000       0.41250420       0.21184120      -0.50927210
H        0.00000000       0.00000000       0.00000000       0.02113628       0.27667338       1.03729880
H        0.00000000       0.00000000       0.00000000       0.23397207      -0.01203362       0.49146885
7
Lattice="529.1772105638412 0.0 0.0 0.0 529.1772105638412 0.0 0.0 0.0 529.1772105638412" Properties=species:S:1:pos:R:3:forces_component_raw:R:3 ipi_comment="Step:        1520  Bead:       0 forces_component_raw{ase}  cell{ase}" pbc="T T T"
O        0.00000000       0.00000000       0.00000000       1.56260038      -2.61812497      -0.12118435
H        0.00000000       0.00000000       0.00000000      -0.34791163       0.68437302      -1.26952648
H        0.00000000       0.00000000       0.00000000      -1.54800344       2.03332448       0.56572867
O        0.00000000       0.00000000       0.00000000      -0.18877515       0.08409086      -0.63631964
H        0.00000000       0.00000000       0.00000000       0.02883348      -0.73348081       0.46216953
H        0.00000000       0.00000000       0.00000000      -0.91274047      -0.04300492       0.52681428
H        0.00000000       0.00000000       0.00000000       1.40599680       0.59282214       0.47231805
7
Lattice="529.1772105638412 0.0 0.0 0.0 529.1772105638412 0.0 0.0 0.0 529.1772105638412" Properties=species:S:1:pos:R:3:forces_component_raw:R:3 ipi_comment="Step:        1540  Bead:       0 forces_component_raw{ase}  cell{ase}" pbc="T T T"
O        0.00000000       0.00000000       0.00000000       0.38471830      -3.17440844       2.46807576
H        0.00000000       0.00000000       0.00000000       0.95726985       0.83371258      -1.51340139
H        0.00000000       0.00000000       0.00000000      -1.43687153       1.71253753      -0.65218067
O        0.00000000       0.00000000       0.00000000      -0.73312551      -0.83051038      -0.81255865
H        0.00000000       0.00000000       0.00000000      -0.22685093       0.39810976      -0.76563680
H        0.00000000       0.00000000       0.00000000       0.01875031       0.17587963       0.25253546
H        0.00000000       0.00000000       0.00000000       1.03610969       0.88467944       1.02316690
7
Lattice="529.1772105638412 0.0 0.0 0.0 529.1772105638412 0.0 0.0 0.0 529.1772105638412" Properties=species:S:1:pos:R:3:forces_component_raw:R:3 ipi_comment="Step:        1560  Bead:       0 forces_component_raw{ase}  cell{ase}" pbc="T T T"
O        0.00000000       0.00000000       0.00000000       0.52534282      -1.91155029       1.00141931
H        0.00000000       0.00000000       0.00000000      -0.24131316       0.57921094      -2.28958059
H        0.00000000       0.00000000       0.00000000      -0.63628978       1.19363165       0.36482859
O        0.00000000       0.00000000       0.00000000      -0.72479409       0.24116838       0.29351744
H        0.00000000       0.00000000       0.00000000       0.10597962      -0.35689461       0.50264597
H        0.00000000       0.00000000       0.00000000       0.23964870      -0.15564311      -0.14532155
H        0.00000000       0.00000000       0.00000000       0.73142606       0.41007698       0.27249092
7
Lattice="529.1772105638412 0.0 0.0 0.0 529.1772105638412 0.0 0.0 0.0 529.1772105638412" Properties=species:S:1:pos:R:3:forces_component_raw:R:3 ipi_comment="Step:        1580  Bead:       0 forces_component_raw{ase}  cell{ase}" pbc="T T T"
O        0.00000000       0.00000000       0.00000000       0.38378558      -0.13042548       2.15732766
H        0.00000000       0.00000000       0.00000000       0.01328257      -0.42484528      -1.00861228
H        0.00000000       0.00000000       0.00000000      -0.22232243       0.56341148      -0.71998787
O        0.00000000       0.00000000       0.00000000      -0.66694373      -0.40287662      -0.69944543
H        0.00000000       0.00000000       0.00000000       0.13717139       0.85399801       0.42039985
H        0.00000000       0.00000000       0.00000000       0.24598742      -0.35030884      -0.09368025
H        0.00000000       0.00000000       0.00000000       0.10903919      -0.10895360      -0.05600166
7
Lattice="529.1772105638412 0.0 0.0 0.0 529.1772105638412 0.0 0.0 0.0 529.1772105638412" Properties=species:S:1:pos:R:3:forces_component_raw:R:3 ipi_comment="Step:        1600  Bead:       0 forces_component_raw{ase}  cell{ase}" pbc="T T T"
O        0.00000000       0.00000000       0.00000000      -0.24012369       1.59363640      -0.43556959
H        0.00000000       0.00000000       0.00000000       0.45170212      -0.00027651       1.15374995
H        0.00000000       0.00000000       0.00000000       0.12147494      -0.28323305       0.45220867
O        0.00000000       0.00000000       0.00000000      -0.80774194       0.24232423      -0.01161683
H        0.00000000       0.00000000       0.00000000       0.15095487      -0.84871555      -0.74759585
H        0.00000000       0.00000000       0.00000000       0.75436568      -0.69577778      -0.13708320
H        0.00000000       0.00000000       0.00000000      -0.43063188      -0.00795799      -0.27409312
7
Lattice="529.1772105638412 0.0 0.0 0.0 529.1772105638412 0.0 0.0 0.0 529.1772105638412" Properties=species:S:1:pos:R:3:forces_component_raw:R:3 ipi_comment="Step:        1620  Bead:       0 forces_component_raw{ase}  cell{ase}" pbc="T T T"
O        0.00000000       0.00000000       0.00000000      -0.59468568       1.74025274      -2.33384038
H        0.00000000       0.00000000       0.00000000       1.39214969      -1.12956512       2.45708061
H        0.00000000       0.00000000       0.00000000      -0.57142031      -0.57791710      -0.01893732
O        0.00000000       0.00000000       0.00000000       0.78615737       0.18493342      -0.27378130
H        0.00000000       0.00000000       0.00000000      -0.46140066       0.70004654       0.32064360
H        0.00000000       0.00000000       0.00000000       0.09653011      -0.87639731      -0.22542551
H        0.00000000       0.00000000       0.00000000      -0.64733082      -0.04135311       0.07426021
7
Lattice="529.1772105638412 0.0 0.0 0.0 529.1772105638412 0.0 0.0 0.0 529.1772105638412" Properties=species:S:1:pos:R:3:forces_component_raw:R:3 ipi_comment="Step:        1640  Bead:       0 forces_component_raw{ase}  cell{ase}" pbc="T T T"
O        0.00000000       0.00000000       0.00000000      -1.14955187       1.76298762      -2.96872855
H        0.00000000       0.00000000       0.00000000       1.67076183      -1.38955915       2.06321526
H        0.00000000       0.00000000       0.00000000      -0.81272280      -0.97563321       0.31229863
O        0.00000000       0.00000000       0.00000000       0.29039753       1.39824283       0.53732556
H        0.00000000       0.00000000       0.00000000       0.40859574      -0.15191123       0.11742291
H        0.00000000       0.00000000       0.00000000       0.29927915      -0.60754860       0.20640171
H        0.00000000       0.00000000       0.00000000      -0.70675945      -0.03657812      -0.26793519
7
Lattice="529.1772105638412 0.0 0.0 0.0 529.1772105638412 0.0 0.0 0.0 529.1772105638412" Properties=species:S:1:pos:R:3:forces_component_raw:R:3 ipi_comment="Step:        1660  Bead:       0 forces_component_raw{ase}  cell{ase}" pbc="T T T"
O        0.00000000       0.00000000       0.00000000       0.44223571       1.82600642      -0.38717830
H        0.00000000       0.00000000       0.00000000       0.48864502      -0.37917605       0.66350174
H        0.00000000       0.00000000       0.00000000      -0.60418576      -0.80217713       0.40808362
O        0.00000000       0.00000000       0.00000000       0.22593004       0.17885804       0.58636940
H        0.00000000       0.00000000       0.00000000      -0.42686635      -1.04213500      -1.07504249
H        0.00000000       0.00000000       0.00000000       0.03289232       0.15464401      -0.06994571
H        0.00000000       0.00000000       0.00000000      -0.15865052       0.06397966      -0.12578806
7
Lattice="529.1772105638412 0.0 0.0 0.0 529.1772105638412 0.0 0.0 0.0 529.1772105638412" Properties=species:S:1:pos:R:3:forces_component_raw:R:3 ipi_comment="Step:        1680  Bead:       0 forces_component_raw{ase}  cell{ase}" pbc="T T T"
O        0.00000000       0.00000000       0.00000000       0.70093429      -0.38513675      -0.52655637
H        0.00000000       0.00000000       0.00000000      -0.63792622       0.01956537      -0.51201582
H        0.00000000       0.00000000       0.00000000      -0.50111437      -0.37860513       0.16758183
O        0.00000000       0.00000000       0.00000000       0.21492577      -0.18844366       0.42918795
H        0.00000000       0.00000000       0.00000000      -0.10994336       0.18147187      -0.02081507
H        0.00000000       0.00000000       0.00000000      -0.20660874       0.75930917      -0.14794618
H        0.00000000       0.00000000       0.00000000       0.53973293      -0.00816110       0.61056352
7
Lattice="529.1772105638412 0.0 0.0 0.0 529.1772105638412 0.0 0.0 0.0 529.1772105638412" Properties=species:S:1:pos:R:3:forces_component_raw:R:3 ipi_comment="Step:        1700  Bead:       0 forces_component_raw{ase}  cell{ase}" pbc="T T T"
O        0.00000000       0.00000000       0.00000000       0.61720920      -0.94212538       1.15667749
H        0.00000000       0.00000000       0.00000000      -1.15329266       0.62065220      -1.57489729
H        0.00000000       0.00000000       0.00000000       0.24509168       0.13994783       0.16502163
O        0.00000000       0.00000000       0.00000000      -0.54952955      -1.04996109      -0.26874030
H        0.00000000       0.00000000       0.00000000       0.49072528       0.17453192       0.29336140
H        0.00000000       0.00000000       0.00000000      -0.14165857       1.50803984      -0.14554271
H        0.00000000       0.00000000       0.00000000       0.49145472      -0.45108515       0.37411970
7
Lattice="529.1772105638412 0.0 0.0 0.0 529.1772105638412 0.0 0.0 0.0 529.1772105638412" Properties=species:S:1:pos:R:3:forces_component_raw:R:3 ipi_comment="Step:        1720  Bead:       0 forces_component_raw{ase}  cell{ase}" pbc="T T T"
O        0.00000000       0.00000000       0.00000000       1.47194338      -1.00523019       3.68063880
H        0.00000000       0.00000000       0.00000000      -1.52030111       0.75118375      -1.78521610
H        0.00000000       0.00000000       0.00000000       0.68643177       1.21022296      -0.74370104
O        0.00000000       0.00000000       0.00000000      -0.81565499      -1.99580872      -0.02846295
H        0.00000000       0.00000000       0.00000000      -0.31999016      -0.46384937      -0.74130130
H        0.00000000       0.00000000       0.00000000       0.45683509       1.40570069      -0.26617226
H        0.00000000       0.00000000       0.00000000       0.04073644       0.09778106      -0.11578479
7
Lattice="529.1772105638412 0.0 0.0 0.0 529.1772105638412 0.0 0.0 0.0 529.1772105638412" Properties=species:S:1:pos:R:3:forces_component_raw:R:3 ipi_comment="Step:        1740  Bead:       0 forces_component_raw{ase}  cell{ase}" pbc="T T T"
O        0.00000000       0.00000000       0.00000000       0.77779186      -1.45813299       2.74276591
H        0.00000000       0.00000000       0.00000000      -0.94509495       1.08442378      -1.79078734
H        0.00000000       0.00000000       0.00000000       0.85882080       1.10674525      -0.19550785
O        0.00000000       0.00000000       0.00000000      -0.21621466      -2.30477500      -0.92688364
H        0.00000000       0.00000000       0.00000000       0.38598171       0.17232922       0.66228676
H        0.00000000       0.00000000       0.00000000       0.22726673       1.10054946      -0.23672122
H        0.00000000       0.00000000       0.00000000      -1.08855140       0.29886022      -0.25515270
7
Lattice="529.1772105638412 0.0 0.0 0.0 529.1772105638412 0.0 0.0 0.0 529.1772105638412" Properties=species:S:1:pos:R:3:forces_component_raw:R:3 ipi_comment="Step:        1760  Bead:       0 forces_component_raw{ase}  cell{ase}" pbc="T T T"
O        0.00000000       0.00000000       0.00000000       0.62397957      -0.12263903       1.07251454
H        0.00000000       0.00000000       0.00000000      -0.38984826       0.17024988      -0.69675648
H        0.00000000       0.00000000       0.00000000      -0.11529380      -0.12235582      -0.21248829
O        0.00000000       0.00000000       0.00000000       0.62425482      -0.58902592       0.29294503
H        0.00000000       0.00000000       0.00000000      -0.12496790       0.16972113      -0.22275998
H        0.00000000       0.00000000       0.00000000       0.14986125       0.14661539      -0.09851161
H        0.00000000       0.00000000       0.00000000      -0.76798546       0.34743452      -0.13494328
7
Lattice="529.1772105638412 0.0 0.0 0.0 529.1772105638412 0.0 0.0 0.0 529.1772105638412" Properties=species:S:1:pos:R:3:forces_component_raw:R:3 ipi_comment="Step:        1780  Bead:       0 forces_component_raw{ase}  cell{ase}" pbc="T T T"
O        0.00000000       0.00000000       0.00000000      -0.18007588       0.49623305      -1.78517259
H        0.00000000       0.00000000       0.00000000       0.26390302      -0.29498982       0.79625911
H        0.00000000       0.00000000       0.00000000      -0.57804710      -0.63113827       0.36742374
O        0.00000000       0.00000000       0.00000000       0.39988101       1.85354221       0.67186284
H        0.00000000       0.00000000       0.00000000       0.03367363      -0.08764043      -0.10505180
H        0.00000000       0.00000000       0.00000000       0.08625776      -1.38599277       0.12872502
H        0.00000000       0.00000000       0.00000000      -0.02559221       0.04998615      -0.07404634
7
Lattice="529.1772105638412 0.0 0.0 0.0 529.1772105638412 0.0 0.0 0.0 529.1772105638412" Properties=species:S:1:pos:R:3:forces_component_raw:R:3 ipi_comment="Step:        1800  Bead:       0 forces_component_raw{ase}  cell{ase}" pbc="T T T"
O        0.00000000       0.00000000       0.00000000       0.37771607       0.57230973      -2.46276022
H        0.00000000       0.00000000       0.00000000       0.07105246      -0.33292845       1.67656207
H        0.00000000       0.00000000       0.00000000      -0.85282755      -0.53394699       0.27482781
O        0.00000000       0.00000000       0.00000000      -0.42754722       1.98580003      -0.26748049
H        0.00000000       0.00000000       0.00000000       0.20575765       0.49687886       0.53899855
H        0.00000000       0.00000000       0.00000000       0.11118227      -2.11377764      -0.00351015
H        0.00000000       0.00000000       0.00000000       0.51466608      -0.07433563       0.24336252
7
Lattice="529.1772105638412 0.0 0.0 0.0 529.1772105638412 0.0 0.0 0.0 529.1772105638412" Properties=species:S:1:pos:R:3:forces_component_raw:R:3 ipi_comment="Step:        1820  Bead:       0 forces_component_raw{ase}  cell{ase}" pbc="T T T"
O        0.00000000       0.00000000       0.00000000      -0.32722047      -0.19166103      -0.99936539
H        0.00000000       0.00000000       0.00000000       0.09485377       0.09512041       0.62587488
H        0.00000000       0.00000000       0.00000000      -0.70785499      -0.30549866       0.03658244
O        0.00000000       0.00000000       0.00000000      -0.98881424       1.85552884       0.39202929
H        0.00000000       0.00000000       0.00000000       0.51977247      -0.30686346      -0.49756244
H        0.00000000       0.00000000       0.00000000       0.49582505      -1.27268791       0.08859993
H        0.00000000       0.00000000       0.00000000       0.91343868       0.12606195       0.35384157
7
Lattice="529.1772105638412 0.0 0.0 0.0 529.1772105638412 0.0 0.0 0.0 529.1772105638412" Properties=species:S:1:pos:R:3:forces_component_raw:R:3 ipi_comment="Step:        1840  Bead:       0 forces_component_raw{ase}  cell{ase}" pbc="T T T"
O        0.00000000       0.00000000       0.00000000       0.06753182       0.02968300       0.05231547
H        0.00000000       0.00000000       0.00000000      -0.03803134      -0.07653461      -0.15560806
H        0.00000000       0.00000000       0.00000000      -0.12147307      -0.05670229      -0.12743911
O        0.00000000       0.00000000       0.00000000      -0.27978474       0.27057231      -0.08692545
H        0.00000000       0.00000000       0.00000000      -0.37086675       0.18702862       0.21389598
H        0.00000000       0.00000000       0.00000000      -0.49387384       0.13076377      -0.06428824
H        0.00000000       0.00000000       0.00000000       1.23649800      -0.48481101       0.16804935
7
Lattice="529.1772105638412 0.0 0.0 0.0 529.1772105638412 0.0 0.0 0.0 529.1772105638412" Properties=species:S:1:pos:R:3:forces_component_raw:R:3 ipi_comment="Step:        1860  Bead:       0 forces_component_raw{ase}  cell{ase}" pbc="T T T"
O        0.00000000       0.00000000       0.00000000      -1.69316256       0.79688788       1.45181966
H        0.00000000       0.00000000       0.00000000       0.54269755      -0.25690109      -0.66689491
H        0.00000000       0.00000000       0.00000000       1.88496828       0.00431905       0.03548655
O        0.00000000       0.00000000       0.00000000      -1.55749917      -1.00702989      -0.69469214
H        0.00000000       0.00000000       0.00000000       0.03133688      -0.30522788      -0.17067325
H        0.00000000       0.00000000       0.00000000       0.01948324       1.16715133       0.45428568
H        0.00000000       0.00000000       0.00000000       0.77217579      -0.39919931      -0.40933138
7
Lattice="529.1772105638412 0.0 0.0 0.0 529.1772105638412 0.0 0.0 0.0 529.1772105638412" Properties=species:S:1:pos:R:3:forces_component_raw:R:3 ipi_comment="Step:        1880  Bead:       0 forces_component_raw{ase}  cell{ase}" pbc="T T T"
O        0.00000000       0.00000000       0.00000000      -1.16330147       1.40735877       1.71139503
H        0.00000000       0.00000000       0.00000000       0.22409652      -0.59682536      -1.04209161
H        0.00000000       0.00000000       0.00000000       2.01508975      -0.51791632       0.16329120
O        0.00000000       0.00000000       0.00000000      -0.95092637      -1.74273730      -0.64013392
H        0.00000000       0.00000000       0.00000000      -0.22709456       0.39269215      -0.18685687
H        0.00000000       0.00000000       0.00000000       0.16273069       0.95906830       0.20320734
H        0.00000000       0.00000000       0.00000000      -0.06059480       0.09835982      -0.20881128
7
Lattice="529.1772105638412 0.0 0.0 0.0 529.1772105638412 0.0 0.0 0.0 529.1772105638412" Properties=species:S:1:pos:R:3:forces_component_raw:R:3 ipi_comment="Step:        1900  Bead:       0 forces_component_raw{ase}  cell{ase}" pbc="T T T"
O        0.00000000       0.00000000       0.00000000      -0.49119526       0.68823183       0.82652891
H        0.00000000       0.00000000       0.00000000       0.08616963      -0.26696450      -0.63263756
H        0.00000000       0.00000000       0.00000000       0.41867989      -0.35031179      -0.07279411
O        0.00000000       0.00000000       0.00000000       0.34776735      -1.04707384      -0.93447077
H        0.00000000       0.00000000       0.00000000       0.47720045      -0.05916315       0.17290378
H        0.00000000       0.00000000       0.00000000      -0.04771358       0.98275876       0.61287218
H        0.00000000       0.00000000       0.00000000      -0.79090858       0.05252278       0.02759740
7
Lattice="529.1772105638412 0.0 0.0 0.0 529.1772105638412 0.0 0.0 0.0 529.1772105638412" Properties=species:S:1:pos:R:3:forces_component_raw:R:3 ipi_comment="Step:        1920  Bead:       0 forces_component_raw{ase}  cell{ase}" pbc="T T T"
O        0.00000000       0.00000000       0.00000000       0.16128755      -1.45866251      -0.31674182
H        0.00000000       0.00000000       0.00000000      -0.07487863       0.06654963       0.05464888
H        0.00000000       0.00000000       0.00000000      -0.85765475       0.96514726      -0.52365041
O        0.00000000       0.00000000       0.00000000       1.65238428      -0.92804975      -0.32342169
H        0.00000000       0.00000000       0.00000000       0.00851635       0.17638430       0.30595389
H        0.00000000       0.00000000       0.00000000      -0.23037678       0.92623157       0.64744568
H        0.00000000       0.00000000       0.00000000      -0.65927810       0.25239956       0.15576574
7
Lattice="529.1772105638412 0.0 0.0 0.0 529.1772105638412 0.0 0.0 0.0 529.1772105638412" Properties=species:S:1:pos:R:3:forces_component_raw:R:3 ipi_comment="Step:        1940  Bead:       0 forces_component_raw{ase}  cell{ase}" pbc="T T T"
O        0.00000000       0.00000000       0.00000000       0.91958761      -0.93861914       1.03873241
H        0.00000000       0.00000000       0.00000000      -0.01950252       0.50020295       0.51417101
H        0.00000000       0.00000000       0.00000000      -0.50943780       1.03604412      -0.76643789
O        0.00000000       0.00000000       0.00000000       0.47715050       0.39587295       0.63300204
H        0.00000000       0.00000000       0.00000000      -0.77697617      -0.78022003      -1.00157917
H        0.00000000       0.00000000       0.00000000       0.26836520      -0.45951870      -0.51102483
H        0.00000000       0.00000000       0.00000000      -0.35918689       0.24623758       0.09313631
7
Lattice="529.1772105638412 0.0 0.0 0.0 529.1772105638412 0.0 0.0 0.0 529.1772105638412" Properties=species:S:1:pos:R:3:forces_component_raw:R:3 ipi_comment="Step:        1960  Bead:       0 forces_component_raw{ase}  cell{ase}" pbc="T T T"
O        0.00000000       0.00000000       0.00000000       0.08771634      -2.69579936      -0.86732996
H        0.00000000       0.00000000       0.00000000      -0.43235773       0.67121977       0.62955314
H        0.00000000       0.00000000       0.00000000      -0.21273172       1.54621435      -0.52871889
O        0.00000000       0.00000000       0.00000000      -0.73763508       1.37162960       1.82850099
H        0.00000000       0.00000000       0.00000000      -0.12244236       0.20311347       0.43802852
H        0.00000000       0.00000000       0.00000000       1.00841916      -1.29693842      -1.85709191
H        0.00000000       0.00000000       0.00000000       0.40903127       0.20056048       0.35705781
7
Lattice="529.1772105638412 0.0 0.0 0.0 529.1772105638412 0.0 0.0 0.0 529.1772105638412" Properties=species:S:1:pos:R:3:forces_component_raw:R:3 ipi_comment="Step:        1980  Bead:       0 forces_component_raw{ase}  cell{ase}" pbc="T T T"
O        0.00000000       0.00000000       0.00000000       0.55977726      -1.15672446       1.05868674
H        0.00000000       0.00000000       0.00000000      -0.21117634       0.17374820      -0.07198530
H        0.00000000       0.00000000       0.00000000      -0.47943628       0.99597073      -0.89373589
O        0.00000000       0.00000000       0.00000000      -1.25953222       1.37625945       2.44799877
H        0.00000000       0.00000000       0.00000000       0.36766338      -0.28762159      -0.45629466
H        0.00000000       0.00000000       0.00000000       1.04926539      -1.04741061      -2.05805421
H        0.00000000       0.00000000       0.00000000      -0.02656102      -0.05422148      -0.02661577
7
Lattice="529.1772105638412 0.0 0.0 0.0 529.1772105638412 0.0 0.0 0.0 529.1772105638412" Properties=species:S:1:pos:R:3:forces_component_raw:R:3 ipi_comment="Step:        2000  Bead:       0 forces_component_raw{ase}  cell{ase}" pbc="T T T"
O        0.00000000       0.00000000       0.00000000       0.56491411       0.92591083       0.39908683
H        0.00000000       0.00000000       0.00000000      -0.07148596      -0.76639831      -0.09290826
H        0.00000000       0.00000000       0.00000000       0.18197231       0.01973128       0.34992164
O        0.00000000       0.00000000       0.00000000      -0.20553573      -1.05107332      -0.08563840
H        0.00000000       0.00000000       0.00000000       0.36713353       0.60775477       0.56340104
H        0.00000000       0.00000000       0.00000000       0.23004556      -0.27114263      -0.91647256
H        0.00000000       0.00000000       0.00000000      -1.06704402       0.53521741      -0.21739045
7
Lattice="529.1772105638412 0.0 0.0 0.0 529.1772105638412 0.0 0.0 0.0 529.1772105638412" Properties=species:S:1:pos:R:3:forces_component_raw:R:3 ipi_comment="Step:        2020  Bead:       0 forces_component_raw{ase}  cell{ase}" pbc="T T T"
O        0.00000000       0.00000000       0.00000000       0.57027018       1.94473982      -0.80592972
H        0.00000000       0.00000000       0.00000000      -0.18436275      -0.81595004       0.16575827
H        0.00000000       0.00000000       0.00000000       0.31376824      -0.68724489       1.30529559
O        0.00000000       0.00000000       0.00000000       0.37684423      -0.51952267      -0.53071320
H        0.00000000       0.00000000       0.00000000      -0.14770144      -0.26287946      -0.21140447
H        0.00000000       0.00000000       0.00000000       0.08252001      -0.15093276       0.10748553
H        0.00000000       0.00000000       0.00000000      -1.01133859       0.49179018      -0.03049186
7
Lattice="529.1772105638412 0.0 0.0 0.0 529.1772105638412 0.0 0.0 0.0 529.1772105638412" Properties=species:S:1:pos:R:3:forces_component_raw:R:3 ipi_comment="Step:        2040  Bead:       0 forces_component_raw{ase}  cell{ase}" pbc="T T T"
O        0.00000000       0.00000000       0.00000000       0.12141043       0.68488866      -1.19117487
H        0.00000000       0.00000000       0.00000000      -0.24267170      -0.31639087       0.04176576
H        0.00000000       0.00000000       0.00000000       0.04334211      -0.42423570       1.28500414
O        0.00000000       0.00000000       0.00000000       1.25059653      -0.55410862      -0.92366457
H        0.00000000       0.00000000       0.00000000       0.10877359       0.03079277      -0.28428885
H        0.00000000       0.00000000       0.00000000      -0.69783414       0.21679223       1.18968416
H        0.00000000       0.00000000       0.00000000      -0.58361697       0.36226171      -0.11732543
7
Lattice="529.1772105638412 0.0 0.0 0.0 529.1772105638412 0.0 0.0 0.0 529.1772105638412" Properties=species:S:1:pos:R:3:forces_component_raw:R:3 ipi_comment="Step:        2060  Bead:       0 forces_component_raw{ase}  cell{ase}" pbc="T T T"
O        0.00000000       0.00000000       0.00000000      -0.41727889      -0.12035012      -0.33306164
H        0.00000000       0.00000000       0.00000000      -0.05556892       0.02668035      -0.05795242
H        0.00000000       0.00000000       0.00000000       0.00111513      -0.04849803       0.10934889
O        0.00000000       0.00000000       0.00000000       1.03355313      -0.14853931      -0.76587761
H        0.00000000       0.00000000       0.00000000       0.13240486      -0.09204531      -0.07912318
H        0.00000000       0.00000000       0.00000000      -0.98367632       0.51807010       1.27422858
H        0.00000000       0.00000000       0.00000000       0.28945088      -0.13531768      -0.14756253
7
Lattice="529.1772105638412 0.0 0.0 0.0 529.1772105638412 0.0 0.0 0.0 529.1772105638412" Properties=species:S:1:pos:R:3:forces_component_raw:R:3 ipi_comment="Step:        2080  Bead:       0 forces_component_raw{ase}  cell{ase}" pbc="T T T"
O        0.00000000       0.00000000       0.00000000      -1.07669389      -1.21450043       0.20667666
H        0.00000000       0.00000000       0.00000000       0.34266788       0.74490053       0.10332376
H        0.00000000       0.00000000       0.00000000       0.31320587       0.32894111      -0.59649015
O        0.00000000       0.00000000       0.00000000      -0.40942773       0.37347341      -1.54838908
H        0.00000000       0.00000000       0.00000000       0.23252721      -0.02383912       0.00648990
H        0.00000000       0.00000000       0.00000000      -0.32884005       0.37510184       1.46352804
H        0.00000000       0.00000000       0.00000000       0.92656052      -0.58407724       0.36486083
7
Lattice="529.1772105638412 0.0 0.0 0.0 529.1772105638412 0.0 0.0 0.0 529.1772105638412" Properties=species:S:1:pos:R:3:forces_component_raw:R:3 ipi_comment="Step:        2100  Bead:       0 forces_component_raw{ase}  cell{ase}" pbc="T T T"
O        0.00000000       0.00000000       0.00000000      -0.71532655      -1.88120246       1.15122402
H        0.00000000       0.00000000       0.00000000       0.91581005       1.77999890      -0.27987737
H        0.00000000       0.00000000       0.00000000       0.04845306       0.03841127      -0.74095178
O        0.00000000       0.00000000       0.00000000      -0.73731369       0.53431547      -0.85031563
H        0.00000000       0.00000000       0.00000000      -0.39378178       0.10917816      -0.11314501
H        0.00000000       0.00000000       0.00000000      -0.52181739       0.38378912       0.90259826
H        0.00000000       0.00000000       0.00000000       1.40397609      -0.96449030      -0.06953257
7
Lattice="529.1772105638412 0.0 0.0 0.0 529.1772105638412 0.0 0.0 0.0 529.1772105638412" Properties=species:S:1:pos:R:3:forces_component_raw:R:3 ipi_comment="Step:        2120  Bead:       0 forces_component_raw{ase}  cell{ase}" pbc="T T T"
O        0.00000000       0.00000000       0.00000000      -0.32868978      -1.02282858       1.06428147
H        0.00000000       0.00000000       0.00000000       0.50104892       1.01686764       0.13455743
H        0.00000000       0.00000000       0.00000000       0.16582909       0.32575727      -0.70432407
O        0.00000000       0.00000000       0.00000000      -1.28240347       0.60916966      -0.70827186
H        0.00000000       0.00000000       0.00000000       0.33993310      -0.43624359      -0.42105922
H        0.00000000       0.00000000       0.00000000       0.02437288       0.14464945       0.63868976
H        0.00000000       0.00000000       0.00000000       0.57990933      -0.63737208      -0.00387353
7
Lattice="529.1772105638412 0.0 0.0 0.0 529.1772105638412 0.0 0.0 0.0 529.1772105638412" Properties=species:S:1:pos:R:3:forces_component_raw:R:3 ipi_comment="Step:        2140  Bead:       0 forces_component_raw{ase}  cell{ase}" pbc="T T T"
O        0.00000000       0.00000000       0.00000000       0.47594151      -0.05586833       0.94163752
H        0.00000000       0.00000000       0.00000000      -0.00366297      -0.06388485       0.05974703
H        0.00000000       0.00000000       0.00000000      -0.05822177       0.21543482      -0.71332216
O        0.00000000       0.00000000       0.00000000      -0.02990007      -0.81650829      -0.11607265
H        0.00000000       0.00000000       0.00000000       0.08557153       0.57260645       0.66388160
H        0.00000000       0.00000000       0.00000000      -0.24849492      -0.13027522      -0.64419580
H        0.00000000       0.00000000       0.00000000      -0.22123319       0.27849531      -0.19167548
7
Lattice="529.1772105638412 0.0 0.0 0.0 529.1772105638412 0.0 0.0 0.0 529.1772105638412" Properties=species:S:1:pos:R:3:forces_component_raw:R:3 ipi_comment="Step:        2160  Bead:       0 forces_component_raw{ase}  cell{ase}" pbc="T T T"
O        0.00000000       0.00000000       0.00000000       0.54918397       1.07112026       0.30602193
H        0.00000000       0.00000000       0.00000000      -0.49435556      -1.18577266      -0.01206045
H        0.00000000       0.00000000       0.00000000      -0.13727966       0.13596711      -0.17362821
O        0.00000000       0.00000000       0.00000000       0.61710990      -0.37121880       0.84192670
H        0.00000000       0.00000000       0.00000000       0.22201218      -0.15789634      -0.41988748
H        0.00000000       0.00000000       0.00000000       0.43036431      -0.35035160      -0.31479216
H        0.00000000       0.00000000       0.00000000      -1.18703521       0.85815150      -0.22758007
7
Lattice="529.1772105638412 0.0 0.0 0.0 529.1772105638412 0.0 0.0 0.0 529.1772105638412" Properties=species:S:1:pos:R:3:forces_component_raw:R:3 ipi_comment="Step:        2180  Bead:       0 forces_component_raw{ase}  cell{ase}" pbc="T T T"
O        0.00000000       0.00000000       0.00000000      -0.06442198       1.32277239      -1.31611276
H        0.00000000       0.00000000       0.00000000      -0.33025083      -1.24111796       0.18635561
H        0.00000000       0.00000000       0.00000000       0.06617153      -0.16391337       0.68091327
O        0.00000000       0.00000000       0.00000000       0.96717549      -0.18868583       1.04695511
H        0.00000000       0.00000000       0.00000000      -0.13563748       0.05207539       0.17982754
H        0.00000000       0.00000000       0.00000000       0.29080427      -0.60615820      -0.57668424
H        0.00000000       0.00000000       0.00000000      -0.79384101       0.82502741      -0.20125455
7
Lattice="529.1772105638412 0.0 0.0 0.0 529.1772105638412 0.0 0.0 0.0 529.1772105638412" Properties=species:S:1:pos:R:3:forces_component_raw:R:3 ipi_comment="Step:        2200  Bead:       0 forces_component_raw{ase}  cell{ase}" pbc="T T T"
O        0.00000000       0.00000000       0.00000000       0.15709227       1.25590825      -0.89575577
H        0.00000000       0.00000000       0.00000000      -0.41221139      -0.66923493      -0.44867972
H        0.00000000       0.00000000       0.00000000      -0.10341397      -0.73389852       1.03224683
O        0.00000000       0.00000000       0.00000000       0.61438656       0.70050126       1.55037189
H        0.00000000       0.00000000       0.00000000       0.10622080      -0.11336643       0.04060651
H        0.00000000       0.00000000       0.00000000       0.14906928      -0.80846334      -0.80651117
H        0.00000000       0.00000000       0.00000000      -0.51114351       0.36855370      -0.47227869
7
Lattice="529.1772105638412 0.0 0.0 0.0 529.1772105638412 0.0 0.0 0.0 529.1772105638412" Properties=species:S:1:pos:R:3:forces_component_raw:R:3 ipi_comment="Step:        2220  Bead:       0 forces_component_raw{ase}  cell{ase}" pbc="T T T"
O        0.00000000       0.00000000       0.00000000      -0.36404985      -0.52423239      -0.75089163
H        0.00000000       0.00000000       0.00000000       0.01472903       0.25469661       0.20676988
H        0.00000000       0.00000000       0.00000000       0.18919000       0.12430617       0.55826008
O        0.00000000       0.00000000       0.00000000      -0.26429537      -0.00045893       0.01738584
H        0.00000000       0.00000000       0.00000000       0.22967801       0.18917990       0.05539499
H        0.00000000       0.00000000       0.00000000       0.18369925      -0.32266969      -0.11129451
H        0.00000000       0.00000000       0.00000000       0.01104900       0.27917844       0.02437520
7
Lattice="529.1772105638412 0.0 0.0 0.0 529.1772105638412 0.0 0.0 0.0 529.1772105638412" Properties=species:S:1:pos:R:3:forces_component_raw:R:3 ipi_comment="Step:        2240  Bead:       0 forces_component_raw{ase}  cell{ase}" pbc="T T T"
O        0.00000000       0.00000000       0.00000000       0.30230522       0.62526149       0.44969922
H        0.00000000       0.00000000       0.00000000       0.27642670       0.06510186      -0.16420001
H        0.00000000       0.00000000       0.00000000      -0.07464010      -0.27291730      -0.20289433
O        0.00000000       0.00000000       0.00000000      -0.08188128      -0.32578766      -1.18980062
H        0.00000000       0.00000000       0.00000000      -0.50585145      -0.54688817       0.22031255
H        0.00000000       0.00000000       0.00000000      -0.18308233       1.09454370       0.43936610
H        0.00000000       0.00000000       0.00000000       0.26672328      -0.63931394       0.44751704
7
Lattice="529.1772105638412 0.0 0.0 0.0 529.1772105638412 0.0 0.0 0.0 529.1772105638412" Properties=species:S:1:pos:R:3:forces_component_raw:R:3 ipi_comment="Step:        2260  Bead:       0 forces_component_raw{ase}  cell{ase}" pbc="T T T"
O        0.00000000       0.00000000       0.00000000      -0.90906275      -0.63486040       0.00789750
H        0.00000000       0.00000000       0.00000000       0.24033783       0.45521361       0.08640634
H        0.00000000       0.00000000       0.00000000       0.41854501       0.09537171       0.31228727
O        0.00000000       0.00000000       0.00000000      -0.43797761      -1.05445063      -1.21546400
H        0.00000000       0.00000000       0.00000000       0.74137271       0.49998599      -0.16104390
H        0.00000000       0.00000000       0.00000000      -0.35422257       1.56168819       0.27623463
H        0.00000000       0.00000000       0.00000000       0.30100748      -0.92294836       0.69368243
7
Lattice="529.1772105638412 0.0 0.0 0.0 529.1772105638412 0.0 0.0 0.0 529.1772105638412" Properties=species:S:1:pos:R:3:forces_component_raw:R:3 ipi_comment="Step:        2280  Bead:       0 forces_component_raw{ase}  cell{ase}" pbc="T T T"
O        0.00000000       0.00000000       0.00000000       0.27664882      -0.25841808       0.67281342
H        0.00000000       0.00000000       0.00000000       0.56824899       0.79716385      -0.27045864
H        0.00000000       0.00000000       0.00000000      -0.42447049      -0.28370458      -0.80440802
O        0.00000000       0.00000000       0.00000000       0.67170388      -0.80636716      -2.02855397
H        0.00000000       0.00000000       0.00000000      -0.88005257      -0.52188784       0.41668820
H        0.00000000       0.00000000       0.00000000      -0.03408977       1.44991541       1.25784576
H        0.00000000       0.00000000       0.00000000      -0.17798877      -0.37670180       0.75607300
7
Lattice="529.1772105638412 0.0 0.0 0.0 529.1772105638412 0.0 0.0 0.0 529.1772105638412" Properties=species:S:1:pos:R:3:forces_component_raw:R:3 ipi_comment="Step:        2300  Bead:       0 forces_component_raw{ase}  cell{ase}" pbc="T T T"
O        0.00000000       0.00000000       0.00000000      -1.99018860      -2.18274308       0.13056529
H        0.00000000       0.00000000       0.00000000       0.98393387       1.37192524       0.11762790
H        0.00000000       0.00000000       0.00000000       0.39491716       0.50894076      -0.37334728
O        0.00000000       0.00000000       0.00000000       0.11790741      -1.57703936       0.41501296
H        0.00000000       0.00000000       0.00000000       0.34961471       0.39860252      -0.47967959
H        0.00000000       0.00000000       0.00000000       0.14498109       1.66641295       0.38204116
H        0.00000000       0.00000000       0.00000000      -0.00116554      -0.18609941      -0.19222057
7
Lattice="529.1772105638412 0.0 0.0 0.0 529.1772105638412 0.0 0.0 0.0 529.1772105638412" Properties=species:S:1:pos:R:3:forces_component_raw:R:3 ipi_comment="Step:        2320  Bead:       0 forces_component_raw{ase}  cell{ase}" pbc="T T T"
O        0.00000000       0.00000000       0.00000000       0.12822658      -0.08143222      -0.01937699
H        0.00000000       0.00000000       0.00000000       0.48768780       0.48707020      -0.44245970
H        0.00000000       0.00000000       0.00000000      -0.53232032      -0.34567309       0.17135811
O        0.00000000       0.00000000       0.00000000      -0.43767980      -0.64469886      -0.30483395
H        0.00000000       0.00000000       0.00000000      -0.06322755      -0.24649371       0.33333057
H        0.00000000       0.00000000       0.00000000       0.43245256       0.58399344       0.39225805
H        0.00000000       0.00000000       0.00000000      -0.01513913       0.24723417      -0.13027620
7
Lattice="529.1772105638412 0.0 0.0 0.0 529.1772105638412 0.0 0.0 0.0 529.1772105638412" Properties=species:S:1:pos:R:3:forces_component_raw:R:3 ipi_comment="Step:        2340  Bead:       0 forces_component_raw{ase}  cell{ase}" pbc="T T T"
O        0.00000000       0.00000000       0.00000000       0.47680831       0.13918078      -0.24076873
H        0.00000000       0.00000000       0.00000000      -0.39498109      -0.34998310       0.13673568
H        0.00000000       0.00000000       0.00000000       0.09984231       0.20916352       0.79740334
O        0.00000000       0.00000000       0.00000000       0.16260713       1.05816698       0.00961119
H        0.00000000       0.00000000       0.00000000       0.01285730       0.11366192      -0.49507031
H        0.00000000       0.00000000       0.00000000      -0.44732186      -0.91070044      -0.33815253
H        0.00000000       0.00000000       0.00000000       0.09018767      -0.25948966       0.13024151
7
Lattice="529.1772105638412 0.0 0.0 0.0 529.1772105638412 0.0 0.0 0.0 529.1772105638412" Properties=species:S:1:pos:R:3:forces_component_raw:R:3 ipi_comment="Step:        2360  Bead:       0 forces_component_raw{ase}  cell{ase}" pbc="T T T"
O        0.00000000       0.00000000       0.00000000       0.83269710       1.05728817      -0.31263048
H        0.00000000       0.00000000       0.00000000      -0.11553849      -0.65045178      -0.40757206
H        0.00000000       0.00000000       0.00000000      -0.55254227      -0.28631157       0.83303040
O        0.00000000       0.00000000       0.00000000       0.16408718       2.77514220      -0.98726595
H        0.00000000       0.00000000       0.00000000       0.09099217       0.01838583       0.41565442
H        0.00000000       0.00000000       0.00000000      -1.04060066      -2.81835127       0.00867806
H        0.00000000       0.00000000       0.00000000       0.62090498      -0.09570164       0.45010573
7
Lattice="529.1772105638412 0.0 0.0 0.0 529.1772105638412 0.0 0.0 0.0 529.1772105638412" Properties=species:S:1:pos:R:3:forces_component_raw:R:3 ipi_comment="Step:        2380  Bead:       0 forces_component_raw{ase}  cell{ase}" pbc="T T T"
O        0.00000000       0.00000000       0.00000000       0.83831686       0.35904491      -1.08393729
H        0.00000000       0.00000000       0.00000000      -0.45555830      -0.41222614       0.22639102
H        0.00000000       0.00000000       0.00000000      -0.19223428       0.15464801       1.15400315
O        0.00000000       0.00000000       0.00000000       1.02495229       3.03566361      -0.72343117
H        0.00000000       0.00000000       0.00000000      -0.04149397       0.03066641      -0.04545191
H        0.00000000       0.00000000       0.00000000      -1.53091789      -2.48753834       0.02905807
H        0.00000000       0.00000000       0.00000000       0.35693514      -0.68025822       0.44336838
7
Lattice="529.1772105638412 0.0 0.0 0.0 529.1772105638412 0.0 0.0 0.0 529.1772105638412" Properties=species:S:1:pos:R:3:forces_component_raw:R:3 ipi_comment="Step:        2400  Bead:       0 forces_component_raw{ase}  cell{ase}" pbc="T T T"
O        0.00000000       0.00000000       0.00000000       0.51806152       0.54489350      -0.20659524
H        0.00000000       0.00000000       0.00000000      -0.46342236      -0.35133094      -0.05579733
H        0.00000000       0.00000000       0.00000000      -0.18706188      -0.04280925       0.46256375
O        0.00000000       0.00000000       0.00000000      -0.16854262       1.63924480      -0.16534984
H        0.00000000       0.00000000       0.00000000       0.30405754      -0.44991285      -0.38838947
H        0.00000000       0.00000000       0.00000000      -0.48739088      -1.32318282       0.27009988
H        0.00000000       0.00000000       0.00000000       0.48429829      -0.01690263       0.08346817
7
Lattice="529.1772105638412 0.0 0.0 0.0 529.1772105638412 0.0 0.0 0.0 529.1772105638412" Properties=species:S:1:pos:R:3:forces_component_raw:R:3 ipi_comment="Step:        2420  Bead:       0 forces_component_raw{ase}  cell{ase}" pbc="T T T"
O        0.00000000       0.00000000       0.00000000      -0.36602026      -0.30052021      -0.33994520
H        0.00000000       0.00000000       0.00000000       0.52322227       0.28561461       0.22521058
H        0.00000000       0.00000000       0.00000000      -0.03381924       0.04226924      -0.08347571
O        0.00000000       0.00000000       0.00000000       0.14478099      -1.17469502       0.32192957
H        0.00000000       0.00000000       0.00000000      -0.04885238       0.30083308       0.14970997
H        0.00000000       0.00000000       0.00000000       0.14789528       0.41004276      -0.20055293
H        0.00000000       0.00000000       0.00000000      -0.36720646       0.43645543      -0.07287622
7
Lattice="529.1772105638412 0.0 0.0 0.0 529.1772105638412 0.0 0.0 0.0 529.1772105638412" Properties=species:S:1:pos:R:3:forces_component_raw:R:3 ipi_comment="Step:        2440  Bead:       0 forces_component_raw{ase}  cell{ase}" pbc="T T T"
O        0.00000000       0.00000000       0.00000000       0.24017349       0.04639441       0.63195259
H        0.00000000       0.00000000       0.00000000       0.28436601       0.15973207      -0.28234270
H        0.00000000       0.00000000       0.00000000      -0.43385416      -0.20990688      -0.51826704
O        0.00000000       0.00000000       0.00000000       0.15889311      -1.43009389       0.46767068
H        0.00000000       0.00000000       0.00000000      -0.17344594      -0.12978822       0.08561160
H        0.00000000       0.00000000       0.00000000       0.56704164       0.23580200       0.08993754
H        0.00000000       0.00000000       0.00000000      -0.64317405       1.32786060      -0.47456253
7
Lattice="529.1772105638412 0.0 0.0 0.0 529.1772105638412 0.0 0.0 0.0 529.1772105638412" Properties=species:S:1:pos:R:3:forces_component_raw:R:3 ipi_comment="Step:        2460  Bead:       0 forces_component_raw{ase}  cell{ase}" pbc="T T T"
O        0.00000000       0.00000000       0.00000000      -0.83714283      -0.65402419       0.84473765
H        0.00000000       0.00000000       0.00000000       0.17813396      -0.13084707       0.01884767
H        0.00000000       0.00000000       0.00000000       0.43396232       0.54236531      -0.75176144
O        0.00000000       0.00000000       0.00000000      -0.04583406      -1.36023295       0.77355892
H        0.00000000       0.00000000       0.00000000       0.22843203       0.15334433      -0.20030487
H        0.00000000       0.00000000       0.00000000       0.56905794       0.32152438      -0.08467588
H        0.00000000       0.00000000       0.00000000      -0.52660930       1.12787032      -0.60040218
7
Lattice="529.1772105638412 0.0 0.0 0.0 529.1772105638412 0.0 0.0 0.0 529.1772105638412" Properties=species:S:1:pos:R:3:forces_component_raw:R:3 ipi_comment="Step:        2480  Bead:       0 forces_component_raw{ase}  cell{ase}" pbc="T T T"
O        0.00000000       0.00000000       0.00000000       1.03289342      -0.30024254       0.08283301
H        0.00000000       0.00000000       0.00000000      -0.56319034       0.27505720      -0.42811877
H        0.00000000       0.00000000       0.00000000      -0.43138075      -0.07177162       0.26627976
O        0.00000000       0.00000000       0.00000000      -0.45664144      -0.25200021       0.03078365
H        0.00000000       0.00000000       0.00000000      -0.29815251      -0.00070053       0.20130788
H        0.00000000       0.00000000       0.00000000       0.76681185       0.47773987      -0.18804500
H        0.00000000       0.00000000       0.00000000      -0.05034027      -0.12808251       0.03495932
7
Lattice="529.1772105638412 0.0 0.0 0.0 529.1772105638412 0.0 0.0 0.0 529.1772105638412" Properties=species:S:1:pos:R:3:forces_component_raw:R:3 ipi_comment="Step:        2500  Bead:       0 forces_component_raw{ase}  cell{ase}" pbc="T T T"
O        0.00000000       0.00000000       0.00000000       0.06085593       0.49998379      -1.35897923
H        0.00000000       0.00000000       0.00000000      -0.68894482      -0.13109094       0.40384239
H        0.00000000       0.00000000       0.00000000       0.36407927      -0.45385945       0.92471278
O        0.00000000       0.00000000       0.00000000      -1.43990064       0.23031104      -0.87582779
H        0.00000000       0.00000000       0.00000000       0.36082882       0.05156522      -0.01591559
H        0.00000000       0.00000000       0.00000000       0.92968917       0.48430029      -0.47752297
H        0.00000000       0.00000000       0.00000000       0.41339225      -0.68121004       1.39969027
7
Lattice="529.1772105638412 0.0 0.0 0.0 529.1772105638412 0.0 0.0 0.0 529.1772105638412" Properties=species:S:1:pos:R:3:forces_component_raw:R:3 ipi_comment="Step:        2520  Bead:       0 forces_component_raw{ase}  cell{ase}" pbc="T T T"
O        0.00000000       0.00000000       0.00000000       1.67040229       0.73790193      -0.61868620
H        0.00000000       0.00000000       0.00000000      -0.33843476       0.35981527      -0.08670136
H        0.00000000       0.00000000       0.00000000      -0.74657440      -0.58150357       1.10529840
O        0.00000000       0.00000000       0.00000000      -1.12950588       0.25899845      -1.98046220
H        0.00000000       0.00000000       0.00000000      -0.35360503      -0.54390228      -0.25930268
H        0.00000000       0.00000000       0.00000000       0.68019724       0.33485070      -0.32898659
H        0.00000000       0.00000000       0.00000000       0.21752024      -0.56616068       2.16884017
7
Lattice="529.1772105638412 0.0 0.0 0.0 529.1772105638412 0.0 0.0 0.0 529.1772105638412" Properties=species:S:1:pos:R:3:forces_component_raw:R:3 ipi_comment="Step:        2540  Bead:       0 forces_component_raw{ase}  cell{ase}" pbc="T T T"
O        0.00000000       0.00000000       0.00000000       0.74591762       0.39691007      -1.98200739
H        0.00000000       0.00000000       0.00000000      -0.34930652       0.12835994       0.53470069
H        0.00000000       0.00000000       0.00000000      -0.14737070      -0.54413259       1.50336135
O        0.00000000       0.00000000       0.00000000      -0.09555161      -0.04905647      -2.14655638
H        0.00000000       0.00000000       0.00000000       0.17872307       0.37102121       0.28654799
H        0.00000000       0.00000000       0.00000000       0.09343207       0.10092653      -0.17678589
H        0.00000000       0.00000000       0.00000000      -0.42584416      -0.40402860       1.98073972
7
Lattice="529.1772105638412 0.0 0.0 0.0 529.1772105638412 0.0 0.0 0.0 529.1772105638412" Properties=species:S:1:pos:R:3:forces_component_raw:R:3 ipi_comment="Step:        2560  Bead:       0 forces_component_raw{ase}  cell{ase}" pbc="T T T"
O        0.00000000       0.00000000       0.00000000      -0.01901174       0.15281761      -0.32221595
H        0.00000000       0.00000000       0.00000000       0.61202991      -0.04131404      -0.58342093
H        0.00000000       0.00000000       0.00000000      -0.73990333      -0.22664321       0.96023852
O        0.00000000       0.00000000       0.00000000       2.15149808       0.80216026      -1.27181375
H        0.00000000       0.00000000       0.00000000      -0.04940927       0.19562784      -0.20438820
H        0.00000000       0.00000000       0.00000000      -1.10427475      -0.32450962      -0.06618828
H        0.00000000       0.00000000       0.00000000      -0.85092855      -0.55813867       1.48778856
7
Lattice="529.1772105638412 0.0 0.0 0.0 529.1772105638412 0.0 0.0 0.0 529.1772105638412" Properties=species:S:1:pos:R:3:forces_component_raw:R:3 ipi_comment="Step:        2580  Bead:       0 forces_component_raw{ase}  cell{ase}" pbc="T T T"
O        0.00000000       0.00000000       0.00000000      -1.57532931      -0.11361247      -1.37823820
H        0.00000000       0.00000000       0.00000000       1.09698832       0.05312813       0.27378559
H        0.00000000       0.00000000       0.00000000       0.11037841       0.06706614       1.01316881
O        0.00000000       0.00000000       0.00000000       2.74299694       0.89722705      -0.72347480
H        0.00000000       0.00000000       0.00000000       0.00493436      -0.22746919       0.18946956
H        0.00000000       0.00000000       0.00000000      -1.88390565      -0.33278138       0.01989064
H        0.00000000       0.00000000       0.00000000      -0.49606311      -0.34355837       0.60539842
7
Lattice="529.1772105638412 0.0 0.0 0.0 529.1772105638412 0.0 0.0 0.0 529.1772105638412" Properties=species:S:1:pos:R:3:forces_component_raw:R:3 ipi_comment="Step:        2600  Bead:       0 forces_component_raw{ase}  cell{ase}" pbc="T T T"
O        0.00000000       0.00000000       0.00000000      -0.90989697       0.13499194       0.56268621
H        0.00000000       0.00000000       0.00000000       1.31465626       0.00405442      -0.59858346
H        0.00000000       0.00000000       0.00000000      -0.58059502      -0.15344355       0.02894378
O        0.00000000       0.00000000       0.00000000       1.03173626      -0.06020534       0.75316119
H        0.00000000       0.00000000       0.00000000       0.10416865      -0.03274164      -0.45324952
H        0.00000000       0.00000000       0.00000000      -1.22224093      -0.14290395       0.14783791
H        0.00000000       0.00000000       0.00000000       0.26217169       0.25024831      -0.44079614
7
Lattice="529.1772105638412 0.0 0.0 0.0 529.1772105638412 0.0 0.0 0.0 529.1772105638412" Properties=species:S:1:pos:R:3:forces_component_raw:R:3 ipi_comment="Step:        2620  Bead:       0 forces_component_raw{ase}  cell{ase}" pbc="T T T"
O        0.00000000       0.00000000       0.00000000      -1.08464051      -0.24935731      -0.08926660
H        0.00000000       0.00000000       0.00000000       0.66524941       0.28357074       0.53584337
H        0.00000000       0.00000000       0.00000000       0.73054075      -0.20876421      -0.83435595
O        0.00000000       0.00000000       0.00000000      -0.03771430      -0.89536149       3.12957144
H        0.00000000       0.00000000       0.00000000      -0.24188076       0.45122004       0.40239257
H        0.00000000       0.00000000       0.00000000      -0.25832617      -0.03254199      -0.20508120
H        0.00000000       0.00000000       0.00000000       0.22677147       0.65123439      -2.93910361
7
Lattice="529.1772105638412 0.0 0.0 0.0 529.1772105638412 0.0 0.0 0.0 529.1772105638412" Properties=species:S:1:pos:R:3:forces_component_raw:R:3 ipi_comment="Step:        2640  Bead:       0 forces_component_raw{ase}  cell{ase}" pbc="T T T"
O        0.00000000       0.00000000       0.00000000       0.18454841       0.72255957       1.51612878
H        0.00000000       0.00000000       0.00000000      -0.73544854      -0.35808063      -0.51342040
H        0.00000000       0.00000000       0.00000000       0.36259720      -0.37763214      -1.35482014
O        0.00000000       0.00000000       0.00000000      -1.01688647      -0.14777136       3.78091455
H        0.00000000       0.00000000       0.00000000       0.28734836      -0.36390019       0.07827604
H        0.00000000       0.00000000       0.00000000       0.51713455      -0.43080664      -0.08498567
H        0.00000000       0.00000000       0.00000000       0.40070668       0.95563150      -3.42209268
7
Lattice="529.1772105638412 0.0 0.0 0.0 529.1772105638412 0.0 0.0 0.0 529.1772105638412" Properties=species:S:1:pos:R:3:forces_component_raw:R:3 ipi_comment="Step:        2660  Bead:       0 forces_component_raw{ase}  cell{ase}" pbc="T T T"
O        0.00000000       0.00000000       0.00000000       0.93522436       0.37417686      -0.14258552
H        0.00000000       0.00000000       0.00000000      -2.05563999      -0.73823625       0.25977969
H        0.00000000       0.00000000       0.00000000       0.87959290       0.18628180      -0.41508329
O        0.00000000       0.00000000       0.00000000      -0.86078942      -0.76005769       2.28943301
H        0.00000000       0.00000000       0.00000000      -0.10263284      -0.02094048       0.50611138
H        0.00000000       0.00000000       0.00000000       1.14528787       0.24201423      -0.21638319
H        0.00000000       0.00000000       0.00000000       0.05895683       0.71676159      -2.28127170
7
Lattice="529.1772105638412 0.0 0.0 0.0 529.1772105638412 0.0 0.0 0.0 529.1772105638412" Properties=species:S:1:pos:R:3:forces_component_raw:R:3 ipi_comment="Step:        2680  Bead:       0 forces_component_raw{ase}  cell{ase}" pbc="T T T"
O        0.00000000       0.00000000       0.00000000       1.89979673       0.94957996       0.12838388
H        0.00000000       0.00000000       0.00000000      -1.81226314      -1.16047073      -0.46427083
H        0.00000000       0.00000000       0.00000000      -0.29675400      -0.03371041       0.49577046
O        0.00000000       0.00000000       0.00000000      -0.69369173      -0.81177819       0.33618191
H        0.00000000       0.00000000       0.00000000      -0.13244364       0.36821345      -0.29582194
H        0.00000000       0.00000000       0.00000000       0.94066501       0.42454413       0.17817023
H        0.00000000       0.00000000       0.00000000       0.09469089       0.26362181      -0.37841368
7
Lattice="529.1772105638412 0.0 0.0 0.0 529.1772105638412 0.0 0.0 0.0 529.1772105638412" Properties=species:S:1:pos:R:3:forces_component_raw:R:3 ipi_comment="Step:        2700  Bead:       0 forces_component_raw{ase}  cell{ase}" pbc="T T T"
O        0.00000000       0.00000000       0.00000000       0.80872274       0.61961818      -0.79891569
H        0.00000000       0.00000000       0.00000000      -0.81792510      -0.37074450       0.22090511
H        0.00000000       0.00000000       0.00000000      -0.00859302       0.04607777       0.91511876
O        0.00000000       0.00000000       0.00000000       0.19630814       1.73789180      -1.88429606
H        0.00000000       0.00000000       0.00000000       0.21523976      -0.41457486       0.12800610
H        0.00000000       0.00000000       0.00000000      -0.52063263      -0.23177934       0.14205328
H        0.00000000       0.00000000       0.00000000       0.12687993      -1.38648892       1.27712846
7
Lattice="529.1772105638412 0.0 0.0 0.0 529.1772105638412 0.0 0.0 0.0 529.1772105638412" Properties=species:S:1:pos:R:3:forces_component_raw:R:3 ipi_comment="Step:        2720  Bead:       0 forces_component_raw{ase}  cell{ase}" pbc="T T T"
O        0.00000000       0.00000000       0.00000000       0.29642069       0.26176846      -0.79701430
H        0.00000000       0.00000000       0.00000000       0.45386744       0.24243091       0.03922859
H        0.00000000       0.00000000       0.00000000      -0.14175513      -0.13228422       1.21860326
O        0.00000000       0.00000000       0.00000000      -1.76004219       1.57617927      -2.24279571
H        0.00000000       0.00000000       0.00000000      -0.12113702       0.34592372      -0.23247269
H        0.00000000       0.00000000       0.00000000      -0.51102030      -0.90652567       0.26017678
H        0.00000000       0.00000000       0.00000000       1.78366638      -1.38749254       1.75427413
7
Lattice="529.1772105638412 0.0 0.0 0.0 529.1772105638412 0.0 0.0 0.0 529.1772105638412" Properties=species:S:1:pos:R:3:forces_component_raw:R:3 ipi_comment="Step:        2740  Bead:       0 forces_component_raw{ase}  cell{ase}" pbc="T T T"
O        0.00000000       0.00000000       0.00000000      -1.60480702       0.43953014      -0.37255240
H        0.00000000       0.00000000       0.00000000       2.38486243      -0.03748247      -0.67047644
H        0.00000000       0.00000000       0.00000000      -0.37802309      -0.12985647       1.02661121
O        0.00000000       0.00000000       0.00000000      -1.07019043       2.75397111      -1.73009181
H        0.00000000       0.00000000       0.00000000       0.09941068      -0.39321241       0.21705478
H        0.00000000       0.00000000       0.00000000      -0.78621656      -0.73571956       0.09293544
H        0.00000000       0.00000000       0.00000000       1.35496378      -1.89723039       1.43651927
7
Lattice="529.1772105638412 0.0 0.0 0.0 529.1772105638412 0.0 0.0 0.0 529.1772105638412" Properties=species:S:1:pos:R:3:forces_component_raw:R:3 ipi_comment="Step:        2760  Bead:       0 forces_component_raw{ase}  cell{ase}" pbc="T T T"
O        0.00000000       0.00000000       0.00000000      -2.40245438      -0.25805104      -0.24426973
H        0.00000000       0.00000000       0.00000000       2.02665186       0.07408723      -0.41559124
H        0.00000000       0.00000000       0.00000000       0.04151364       0.00094068       0.66732061
O        0.00000000       0.00000000       0.00000000      -2.19252396       0.34005320      -1.77913130
H        0.00000000       0.00000000       0.00000000       0.32773191      -0.01710516      -0.18562520
H        0.00000000       0.00000000       0.00000000       0.40863150       0.10230631       0.37981629
H        0.00000000       0.00000000       0.00000000       1.79044927      -0.24223116       1.57748068
7
Lattice="529.1772105638412 0.0 0.0 0.0 529.1772105638412 0.0 0.0 0.0 529.1772105638412" Properties=species:S:1:pos:R:3:forces_component_raw:R:3 ipi_comment="Step:        2780  Bead:       0 forces_component_raw{ase}  cell{ase}" pbc="T T T"
O        0.00000000       0.00000000       0.00000000      -0.18145442      -0.10878539      -0.55072904
H        0.00000000       0.00000000       0.00000000       0.65347034       0.24010444      -0.05991525
H        0.00000000       0.00000000       0.00000000      -0.18599004      -0.18490988       0.37643379
O        0.00000000       0.00000000       0.00000000       0.23391807       0.08506030       0.16327030
H        0.00000000       0.00000000       0.00000000      -0.74796564      -0.04744352      -0.12888514
H        0.00000000       0.00000000       0.00000000      -0.36007467       0.53486467      -0.57742751
H        0.00000000       0.00000000       0.00000000       0.58809626      -0.51889056       0.77725262
7
Lattice="529.1772105638412 0.0 0.0 0.0 529.1772105638412 0.0 0.0 0.0 529.1772105638412" Properties=species:S:1:pos:R:3:forces_component_raw:R:3 ipi_comment="Step:        2800  Bead:       0 forces_component_raw{ase}  cell{ase}" pbc="T T T"
O        0.00000000       0.00000000       0.00000000      -0.04527259      -0.19917434      -0.21012080
H        0.00000000       0.00000000       0.00000000      -0.47721350      -0.27724654      -0.22290388
H        0.00000000       0.00000000       0.00000000       0.01390993       0.08927462       0.03154838
O        0.00000000       0.00000000       0.00000000       0.89842326      -1.87671864       0.61647797
H        0.00000000       0.00000000       0.00000000       0.44493651       0.07206601       0.23673551
H        0.00000000       0.00000000       0.00000000      -0.07617164       1.55096865       0.30464673
H        0.00000000       0.00000000       0.00000000      -0.75861168       0.64083034      -0.75638366
7
Lattice="529.1772105638412 0.0 0.0 0.0 529.1772105638412 0.0 0.0 0.0 529.1772105638412" Properties=species:S:1:pos:R:3:forces_component_raw:R:3 ipi_comment="Step:        2820  Bead:       0 forces_component_raw{ase}  cell{ase}" pbc="T T T"
O        0.00000000       0.00000000       0.00000000       1.00741303       0.45720863      -0.23900956
H        0.00000000       0.00000000       0.00000000      -1.24351263      -0.67525578       0.09290269
H        0.00000000       0.00000000       0.00000000       0.14592564       0.08502260       0.04597545
O        0.00000000       0.00000000       0.00000000       2.48080469      -0.64635521       2.05084420
H        0.00000000       0.00000000       0.00000000      -0.16049033       0.16845781      -0.00621201
H        0.00000000       0.00000000       0.00000000      -0.52184361       0.28011906      -0.33355349
H        0.00000000       0.00000000       0.00000000      -1.70829642       0.33080292      -1.61094737
7
Lattice="529.1772105638412 0.0 0.0 0.0 529.1772105638412 0.0 0.0 0.0 529.1772105638412" Properties=species:S:1:pos:R:3:forces_component_raw:R:3 ipi_comment="Step:        2840  Bead:       0 forces_component_raw{ase}  cell{ase}" pbc="T T T"
O        0.00000000       0.00000000       0.00000000       1.53968263       1.36911321       1.64001179
H        0.00000000       0.00000000       0.00000000      -1.13967598      -0.64733553      -0.01796610
H        0.00000000       0.00000000       0.00000000       0.02291064       0.04894191      -1.01451671
O        0.00000000       0.00000000       0.00000000       1.07917929      -1.07121492       0.10489005
H        0.00000000       0.00000000       0.00000000      -0.33990347      -0.33296251      -0.21380277
H        0.00000000       0.00000000       0.00000000       0.39186668      -0.10956299       0.17526466
H        0.00000000       0.00000000       0.00000000      -1.55406010       0.74302083      -0.67388117
7
Lattice="529.1772105638412 0.0 0.0 0.0 529.1772105638412 0.0 0.0 0.0 529.1772105638412" Properties=species:S:1:pos:R:3:forces_component_raw:R:3 ipi_comment="Step:        2860  Bead:       0 forces_component_raw{ase}  cell{ase}" pbc="T T T"
O        0.00000000       0.00000000       0.00000000       0.53776634       0.26645342       0.63606584
H        0.00000000       0.00000000       0.00000000      -0.48880470      -0.38369712       0.08487437
H        0.00000000       0.00000000       0.00000000       0.07414329       0.23688272      -0.60314876
O        0.00000000       0.00000000       0.00000000      -0.84520149       0.77775479       1.14525783
H        0.00000000       0.00000000       0.00000000       0.09765226      -0.14274818       0.03393650
H        0.00000000       0.00000000       0.00000000       0.53570318      -0.40807897      -0.93549431
H        0.00000000       0.00000000       0.00000000       0.08874112      -0.34656662      -0.36149144
7
Lattice="529.1772105638412 0.0 0.0 0.0 529.1772105638412 0.0 0.0 0.0 529.1772105638412" Properties=species:S:1:pos:R:3:forces_component_raw:R:3 ipi_comment="Step:        2880  Bead:       0 forces_component_raw{ase}  cell{ase}" pbc="T T T"
O        0.00000000       0.00000000       0.00000000      -0.03382289      -0.90778524       0.48046571
H        0.00000000       0.00000000       0.00000000       0.04303312      -0.05196550      -0.08348694
H        0.00000000       0.00000000       0.00000000       0.00717190       0.44767475      -0.61311233
O        0.00000000       0.00000000       0.00000000      -1.97351623       1.49141717       0.65331257
H        0.00000000       0.00000000       0.00000000      -0.10470510       0.25454995       0.08600181
H        0.00000000       0.00000000       0.00000000       1.53591013      -0.51956475      -1.35200441
H        0.00000000       0.00000000       0.00000000       0.52592898      -0.71432656       0.82882381
7
Lattice="529.1772105638412 0.0 0.0 0.0 529.1772105638412 0.0 0.0 0.0 529.1772105638412" Properties=species:S:1:pos:R:3:forces_component_raw:R:3 ipi_comment="Step:        2900  Bead:       0 forces_component_raw{ase}  cell{ase}" pbc="T T T"
O        0.00000000       0.00000000       0.00000000       0.46623051       0.13812900      -0.42612261
H        0.00000000       0.00000000       0.00000000      -0.43712860      -0.43364433      -0.16822274
H        0.00000000       0.00000000       0.00000000      -0.05879352      -0.13802862       0.26720780
O        0.00000000       0.00000000       0.00000000      -0.96198905       1.05396366       1.76221276
H        0.00000000       0.00000000       0.00000000      -0.14949417      -0.09253027       0.16787797
H        0.00000000       0.00000000       0.00000000       0.15359652      -0.04136294      -1.17473126
H        0.00000000       0.00000000       0.00000000       0.98757810      -0.48652652      -0.42822179
7
Lattice="529.1772105638412 0.0 0.0 0.0 529.1772105638412 0.0 0.0 0.0 529.1772105638412" Properties=species:S:1:pos:R:3:forces_component_raw:R:3 ipi_comment="Step:        2920  Bead:       0 forces_component_raw{ase}  cell{ase}" pbc="T T T"
O        0.00000000       0.00000000       0.00000000       0.00261676       0.36955685      -1.33777845
H        0.00000000       0.00000000       0.00000000      -0.23021865      -0.26179501       0.16540031
H        0.00000000       0.00000000       0.00000000       0.18441981      -0.28721851       1.00776279
O        0.00000000       0.00000000       0.00000000      -1.49545563      -0.77201712      -1.04118681
H        0.00000000       0.00000000       0.00000000       0.13271377       0.49184257       0.19020776
H        0.00000000       0.00000000       0.00000000       0.51644236       0.23949230       0.31596434
H        0.00000000       0.00000000       0.00000000       0.88948131       0.22013889       0.69963014
7
Lattice="529.1772105638412 0.0 0.0 0.0 529.1772105638412 0.0 0.0 0.0 529.1772105638412" Properties=species:S:1:pos:R:3:forces_component_raw:R:3 ipi_comment="Step:        2940  Bead:       0 forces_component_raw{ase}  cell{ase}" pbc="T T T"
O        0.00000000       0.00000000       0.00000000      -0.24267459       1.38672817      -0.80675399
H        0.00000000       0.00000000       0.00000000       0.11465913       0.13582853       0.21375266
H        0.00000000       0.00000000       0.00000000       0.33226043      -0.47089270       1.27256286
O        0.00000000       0.00000000       0.00000000       0.07467192      -0.19094068      -1.37353254
H        0.00000000       0.00000000       0.00000000      -0.00119621      -0.89190835      -0.53488696
H        0.00000000       0.00000000       0.00000000      -1.33057165      -0.30468136       1.62955261
H        0.00000000       0.00000000       0.00000000       1.05285108       0.33586645      -0.40069485
7
Lattice="529.1772105638412 0.0 0.0 0.0 529.1772105638412 0.0 0.0 0.0 529.1772105638412" Properties=species:S:1:pos:R:3:forces_component_raw:R:3 ipi_comment="Step:        2960  Bead:       0 forces_component_raw{ase}  cell{ase}" pbc="T T T"
O        0.00000000       0.00000000       0.00000000      -0.45037341      -0.87857825       0.31503576
H        0.00000000       0.00000000       0.00000000       0.75128359       0.99322808      -0.58322996
H        0.00000000       0.00000000       0.00000000      -0.10853040      -0.13706896       0.62972546
O        0.00000000       0.00000000       0.00000000       1.78611935      -0.57682336      -2.99882317
H        0.00000000       0.00000000       0.00000000      -0.17874605       0.83112467       0.25586370
H        0.00000000       0.00000000       0.00000000      -1.49349284      -0.15129127       2.33536554
H        0.00000000       0.00000000       0.00000000      -0.30626023      -0.08059090       0.04606277
7
Lattice="529.1772105638412 0.0 0.0 0.0 529.1772105638412 0.0 0.0 0.0 529.1772105638412" Properties=species:S:1:pos:R:3:forces_component_raw:R:3 ipi_comment="Step:        2980  Bead:       0 forces_component_raw{ase}  cell{ase}" pbc="T T T"
O        0.00000000       0.00000000       0.00000000      -0.96917248      -0.23871875       0.41786909
H        0.00000000       0.00000000       0.00000000       0.84746850       0.95967931      -0.28950292
H        0.00000000       0.00000000       0.00000000       0.17130888      -0.07218224       0.26685321
O        0.00000000       0.00000000       0.00000000       2.18293071       1.47900319      -1.33662677
H        0.00000000       0.00000000       0.00000000       0.01499085      -0.63728786      -0.28666279
H        0.00000000       0.00000000       0.00000000      -0.84152615      -0.21928269       1.35082960
H        0.00000000       0.00000000       0.00000000      -1.40600002      -1.27121067      -0.12275967
7
Lattice="529.1772105638412 0.0 0.0 0.0 529.1772105638412 0.0 0.0 0.0 529.1772105638412" Properties=species:S:1:pos:R:3:forces_component_raw:R:3 ipi_comment="Step:        3000  Bead:       0 forces_component_raw{ase}  cell{ase}" pbc="T T T"
O        0.00000000       0.00000000       0.00000000      -0.53860104      -0.77413464       0.39056403
H        0.00000000       0.00000000       0.00000000       0.29665327       0.36770111      -0.25521067
H        0.00000000       0.00000000       0.00000000      -0.10119510       0.13389328      -0.28388894
O        0.00000000       0.00000000       0.00000000       0.39592290       0.49608362       0.35876739
H        0.00000000       0.00000000       0.00000000       0.61615008       0.22587568      -0.15235755
H        0.00000000       0.00000000       0.00000000       0.20424768       0.35977912      -0.38340223
H        0.00000000       0.00000000       0.00000000      -0.87317759      -0.80919814       0.32552773
7
Lattice="529.1772105638412 0.0 0.0 0.0 529.1772105638412 0.0 0.0 0.0 529.1772105638412" Properties=species:S:1:pos:R:3:forces_component_raw:R:3 ipi_comment="Step:        3020  Bead:       0 forces_component_raw{ase}  cell{ase}" pbc="T T T"
O        0.00000000       0.00000000       0.00000000       0.88402724      -0.46276817       0.00879910
H        0.00000000       0.00000000       0.00000000      -0.24109769      -0.35140658       0.17161669
H        0.00000000       0.00000000       0.00000000      -0.33964348       0.47119030      -0.50828517
O        0.00000000       0.00000000       0.00000000       0.19880974      -0.18780679       3.68274380
H        0.00000000       0.00000000       0.00000000      -0.60357613       0.05072257       0.35863689
H        0.00000000       0.00000000       0.00000000      -0.05276042       0.23018134      -3.64516068
H        0.00000000       0.00000000       0.00000000       0.15424085       0.24988735      -0.06835067
7
Lattice="529.1772105638412 0.0 0.0 0.0 529.1772105638412 0.0 0.0 0.0 529.1772105638412" Properties=species:S:1:pos:R:3:forces_component_raw:R:3 ipi_comment="Step:        3040  Bead:       0 forces_component_raw{ase}  cell{ase}" pbc="T T T"
O        0.00000000       0.00000000       0.00000000       0.83327174       1.12632466       0.71972287
H        0.00000000       0.00000000       0.00000000      -0.42190468      -1.22054589       0.19280461
H        0.00000000       0.00000000       0.00000000      -0.53225434       0.16731843      -0.94485873
O        0.00000000       0.00000000       0.00000000      -0.03013098      -0.59898126       5.00555469
H        0.00000000       0.00000000       0.00000000       0.51738805       0.00291753       0.09150231
H        0.00000000       0.00000000       0.00000000      -0.92044252       0.58318049      -4.75505544
H        0.00000000       0.00000000       0.00000000       0.55407298      -0.06021392      -0.30967027
7
Lattice="529.1772105638412 0.0 0.0 0.0 529.1772105638412 0.0 0.0 0.0 529.1772105638412" Properties=species:S:1:pos:R:3:forces_component_raw:R:3 ipi_comment="Step:        3060  Bead:       0 forces_component_raw{ase}  cell{ase}" pbc="T T T"
O        0.00000000       0.00000000       0.00000000       0.15642667       1.14152408      -0.00770986
H        0.00000000       0.00000000       0.00000000       0.21514671      -1.22503543       0.67824292
H        0.00000000       0.00000000       0.00000000      -0.23131406       0.37065604      -0.47639334
O        0.00000000       0.00000000       0.00000000      -0.21598375      -1.53504265       2.02493906
H        0.00000000       0.00000000       0.00000000      -0.27653155       0.07926406       0.29754144
H        0.00000000       0.00000000       0.00000000      -0.42492050       0.41179276      -2.36862255
H        0.00000000       0.00000000       0.00000000       0.77717668       0.75684136      -0.14799765
7
Lattice="529.1772105638412 0.0 0.0 0.0 529.1772105638412 0.0 0.0 0.0 529.1772105638412" Properties=species:S:1:pos:R:3:forces_component_raw:R:3 ipi_comment="Step:        3080  Bead:       0 forces_component_raw{ase}  cell{ase}" pbc="T T T"
O        0.00000000       0.00000000       0.00000000      -0.30638444       2.19311595       0.25928289
H        0.00000000       0.00000000       0.00000000       0.45563239      -1.54483486       0.55471558
H        0.00000000       0.00000000       0.00000000      -0.21964133      -0.26408899      -0.44216523
O        0.00000000       0.00000000       0.00000000      -0.13856912      -0.46885946      -0.21663466
H        0.00000000       0.00000000       0.00000000      -0.02694797      -0.17457858      -0.21602194
H        0.00000000       0.00000000       0.00000000       0.02657467      -0.23724842       0.33543903
H        0.00000000       0.00000000       0.00000000       0.20933592       0.49649435      -0.27461582
7
Lattice="529.1772105638412 0.0 0.0 0.0 529.1772105638412 0.0 0.0 0.0 529.1772105638412" Properties=species:S:1:pos:R:3:forces_component_raw:R:3 ipi_comment="Step:        3100  Bead:       0 forces_component_raw{ase}  cell{ase}" pbc="T T T"
O        0.00000000       0.00000000       0.00000000      -0.80628050       0.77718014      -0.44306538
H        0.00000000       0.00000000       0.00000000       0.73857236      -0.87683851       0.75829792
H        0.00000000       0.00000000       0.00000000      -0.24349403      -0.07920551      -0.39317846
O        0.00000000       0.00000000       0.00000000      -0.50094545       0.70198363      -2.10401369
H        0.00000000       0.00000000       0.00000000       0.44395676       0.03104000      -0.12908962
H        0.00000000       0.00000000       0.00000000       0.51059961      -0.36067063       2.21999789
H        0.00000000       0.00000000       0.00000000      -0.14240867      -0.19348943       0.09105122
7
Lattice="529.1772105638412 0.0 0.0 0.0 529.1772105638412 0.0 0.0 0.0 529.1772105638412" Properties=species:S:1:pos:R:3:forces_component_raw:R:3 ipi_comment="Step:        3120  Bead:       0 forces_component_raw{ase}  cell{ase}" pbc="T T T"
O        0.00000000       0.00000000       0.00000000       0.42561072       0.55618030      -0.49120146
H        0.00000000       0.00000000       0.00000000       0.12561239      -0.73353118       0.15530402
H        0.00000000       0.00000000       0.00000000      -0.17373580      -0.21926147       0.10623276
O        0.00000000       0.00000000       0.00000000      -0.24507916       1.27952528      -2.91999436
H        0.00000000       0.00000000       0.00000000      -0.51893109      -0.18881309       0.18540582
H        0.00000000       0.00000000       0.00000000       0.61963403      -0.49461195       2.80977488
H        0.00000000       0.00000000       0.00000000      -0.23311105      -0.19948751       0.15447786
7
Lattice="529.1772105638412 0.0 0.0 0.0 529.1772105638412 0.0 0.0 0.0 529.1772105638412" Properties=species:S:1:pos:R:3:forces_component_raw:R:3 ipi_comment="Step:        3140  Bead:       0 forces_component_raw{ase}  cell{ase}" pbc="T T T"
O        0.00000000       0.00000000       0.00000000      -0.84805811      -0.76180732      -0.73520386
H        0.00000000       0.00000000       0.00000000       0.44179446       0.01398337       0.31838030
H        0.00000000       0.00000000       0.00000000       0.37863743       0.50202978       0.07869399
O        0.00000000       0.00000000       0.00000000      -0.77119672       0.43584997      -2.74056340
H        0.00000000       0.00000000       0.00000000       0.15498114      -0.04219827       0.13134196
H        0.00000000       0.00000000       0.00000000       0.79568672       0.38251922       2.52195788
H        0.00000000       0.00000000       0.00000000      -0.15184486      -0.53037673       0.42539275
7
Lattice="529.1772105638412 0.0 0.0 0.0 529.1772105638412 0.0 0.0 0.0 529.1772105638412" Properties=species:S:1:pos:R:3:forces_component_raw:R:3 ipi_comment="Step:        3160  Bead:       0 forces_component_raw{ase}  cell{ase}" pbc="T T T"
O        0.00000000       0.00000000       0.00000000      -0.54673070       0.28360868       0.38842034
H        0.00000000       0.00000000       0.00000000      -0.37305337      -0.07932943      -0.14490521
H        0.00000000       0.00000000       0.00000000       0.82959092       0.27571243       0.16333528
O        0.00000000       0.00000000       0.00000000      -0.28884304      -0.02657634      -1.16868949
H        0.00000000       0.00000000       0.00000000       0.13976657      -0.20292798      -0.63847304
H        0.00000000       0.00000000       0.00000000       0.29611373       0.46458042       1.21260822
H        0.00000000       0.00000000       0.00000000      -0.05684400      -0.71506775       0.18770400
7
Lattice="529.1772105638412 0.0 0.0 0.0 529.1772105638412 0.0 0.0 0.0 529.1772105638412" Properties=species:S:1:pos:R:3:forces_component_raw:R:3 ipi_comment="Step:        3180  Bead:       0 forces_component_raw{ase}  cell{ase}" pbc="T T T"
O        0.00000000       0.00000000       0.00000000       0.36785147      -1.07086051      -0.25408059
H        0.00000000       0.00000000       0.00000000      -0.76317436       0.75565744      -0.03341174
H        0.00000000       0.00000000       0.00000000       0.47849566       0.98042822       0.25079086
O        0.00000000       0.00000000       0.00000000       0.54904521      -0.60764349       0.03585622
H        0.00000000       0.00000000       0.00000000      -0.42581478       0.10810214       0.95989883
H        0.00000000       0.00000000       0.00000000      -0.19915366      -0.35979453      -0.84786636
H        0.00000000       0.00000000       0.00000000      -0.00724947       0.19411081      -0.11118722
7
Lattice="529.1772105638412 0.0 0.0 0.0 529.1772105638412 0.0 0.0 0.0 529.1772105638412" Properties=species:S:1:pos:R:3:forces_component_raw:R:3 ipi_comment="Step:        3200  Bead:       0 forces_component_raw{ase}  cell{ase}" pbc="T T T"
O        0.00000000       0.00000000       0.00000000      -0.47186473      -0.00373256       0.63215387
H        0.00000000       0.00000000       0.00000000      -1.12472630       0.16231927       0.09856997
H        0.00000000       0.00000000       0.00000000       1.06406880       0.50770879      -0.18109036
O        0.00000000       0.00000000       0.00000000       0.30457711      -0.62668812       3.64350844
H        0.00000000       0.00000000       0.00000000       0.63127470      -0.02136295      -0.55170381
H        0.00000000       0.00000000       0.00000000      -0.83233309      -0.77730364      -2.77395344
H        0.00000000       0.00000000       0.00000000       0.42900336       0.75905919      -0.86748475
7
Lattice="529.1772105638412 0.0 0.0 0.0 529.1772105638412 0.0 0.0 0.0 529.1772105638412" Properties=species:S:1:pos:R:3:forces_component_raw:R:3 ipi_comment="Step:        3220  Bead:       0 forces_component_raw{ase}  cell{ase}" pbc="T T T"
O        0.00000000       0.00000000       0.00000000       0.86464507      -1.44887853      -0.37746388
H        0.00000000       0.00000000       0.00000000      -0.79578769       0.57690680       0.13726082
H        0.00000000       0.00000000       0.00000000       0.15721533       0.96439779       0.15230855
O        0.00000000       0.00000000       0.00000000       1.12312639       0.09322631       3.32924176
H        0.00000000       0.00000000       0.00000000      -0.27960026      -0.05653240       0.17210417
H        0.00000000       0.00000000       0.00000000      -0.92450369      -0.86408091      -2.72711802
H        0.00000000       0.00000000       0.00000000      -0.14509517       0.73496109      -0.68633318
7
Lattice="529.1772105638412 0.0 0.0 0.0 529.1772105638412 0.0 0.0 0.0 529.1772105638412" Properties=species:S:1:pos:R:3:forces_component_raw:R:3 ipi_comment="Step:        3240  Bead:       0 forces_component_raw{ase}  cell{ase}" pbc="T T T"
O        0.00000000       0.00000000       0.00000000       0.46510196       0.35770083      -0.02685922
H        0.00000000       0.00000000       0.00000000      -0.81180889      -0.28679150       0.09878883
H        0.00000000       0.00000000       0.00000000       0.29611775      -0.66195214      -0.18197893
O        0.00000000       0.00000000       0.00000000      -0.23943436       0.44064027      -0.44856906
H        0.00000000       0.00000000       0.00000000       0.31003070       0.14977396      -0.10246304
H        0.00000000       0.00000000       0.00000000      -0.16546220       0.33144876      -0.07496679
H        0.00000000       0.00000000       0.00000000       0.14545490      -0.33082020       0.73604810
7
Lattice="529.1772105638412 0.0 0.0 0.0 529.1772105638412 0.0 0.0 0.0 529.1772105638412" Properties=species:S:1:pos:R:3:forces_component_raw:R:3 ipi_comment="Step:        3260  Bead:       0 forces_component_raw{ase}  cell{ase}" pbc="T T T"
O        0.00000000       0.00000000       0.00000000       1.60044933      -0.14946067      -0.48313493
H        0.00000000       0.00000000       0.00000000      -0.31221771       0.58723933      -0.00304667
H        0.00000000       0.00000000       0.00000000      -1.08171022      -1.11031485       0.26385945
O        0.00000000       0.00000000       0.00000000      -0.90224362       1.32571006      -1.07881165
H        0.00000000       0.00000000       0.00000000      -0.01669303       0.07953082      -0.06209639
H        0.00000000       0.00000000       0.00000000       0.57090241       0.10156560       0.87658388
H        0.00000000       0.00000000       0.00000000       0.14151283      -0.83427018       0.48664636
7
Lattice="529.1772105638412 0.0 0.0 0.0 529.1772105638412 0.0 0.0 0.0 529.1772105638412" Properties=species:S:1:pos:R:3:forces_component_raw:R:3 ipi_comment="Step:        3280  Bead:       0 forces_component_raw{ase}  cell{ase}" pbc="T T T"
O        0.00000000       0.00000000       0.00000000       0.34907770       1.70199383      -0.33730710
H        0.00000000       0.00000000       0.00000000      -0.02610564      -0.44135928       0.01643775
H        0.00000000       0.00000000       0.00000000      -0.04622608      -1.48502148       0.33216742
O        0.00000000       0.00000000       0.00000000      -1.53123856       0.08071083      -1.52451003
H        0.00000000       0.00000000       0.00000000      -0.16900724      -0.28957507      -0.24306849
H        0.00000000       0.00000000       0.00000000       1.06786311       0.94925207       0.95878583
H        0.00000000       0.00000000       0.00000000       0.35563690      -0.51600063       0.79749453
7
Lattice="529.1772105638412 0.0 0.0 0.0 529.1772105638412 0.0 0.0 0.0 529.1772105638412" Properties=species:S:1:pos:R:3:forces_component_raw:R:3 ipi_comment="Step:        3300  Bead:       0 forces_component_raw{ase}  cell{ase}" pbc="T T T"
O        0.00000000       0.00000000       0.00000000       0.07854021      -0.16026092      -0.52326608
H        0.00000000       0.00000000       0.00000000       0.46005458       0.42581958      -0.05525014
H        0.00000000       0.00000000       0.00000000      -0.50503695      -0.51683295       0.35422599
O        0.00000000       0.00000000       0.00000000      -1.41346681      -0.07839870      -1.45277548
H        0.00000000       0.00000000       0.00000000       0.13242430      -0.00759049       0.07679114
H        0.00000000       0.00000000       0.00000000       1.30154360       0.72743356       1.83879090
H        0.00000000       0.00000000       0.00000000      -0.05405900      -0.39017022      -0.23851633
7
Lattice="529.1772105638412 0.0 0.0 0.0 529.1772105638412 0.0 0.0 0.0 529.1772105638412" Properties=species:S:1:pos:R:3:forces_component_raw:R:3 ipi_comment="Step:        3320  Bead:       0 forces_component_raw{ase}  cell{ase}" pbc="T T T"
O        0.00000000       0.00000000       0.00000000      -1.82939792       0.15158537      -0.30680883
H        0.00000000       0.00000000       0.00000000       1.57349778      -0.25860763       0.25727847
H        0.00000000       0.00000000       0.00000000       0.36457536       0.25256848      -0.02721262
O        0.00000000       0.00000000       0.00000000       0.27451158      -1.76543188       0.17149454
H        0.00000000       0.00000000       0.00000000      -0.46269143       0.01771414       0.06937993
H        0.00000000       0.00000000       0.00000000       0.33786643       0.77180344       0.96732718
H        0.00000000       0.00000000       0.00000000      -0.25836146       0.83036792      -1.13145840
7
Lattice="529.1772105638412 0.0 0.0 0.0 529.1772105638412 0.0 0.0 0.0 529.1772105638412" Properties=species:S:1:pos:R:3:forces_component_raw:R:3 ipi_comment="Step:        3340  Bead:       0 forces_component_raw{ase}  cell{ase}" pbc="T T T"
O        0.00000000       0.00000000       0.00000000      -1.98952580      -0.34194583       0.74435795
H        0.00000000       0.00000000       0.00000000       1.31793022       0.37933648      -0.06545928
H        0.00000000       0.00000000       0.00000000       0.12169358       0.39704055      -0.32744652
O        0.00000000       0.00000000       0.00000000       0.26942545      -1.19522405       0.88131911
H        0.00000000       0.00000000       0.00000000       0.49878886      -0.23703539      -0.36792126
H        0.00000000       0.00000000       0.00000000       0.15305781       0.11904699       0.29098165
H        0.00000000       0.00000000       0.00000000      -0.37137008       0.87878090      -1.15583182
7
Lattice="529.1772105638412 0.0 0.0 0.0 529.1772105638412 0.0 0.0 0.0 529.1772105638412" Properties=species:S:1:pos:R:3:forces_component_raw:R:3 ipi_comment="Step:        3360  Bead:       0 forces_component_raw{ase}  cell{ase}" pbc="T T T"
O        0.00000000       0.00000000       0.00000000      -1.16262138       0.07260776       0.20862967
H        0.00000000       0.00000000       0.00000000       0.99641633      -0.48396912      -0.07224548
H        0.00000000       0.00000000       0.00000000       0.36488780       0.39371717      -0.18373993
O        0.00000000       0.00000000       0.00000000       1.06584585      -0.34602439       1.37477255
H        0.00000000       0.00000000       0.00000000      -0.32086009       0.09154120       0.23326373
H        0.00000000       0.00000000       0.00000000      -0.34053081      -0.56247056      -0.61928195
H        0.00000000       0.00000000       0.00000000      -0.60313779       0.83459825      -0.94139844
7
Lattice="529.1772105638412 0.0 0.0 0.0 529.1772105638412 0.0 0.0 0.0 529.1772105638412" Properties=species:S:1:pos:R:3:forces_component_raw:R:3 ipi_comment="Step:        3380  Bead:       0 forces_component_raw{ase}  cell{ase}" pbc="T T T"
O        0.00000000       0.00000000       0.00000000       0.41846591      -0.98779941       0.15299177
H        0.00000000       0.00000000       0.00000000      -0.34691930       0.07482502      -0.00147488
H        0.00000000       0.00000000       0.00000000       0.07175849       0.13391346      -0.15054774
O        0.00000000       0.00000000       0.00000000       0.18344116       1.10453403       1.33847618
H        0.00000000       0.00000000       0.00000000       0.45758408       0.24373701      -0.24081433
H        0.00000000       0.00000000       0.00000000      -0.41456553      -0.81436014      -0.63018745
H        0.00000000       0.00000000       0.00000000      -0.36976460       0.24515027      -0.46844357
7
Lattice="529.1772105638412 0.0 0.0 0.0 529.1772105638412 0.0 0.0 0.0 529.1772105638412" Properties=species:S:1:pos:R:3:forces_component_raw:R:3 ipi_comment="Step:        3400  Bead:       0 forces_component_raw{ase}  cell{ase}" pbc="T T T"
O        0.00000000       0.00000000       0.00000000       3.10311890       0.33036476      -0.35119110
H        0.00000000       0.00000000       0.00000000      -2.88308311       0.10347390       0.33513582
H        0.00000000       0.00000000       0.00000000      -0.03029126      -0.00089270       0.02206612
O        0.00000000       0.00000000       0.00000000      -0.78955937       1.01903033      -0.64360428
H        0.00000000       0.00000000       0.00000000       0.09462529      -0.77584756      -0.06564155
H        0.00000000       0.00000000       0.00000000       0.01177216      -0.19943476      -0.07912761
H        0.00000000       0.00000000       0.00000000       0.49341738      -0.47669369       0.78236270
7
Lattice="529.1772105638412 0.0 0.0 0.0 529.1772105638412 0.0 0.0 0.0 529.1772105638412" Properties=species:S:1:pos:R:3:forces_component_raw:R:3 ipi_comment="Step:        3420  Bead:       0 forces_component_raw{ase}  cell{ase}" pbc="T T T"
O        0.00000000       0.00000000       0.00000000       2.98362113       0.90224421      -0.73319709
H        0.00000000       0.00000000       0.00000000      -3.03940082       0.09316962       0.40352586
H        0.00000000       0.00000000       0.00000000      -0.19325569      -0.85764837       0.35440683
O        0.00000000       0.00000000       0.00000000      -0.18692309      -1.37364245      -0.71461785
H        0.00000000       0.00000000       0.00000000      -0.09850869       0.68711400       0.27953425
H        0.00000000       0.00000000       0.00000000       0.39485693       0.47620237       0.12837744
H        0.00000000       0.00000000       0.00000000       0.13961032       0.07256073       0.28197050
7
Lattice="529.1772105638412 0.0 0.0 0.0 529.1772105638412 0.0 0.0 0.0 529.1772105638412" Properties=species:S:1:pos:R:3:forces_component_raw:R:3 ipi_comment="Step:        3440  Bead:       0 forces_component_raw{ase}  cell{ase}" pbc="T T T"
O        0.00000000       0.00000000       0.00000000       0.62338615       1.08997154      -0.14790964
H        0.00000000       0.00000000       0.00000000      -1.25597525      -0.27712143       0.18756200
H        0.00000000       0.00000000       0.00000000       0.34822369      -0.50115448       0.11232281
O        0.00000000       0.00000000       0.00000000      -0.54064179      -0.23084438      -0.38963151
H        0.00000000       0.00000000       0.00000000       0.04691590      -0.32958815      -0.27575612
H        0.00000000       0.00000000       0.00000000       0.73688203       0.75509989       0.52177894
H        0.00000000       0.00000000       0.00000000       0.04120928      -0.50636333      -0.00836670
7
Lattice="529.1772105638412 0.0 0.0 0.0 529.1772105638412 0.0 0.0 0.0 529.1772105638412" Properties=species:S:1:pos:R:3:forces_component_raw:R:3 ipi_comment="Step:        3460  Bead:       0 forces_component_raw{ase}  cell{ase}" pbc="T T T"
O        0.00000000       0.00000000       0.00000000       0.22928274      -0.58450246      -0.07092297
H        0.00000000       0.00000000       0.00000000      -0.13426405       0.32240048      -0.07790169
H        0.00000000       0.00000000       0.00000000      -0.13095751       0.38749057      -0.25741273
O        0.00000000       0.00000000       0.00000000      -0.95345068      -1.45623625      -0.64875847
H        0.00000000       0.00000000       0.00000000       0.03246707      -0.26606652       0.80557728
H        0.00000000       0.00000000       0.00000000       0.79934901       1.37272251       0.09062132
H        0.00000000       0.00000000       0.00000000       0.15757310       0.22419158       0.15879715
7
Lattice="529.1772105638412 0.0 0.0 0.0 529.1772105638412 0.0 0.0 0.0 529.1772105638412" Properties=species:S:1:pos:R:3:forces_component_raw:R:3 ipi_comment="Step:        3480  Bead:       0 forces_component_raw{ase}  cell{ase}" pbc="T T T"
O        0.00000000       0.00000000       0.00000000      -1.73956061      -0.76473093       0.53190494
H        0.00000000       0.00000000       0.00000000       1.21951235       0.09045064       0.20021947
H        0.00000000       0.00000000       0.00000000       0.50698280       0.40771908      -0.48925972
O        0.00000000       0.00000000       0.00000000      -0.83179188      -0.92127526      -0.49320412
H        0.00000000       0.00000000       0.00000000      -0.25346103       0.10331452      -0.64546561
H        0.00000000       0.00000000       0.00000000       0.60884714       1.46001363       0.40973067
H        0.00000000       0.00000000       0.00000000       0.48947138      -0.37549150       0.48607451
7
Lattice="529.1772105638412 0.0 0.0 0.0 529.1772105638412 0.0 0.0 0.0 529.1772105638412" Properties=species:S:1:pos:R:3:forces_component_raw:R:3 ipi_comment="Step:        3500  Bead:       0 forces_component_raw{ase}  cell{ase}" pbc="T T T"
O        0.00000000       0.00000000       0.00000000      -1.64800156      -0.79646051       0.30360484
H        0.00000000       0.00000000       0.00000000       1.91862679       0.06316590      -0.05633232
H        0.00000000       0.00000000       0.00000000      -0.02574914       0.44220603      -0.36183709
O        0.00000000       0.00000000       0.00000000      -1.31666625      -0.77728087      -0.99618203
H        0.00000000       0.00000000       0.00000000      -0.05703494       0.15469527       0.18389125
H        0.00000000       0.00000000       0.00000000       0.61457127       0.93813467       0.18305627
H        0.00000000       0.00000000       0.00000000       0.51425356      -0.02446055       0.74379873
7
Lattice="529.1772105638412 0.0 0.0 0.0 529.1772105638412 0.0 0.0 0.0 529.1772105638412" Properties=species:S:1:pos:R:3:forces_component_raw:R:3 ipi_comment="Step:        3520  Bead:       0 forces_component_raw{ase}  cell{ase}" pbc="T T T"
O        0.00000000       0.00000000       0.00000000      -1.59388233       0.12327004       0.34709132
H        0.00000000       0.00000000       0.00000000       1.62936175      -0.25121659      -0.09685418
H        0.00000000       0.00000000       0.00000000       0.01448707       0.14091037      -0.18221474
O        0.00000000       0.00000000       0.00000000      -0.58032167       0.27172417      -0.16415656
H        0.00000000       0.00000000       0.00000000       0.30153555      -0.15053272      -0.10152911
H        0.00000000       0.00000000       0.00000000       0.18638122      -0.10424995       0.05416074
H        0.00000000       0.00000000       0.00000000       0.04243842      -0.02990535       0.14350271
7
Lattice="529.1772105638412 0.0 0.0 0.0 529.1772105638412 0.0 0.0 0.0 529.1772105638412" Properties=species:S:1:pos:R:3:forces_component_raw:R:3 ipi_comment="Step:        3540  Bead:       0 forces_component_raw{ase}  cell{ase}" pbc="T T T"
O        0.00000000       0.00000000       0.00000000      -0.48054916       0.34145379      -0.29311812
H        0.00000000       0.00000000       0.00000000       0.87220806      -0.22210169      -0.06648172
H        0.00000000       0.00000000       0.00000000      -0.29433906      -0.32591620       0.43742561
O        0.00000000       0.00000000       0.00000000       0.96905142      -0.50536662       0.69452655
H        0.00000000       0.00000000       0.00000000      -0.07801417       0.29209420      -0.04594173
H        0.00000000       0.00000000       0.00000000      -0.44556087      -0.10724640      -0.24867326
H        0.00000000       0.00000000       0.00000000      -0.54279620       0.52708304      -0.47773707
7
Lattice="529.1772105638412 0.0 0.0 0.0 529.1772105638412 0.0 0.0 0.0 529.1772105638412" Properties=species:S:1:pos:R:3:forces_component_raw:R:3 ipi_comment="Step:        3560  Bead:       0 forces_component_raw{ase}  cell{ase}" pbc="T T T"
O        0.00000000       0.00000000       0.00000000      -0.17225140       0.02911070      -0.02527344
H        0.00000000       0.00000000       0.00000000       0.23913610      -0.15189336      -0.03428578
H        0.00000000       0.00000000       0.00000000      -0.06491318       0.02032602      -0.02464837
O        0.00000000       0.00000000       0.00000000       0.72905481       0.97624374       0.36037219
H        0.00000000       0.00000000       0.00000000       0.12520582       0.23543505       0.20980501
H        0.00000000       0.00000000       0.00000000      -0.00092438      -0.71261275       0.15998274
H        0.00000000       0.00000000       0.00000000      -0.85530782      -0.39660943      -0.64595252
7
Lattice="529.1772105638412 0.0 0.0 0.0 529.1772105638412 0.0 0.0 0.0 529.1772105638412" Properties=species:S:1:pos:R:3:forces_component_raw:R:3 ipi_comment="Step:        3580  Bead:       0 forces_component_raw{ase}  cell{ase}" pbc="T T T"
O        0.00000000       0.00000000       0.00000000       1.21768308       0.12273479      -0.11850208
H        0.00000000       0.00000000       0.00000000      -1.06389308       0.05453706       0.14852837
H        0.00000000       0.00000000       0.00000000      -0.07002097      -0.05981988      -0.00481272
O        0.00000000       0.00000000       0.00000000       1.12068999       0.05404264       0.92721129
H        0.00000000       0.00000000       0.00000000      -0.26856890      -0.26486376      -0.13336027
H        0.00000000       0.00000000       0.00000000      -0.72768021      -0.35006541      -0.49473396
H        0.00000000       0.00000000       0.00000000      -0.20820952       0.44343484      -0.32433105
7
Lattice="529.1772105638412 0.0 0.0 0.0 529.1772105638412 0.0 0.0 0.0 529.1772105638412" Properties=species:S:1:pos:R:3:forces_component_raw:R:3 ipi_comment="Step:        3600  Bead:       0 forces_component_raw{ase}  cell{ase}" pbc="T T T"
O        0.00000000       0.00000000       0.00000000       0.30069935      -0.79160434       0.45072872
H        0.00000000       0.00000000       0.00000000      -0.39297575       0.04440226      -0.00740006
H        0.00000000       0.00000000       0.00000000       0.17067061       0.27525103      -0.41383612
O        0.00000000       0.00000000       0.00000000      -0.44818270       1.12020767      -0.58107525
H        0.00000000       0.00000000       0.00000000       0.31955522       0.01742893       0.14489259
H        0.00000000       0.00000000       0.00000000       0.04352143      -0.26427758       0.25177491
H        0.00000000       0.00000000       0.00000000       0.00671160      -0.40140796       0.15491498
7
Lattice="529.1772105638412 0.0 0.0 0.0 529.1772105638412 0.0 0.0 0.0 529.1772105638412" Properties=species:S:1:pos:R:3:forces_component_raw:R:3 ipi_comment="Step:        3620  Bead:       0 forces_component_raw{ase}  cell{ase}" pbc="T T T"
O        0.00000000       0.00000000       0.00000000       0.01623571       0.19665405      -0.26027739
H        0.00000000       0.00000000       0.00000000      -0.22826308      -0.37913796       0.31713992
H        0.00000000       0.00000000       0.00000000       0.42657158      -0.11020070      -0.09689271
O        0.00000000       0.00000000       0.00000000       0.13083136      -0.55841953      -0.48222816
H        0.00000000       0.00000000       0.00000000      -0.52013826       0.35403299      -0.02294594
H        0.00000000       0.00000000       0.00000000      -0.11671156       0.42718238      -0.11204341
H        0.00000000       0.00000000       0.00000000       0.29147422       0.06988886       0.65724754
7
Lattice="529.1772105638412 0.0 0.0 0.0 529.1772105638412 0.0 0.0 0.0 529.1772105638412" Properties=species:S:1:pos:R:3:forces_component_raw:R:3 ipi_comment="Step:        3640  Bead:       0 forces_component_raw{ase}  cell{ase}" pbc="T T T"
O        0.00000000       0.00000000       0.00000000       2.21847702      -0.93494719      -0.33019805
H        0.00000000       0.00000000       0.00000000      -1.39834404       0.61867386      -0.13423385
H        0.00000000       0.00000000       0.00000000      -0.76959622      -0.20613647       0.56511217
O        0.00000000       0.00000000       0.00000000      -0.81840933      -0.02510738      -0.15870786
H        0.00000000       0.00000000       0.00000000       0.30272800       0.07878989      -0.03152390
H        0.00000000       0.00000000       0.00000000       0.21906579       0.41922230      -0.13457614
H        0.00000000       0.00000000       0.00000000       0.24607894       0.04950479       0.22412777
7
Lattice="529.1772105638412 0.0 0.0 0.0 529.1772105638412 0.0 0.0 0.0 529.1772105638412" Properties=species:S:1:pos:R:3:forces_component_raw:R:3 ipi_comment="Step:        3660  Bead:       0 forces_component_raw{ase}  cell{ase}" pbc="T T T"
O        0.00000000       0.00000000       0.00000000       0.52148229       1.05465996      -1.16191161
H        0.00000000       0.00000000       0.00000000      -0.98743797      -0.13040568       0.60083902
H        0.00000000       0.00000000       0.00000000       0.43286368      -0.52763009       0.65884286
O        0.00000000       0.00000000       0.00000000      -0.63378811       0.06270272      -0.23220754
H        0.00000000       0.00000000       0.00000000       0.15374559      -0.75670517      -0.09552864
H        0.00000000       0.00000000       0.00000000       0.16757631       0.21664172      -0.16474432
H        0.00000000       0.00000000       0.00000000       0.34555817       0.08073640       0.39471024
7
Lattice="529.1772105638412 0.0 0.0 0.0 529.1772105638412 0.0 0.0 0.0 529.1772105638412" Properties=species:S:1:pos:R:3:forces_component_raw:R:3 ipi_comment="Step:        3680  Bead:       0 forces_component_raw{ase}  cell{ase}" pbc="T T T"
O        0.00000000       0.00000000       0.00000000       1.33582402      -0.90861058      -0.20400548
H        0.00000000       0.00000000       0.00000000      -0.78311831       0.40314502      -0.23068157
H        0.00000000       0.00000000       0.00000000      -0.48192868       0.22457774       0.35938257
O        0.00000000       0.00000000       0.00000000       0.11772800      -0.54837042      -0.13336682
H        0.00000000       0.00000000       0.00000000      -0.25008285       0.93114639       0.12328821
H        0.00000000       0.00000000       0.00000000       0.26912177      -0.10883343       0.27607790
H        0.00000000       0.00000000       0.00000000      -0.20754382       0.00694543      -0.19069505
7
Lattice="529.1772105638412 0.0 0.0 0.0 529.1772105638412 0.0 0.0 0.0 529.1772105638412" Properties=species:S:1:pos:R:3:forces_component_raw:R:3 ipi_comment="Step:        3700  Bead:       0 forces_component_raw{ase}  cell{ase}" pbc="T T T"
O        0.00000000       0.00000000       0.00000000      -1.17531419       0.14653832      -0.70728749
H        0.00000000       0.00000000       0.00000000       0.62634361      -0.12692352       0.52135116
H        0.00000000       0.00000000       0.00000000       0.65364999      -0.13163883       0.28419191
O        0.00000000       0.00000000       0.00000000      -0.58116925      -0.21251524       0.64147514
H        0.00000000       0.00000000       0.00000000       0.02390844      -0.31668127      -0.07662918
H        0.00000000       0.00000000       0.00000000       0.43703652       0.43228835      -0.09582338
H        0.00000000       0.00000000       0.00000000       0.01554498       0.20893194      -0.56727809
7
Lattice="529.1772105638412 0.0 0.0 0.0 529.1772105638412 0.0 0.0 0.0 529.1772105638412" Properties=species:S:1:pos:R:3:forces_component_raw:R:3 ipi_comment="Step:        3720  Bead:       0 forces_component_raw{ase}  cell{ase}" pbc="T T T"
O        0.00000000       0.00000000       0.00000000      -0.04784334      -1.36138749       1.20323730
H        0.00000000       0.00000000       0.00000000       0.54625714       0.10896014      -0.72511816
H        0.00000000       0.00000000       0.00000000      -0.43204066       0.43495283      -0.40001619
O        0.00000000       0.00000000       0.00000000      -0.74719483       0.65884519      -0.04883301
H        0.00000000       0.00000000       0.00000000       0.32212806       0.13518137      -0.00177965
H        0.00000000       0.00000000       0.00000000       0.36752617       0.22826874       0.13845372
H        0.00000000       0.00000000       0.00000000      -0.00883263      -0.20482075      -0.16594362
7
Lattice="529.1772105638412 0.0 0.0 0.0 529.1772105638412 0.0 0.0 0.0 529.1772105638412" Properties=species:S:1:pos:R:3:forces_component_raw:R:3 ipi_comment="Step:        3740  Bead:       0 forces_component_raw{ase}  cell{ase}" pbc="T T T"
O        0.00000000       0.00000000       0.00000000      -0.67393047       0.55096269       0.28110328
H        0.00000000       0.00000000       0.00000000       0.33451206      -0.75604707       0.46761179
H        0.00000000       0.00000000       0.00000000       0.57937092      -0.13961330      -0.73007125
O        0.00000000       0.00000000       0.00000000      -0.05263996      -0.68906015       0.19515634
H        0.00000000       0.00000000       0.00000000      -0.44752741       0.04786456      -0.03397486
H        0.00000000       0.00000000       0.00000000       0.22234607       0.90034044      -0.12975408
H        0.00000000       0.00000000       0.00000000       0.03786886       0.08555278      -0.05007148
7
Lattice="529.1772105638412 0.0 0.0 0.0 529.1772105638412 0.0 0.0 0.0 529.1772105638412" Properties=species:S:1:pos:R:3:forces_component_raw:R:3 ipi_comment="Step:        3760  Bead:       0 forces_component_raw{ase}  cell{ase}" pbc="T T T"
O        0.00000000       0.00000000       0.00000000      -0.54392815      -0.76761836       1.38542712
H        0.00000000       0.00000000       0.00000000       0.46335596      -0.05554271      -0.89203131
H        0.00000000       0.00000000       0.00000000      -0.23274732       0.42970356      -0.23873460
O        0.00000000       0.00000000       0.00000000      -0.71757496       0.21822673      -0.62164176
H        0.00000000       0.00000000       0.00000000       0.91354847       0.37848926      -0.05179806
H        0.00000000       0.00000000       0.00000000       0.37804097      -0.07770014       0.37636858
H        0.00000000       0.00000000       0.00000000      -0.26069492      -0.12555870       0.04240990
7
Lattice="529.1772105638412 0.0 0.0 0.0 529.1772105638412 0.0 0.0 0.0 529.1772105638412" Properties=species:S:1:pos:R:3:forces_component_raw:R:3 ipi_comment="Step:        3780  Bead:       0 forces_component_raw{ase}  cell{ase}" pbc="T T T"
O        0.00000000       0.00000000       0.00000000      -0.18337153       1.75197935      -0.95499468
H        0.00000000       0.00000000       0.00000000       0.06448197      -0.25276530       0.17339522
H        0.00000000       0.00000000       0.00000000       0.00207457      -0.16605544       0.17430818
O        0.00000000       0.00000000       0.00000000       1.46843708      -0.38466585       1.00763428
H        0.00000000       0.00000000       0.00000000      -0.31748295      -1.06002522       0.44641277
H        0.00000000       0.00000000       0.00000000      -0.92853296      -0.30867660      -0.39650044
H        0.00000000       0.00000000       0.00000000      -0.10560626       0.42020899      -0.45025516
7
Lattice="529.1772105638412 0.0 0.0 0.0 529.1772105638412 0.0 0.0 0.0 529.1772105638412" Properties=species:S:1:pos:R:3:forces_component_raw:R:3 ipi_comment="Step:        3800  Bead:       0 forces_component_raw{ase}  cell{ase}" pbc="T T T"
O        0.00000000       0.00000000       0.00000000       0.37366697       0.14398706      -1.10919917
H        0.00000000       0.00000000       0.00000000       0.00443660       0.40094984       0.01686549
H        0.00000000       0.00000000       0.00000000      -0.41974682      -0.20229304       1.04695916
O        0.00000000       0.00000000       0.00000000       0.80609322      -0.31542534       0.01602697
H        0.00000000       0.00000000       0.00000000      -0.16931275       0.80406922      -0.25439030
H        0.00000000       0.00000000       0.00000000      -0.15979362      -0.51302046       0.28771132
H        0.00000000       0.00000000       0.00000000      -0.43534339      -0.31826708      -0.00397354
7
Lattice="529.1772105638412 0.0 0.0 0.0 529.1772105638412 0.0 0.0 0.0 529.1772105638412" Properties=species:S:1:pos:R:3:forces_component_raw:R:3 ipi_comment="Step:        3820  Bead:       0 forces_component_raw{ase}  cell{ase}" pbc="T T T"
O        0.00000000       0.00000000       0.00000000      -0.22847068       1.08837354       0.16967717
H        0.00000000       0.00000000       0.00000000      -0.03969179      -0.45631009      -0.01802748
H        0.00000000       0.00000000       0.00000000       0.08823282      -0.46444982      -0.06353515
O        0.00000000       0.00000000       0.00000000      -0.37312767       0.59938681      -0.64158899
H        0.00000000       0.00000000       0.00000000       0.40605646      -0.29362011       0.04441029
H        0.00000000       0.00000000       0.00000000      -0.62141377      -0.31723899      -0.11315930
H        0.00000000       0.00000000       0.00000000       0.76841468      -0.15614122       0.62222338
7
Lattice="529.1772105638412 0.0 0.0 0.0 529.1772105638412 0.0 0.0 0.0 529.1772105638412" Properties=species:S:1:pos:R:3:forces_component_raw:R:3 ipi_comment="Step:        3840  Bead:       0 forces_component_raw{ase}  cell{ase}" pbc="T T T"
O        0.00000000       0.00000000       0.00000000       0.28224301      -0.04348403       1.85129691
H        0.00000000       0.00000000       0.00000000      -0.18043757      -0.63063657      -1.24217415
H        0.00000000       0.00000000       0.00000000       0.45373672       0.62806744      -0.64399737
O        0.00000000       0.00000000       0.00000000      -0.86289621       1.34657669      -1.51946020
H        0.00000000       0.00000000       0.00000000      -0.89027477      -0.40224815       0.08081152
H        0.00000000       0.00000000       0.00000000       0.35145152       0.12823606       0.12553299
H        0.00000000       0.00000000       0.00000000       0.84617710      -1.02651155       1.34799052
7
Lattice="529.1772105638412 0.0 0.0 0.0 529.1772105638412 0.0 0.0 0.0 529.1772105638412" Properties=species:S:1:pos:R:3:forces_component_raw:R:3 ipi_comment="Step:        3860  Bead:       0 forces_component_raw{ase}  cell{ase}" pbc="T T T"
O        0.00000000       0.00000000       0.00000000       0.67059863       0.39719051       2.55182815
H        0.00000000       0.00000000       0.00000000      -1.30122471      -1.39317203      -1.20495713
H        0.00000000       0.00000000       0.00000000       0.26341832      -0.21342011      -1.06688619
O        0.00000000       0.00000000       0.00000000      -2.21171260       0.50851035      -1.48836387
H        0.00000000       0.00000000       0.00000000       0.83929008       0.23770279       0.25680113
H        0.00000000       0.00000000       0.00000000       1.38972473       0.41600689       0.32254195
H        0.00000000       0.00000000       0.00000000       0.34990534       0.04718184       0.62903619
7
Lattice="529.1772105638412 0.0 0.0 0.0 529.1772105638412 0.0 0.0 0.0 529.1772105638412" Properties=species:S:1:pos:R:3:forces_component_raw:R:3 ipi_comment="Step:        3880  Bead:       0 forces_component_raw{ase}  cell{ase}" pbc="T T T"
O        0.00000000       0.00000000       0.00000000       0.51084375      -0.66188812       2.29945732
H        0.00000000       0.00000000       0.00000000      -0.78929156      -0.22967233      -1.76006186
H        0.00000000       0.00000000       0.00000000       0.52502602       0.41534519      -0.27065516
O        0.00000000       0.00000000       0.00000000      -0.19584286      -0.41246635       0.80482245
H        0.00000000       0.00000000       0.00000000      -0.49838793      -0.08763024      -0.34150606
H        0.00000000       0.00000000       0.00000000       1.15397787       0.78907895       0.32682699
H        0.00000000       0.00000000       0.00000000      -0.70632541       0.18723285      -1.05888367
7
Lattice="529.1772105638412 0.0 0.0 0.0 529.1772105638412 0.0 0.0 0.0 529.1772105638412" Properties=species:S:1:pos:R:3:forces_component_raw:R:3 ipi_comment="Step:        3900  Bead:       0 forces_component_raw{ase}  cell{ase}" pbc="T T T"
O        0.00000000       0.00000000       0.00000000       0.68300939       0.89534831      -0.02199040
H        0.00000000       0.00000000       0.00000000      -0.69202215      -0.48061487       0.03133953
H        0.00000000       0.00000000       0.00000000      -0.22350544       0.01364213      -0.39155352
O        0.00000000       0.00000000       0.00000000      -0.13156360      -1.90008450       1.76545751
H        0.00000000       0.00000000       0.00000000       0.29689720      -0.11269447       0.31921750
H        0.00000000       0.00000000       0.00000000       0.86636919       1.02781034      -0.09216990
H        0.00000000       0.00000000       0.00000000      -0.79918456       0.55659282      -1.61030078
7
Lattice="529.1772105638412 0.0 0.0 0.0 529.1772105638412 0.0 0.0 0.0 529.1772105638412" Properties=species:S:1:pos:R:3:forces_component_raw:R:3 ipi_comment="Step:        3920  Bead:       0 forces_component_raw{ase}  cell{ase}" pbc="T T T"
O        0.00000000       0.00000000       0.00000000      -0.41824174       0.92458940      -0.50848246
H        0.00000000       0.00000000       0.00000000       0.31253475       0.30026186       0.09936535
H        0.00000000       0.00000000       0.00000000       0.07025427       0.01899903       0.35753507
O        0.00000000       0.00000000       0.00000000      -0.34914553      -1.14858604       1.18840838
H        0.00000000       0.00000000       0.00000000       0.51433814      -0.24743521      -0.28341374
H        0.00000000       0.00000000       0.00000000       1.14955652       0.22332454       0.54661107
H        0.00000000       0.00000000       0.00000000      -1.27929628      -0.07115361      -1.40002370
7
Lattice="529.1772105638412 0.0 0.0 0.0 529.1772105638412 0.0 0.0 0.0 529.1772105638412" Properties=species:S:1:pos:R:3:forces_component_raw:R:3 ipi_comment="Step:        3940  Bead:       0 forces_component_raw{ase}  cell{ase}" pbc="T T T"
O        0.00000000       0.00000000       0.00000000      -1.33274019      -0.45546118      -1.66019345
H        0.00000000       0.00000000       0.00000000       1.31786704       0.82628632       1.00991523
H        0.00000000       0.00000000       0.00000000       0.15977362      -0.02830842       0.52224672
O        0.00000000       0.00000000       0.00000000       0.13692439      -2.38510371       1.92682732
H        0.00000000       0.00000000       0.00000000      -0.15139720       0.19513087       0.24350701
H        0.00000000       0.00000000       0.00000000      -0.01192105       0.48959977      -0.39964780
H        0.00000000       0.00000000       0.00000000      -0.11850655       1.35785628      -1.64265502
7
Lattice="529.1772105638412 0.0 0.0 0.0 529.1772105638412 0.0 0.0 0.0 529.1772105638412" Properties=species:S:1:pos:R:3:forces_component_raw:R:3 ipi_comment="Step:        3960  Bead:       0 forces_component_raw{ase}  cell{ase}" pbc="T T T"
O        0.00000000       0.00000000       0.00000000      -1.25897956      -0.82956636      -1.41032863
H        0.00000000       0.00000000       0.00000000       1.47895205       0.67346418       1.47720671
H        0.00000000       0.00000000       0.00000000      -0.20897713      -0.40220761       0.02406728
O        0.00000000       0.00000000       0.00000000       1.76628280      -0.04479140       0.62386763
H        0.00000000       0.00000000       0.00000000      -0.30530521      -0.19574383       0.09401284
H        0.00000000       0.00000000       0.00000000      -0.37002564      -0.54858095       0.43107706
H        0.00000000       0.00000000       0.00000000      -1.10194719       1.34742594      -1.23990298
7
Lattice="529.1772105638412 0.0 0.0 0.0 529.1772105638412 0.0 0.0 0.0 529.1772105638412" Properties=species:S:1:pos:R:3:forces_component_raw:R:3 ipi_comment="Step:        3980  Bead:       0 forces_component_raw{ase}  cell{ase}" pbc="T T T"
O        0.00000000       0.00000000       0.00000000      -1.48197878      -1.13492942      -1.11707866
H        0.00000000       0.00000000       0.00000000       1.20662761       0.56392801       0.66732162
H        0.00000000       0.00000000       0.00000000       0.17645073      -0.03086290       0.37402225
O        0.00000000       0.00000000       0.00000000      -0.48137629      -1.23954094       0.41876090
H        0.00000000       0.00000000       0.00000000       0.13634256       0.42986333       0.38480479
H        0.00000000       0.00000000       0.00000000      -0.09617168       0.37111992      -0.22549722
H        0.00000000       0.00000000       0.00000000       0.54010618       1.04042173      -0.50233364
7
Lattice="529.1772105638412 0.0 0.0 0.0 529.1772105638412 0.0 0.0 0.0 529.1772105638412" Properties=species:S:1:pos:R:3:forces_component_raw:R:3 ipi_comment="Step:        4000  Bead:       0 forces_component_raw{ase}  cell{ase}" pbc="T T T"
O        0.00000000       0.00000000       0.00000000      -0.10702300       0.19867894       0.19263613
H        0.00000000       0.00000000       0.00000000       0.31834418      -0.11925177       0.50168991
H        0.00000000       0.00000000       0.00000000      -0.17224234       0.01232784      -0.63958609
O        0.00000000       0.00000000       0.00000000       0.63020390       0.75214565       0.06567097
H        0.00000000       0.00000000       0.00000000      -0.27159867      -0.36704949      -0.32878980
H        0.00000000       0.00000000       0.00000000       0.11490816      -0.51194716       0.17598110
H        0.00000000       0.00000000       0.00000000      -0.51259244       0.03509605       0.03239769
7
Lattice="529.1772105638412 0.0 0.0 0.0 529.1772105638412 0.0 0.0 0.0 529.1772105638412" Properties=species:S:1:pos:R:3:forces_component_raw:R:3 ipi_comment="Step:        4020  Bead:       0 forces_component_raw{ase}  cell{ase}" pbc="T T T"
O        0.00000000       0.00000000       0.00000000       0.14841688      -0.09682360       1.70416069
H        0.00000000       0.00000000       0.00000000      -0.49523389      -0.02726525      -0.71456474
H        0.00000000       0.00000000       0.00000000       0.58904284       0.57551706      -1.11681271
O        0.00000000       0.00000000       0.00000000      -1.29141045      -0.32615286       0.11573124
H        0.00000000       0.00000000       0.00000000       0.28241217       0.55049288       0.04462510
H        0.00000000       0.00000000       0.00000000      -0.32047862       0.41502580      -0.20915842
H        0.00000000       0.00000000       0.00000000       1.08725131      -1.09079397       0.17601883
7
Lattice="529.1772105638412 0.0 0.0 0.0 529.1772105638412 0.0 0.0 0.0 529.1772105638412" Properties=species:S:1:pos:R:3:forces_component_raw:R:3 ipi_comment="Step:        4040  Bead:       0 forces_component_raw{ase}  cell{ase}" pbc="T T T"
O        0.00000000       0.00000000       0.00000000       1.62320400       0.52828622       1.39721465
H        0.00000000       0.00000000       0.00000000      -1.13866568       0.04273516      -0.36187822
H        0.00000000       0.00000000       0.00000000      -0.12473518       0.15119152      -0.89889300
O        0.00000000       0.00000000       0.00000000      -1.33296109       2.37957192      -0.43229497
H        0.00000000       0.00000000       0.00000000      -0.11307374      -0.35511598      -0.28523341
H        0.00000000       0.00000000       0.00000000       0.12644917      -0.49829257       0.07890767
H        0.00000000       0.00000000       0.00000000       0.95978230      -2.24837637       0.50217760
7
Lattice="529.1772105638412 0.0 0.0 0.0 529.1772105638412 0.0 0.0 0.0 529.1772105638412" Properties=species:S:1:pos:R:3:forces_component_raw:R:3 ipi_comment="Step:        4060  Bead:       0 forces_component_raw{ase}  cell{ase}" pbc="T T T"
O        0.00000000       0.00000000       0.00000000       0.20601904      -0.61206424       0.44838801
H        0.00000000       0.00000000       0.00000000      -0.58575606       0.30422321      -1.07889283
H        0.00000000       0.00000000       0.00000000       0.17376822       0.00858897       0.37357819
O        0.00000000       0.00000000       0.00000000      -1.18166387       0.48300022       0.16106641
H        0.00000000       0.00000000       0.00000000       0.28736812       0.43754822       0.59559304
H        0.00000000       0.00000000       0.00000000       0.12739015       0.63013911      -0.09939361
H        0.00000000       0.00000000       0.00000000       0.97287458      -1.25143552      -0.40033931
7
Lattice="529.1772105638412 0.0 0.0 0.0 529.1772105638412 0.0 0.0 0.0 529.1772105638412" Properties=species:S:1:pos:R:3:forces_component_raw:R:3 ipi_comment="Step:        4080  Bead:       0 forces_component_raw{ase}  cell{ase}" pbc="T T T"
O        0.00000000       0.00000000       0.00000000       1.19136918       0.65822178       0.56198192
H        0.00000000       0.00000000       0.00000000      -0.68895251      -0.17332141      -0.39922333
H        0.00000000       0.00000000       0.00000000      -0.74582863      -0.80041790       0.24282134
O        0.00000000       0.00000000       0.00000000       1.12704015       1.07580137      -0.48704392
H        0.00000000       0.00000000       0.00000000      -0.17162658      -0.28317729      -0.49194300
H        0.00000000       0.00000000       0.00000000      -0.43605280      -0.37888447       0.34578145
H        0.00000000       0.00000000       0.00000000      -0.27594900      -0.09822202       0.22762561
7
Lattice="529.1772105638412 0.0 0.0 0.0 529.1772105638412 0.0 0.0 0.0 529.1772105638412" Properties=species:S:1:pos:R:3:forces_component_raw:R:3 ipi_comment="Step:        4100  Bead:       0 forces_component_raw{ase}  cell{ase}" pbc="T T T"
O        0.00000000       0.00000000       0.00000000      -1.12061143       0.30087605      -1.99462772
H        0.00000000       0.00000000       0.00000000       0.41408575       0.09342156       0.09350491
H        0.00000000       0.00000000       0.00000000       0.24277395      -0.73096246       1.54395390
O        0.00000000       0.00000000       0.00000000       1.50928629      -1.51804352      -1.27784252
H        0.00000000       0.00000000       0.00000000       0.23175886       0.06927346       0.56537765
H        0.00000000       0.00000000       0.00000000      -1.09039927       0.29929584       0.83299804
H        0.00000000       0.00000000       0.00000000      -0.18689421       1.48613906       0.23663539
7
Lattice="529.1772105638412 0.0 0.0 0.0 529.1772105638412 0.0 0.0 0.0 529.1772105638412" Properties=species:S:1:pos:R:3:forces_component_raw:R:3 ipi_comment="Step:        4120  Bead:       0 forces_component_raw{ase}  cell{ase}" pbc="T T T"
O        0.00000000       0.00000000       0.00000000      -0.22275835       0.70529908      -0.75830442
H        0.00000000       0.00000000       0.00000000       0.55300439       0.02683200       0.45841581
H        0.00000000       0.00000000       0.00000000      -0.11827450      -0.86187864       0.72080439
O        0.00000000       0.00000000       0.00000000       1.51105035      -1.79239440      -0.30402899
H        0.00000000       0.00000000       0.00000000      -0.40304196       0.38425464      -0.79638416
H        0.00000000       0.00000000       0.00000000      -0.31578070      -0.30693427       0.26948226
H        0.00000000       0.00000000       0.00000000      -1.00419927       1.84482170       0.41001511
7
Lattice="529.1772105638412 0.0 0.0 0.0 529.1772105638412 0.0 0.0 0.0 529.1772105638412" Properties=species:S:1:pos:R:3:forces_component_raw:R:3 ipi_comment="Step:        4140  Bead:       0 forces_component_raw{ase}  cell{ase}" pbc="T T T"
O        0.00000000       0.00000000       0.00000000      -0.52795839       1.28188253      -0.64478791
H        0.00000000       0.00000000       0.00000000       0.39490581      -0.21123704       0.13325100
H        0.00000000       0.00000000       0.00000000       0.44384396       0.16115040       0.24290758
O        0.00000000       0.00000000       0.00000000      -0.23592067      -2.20922208       0.05810535
H        0.00000000       0.00000000       0.00000000       0.24660994      -0.72994745       0.48165226
H        0.00000000       0.00000000       0.00000000       0.09509903       0.11931890      -0.10769749
H        0.00000000       0.00000000       0.00000000      -0.41657949       1.58805466      -0.16343093
7
Lattice="529.1772105638412 0.0 0.0 0.0 529.1772105638412 0.0 0.0 0.0 529.1772105638412" Properties=species:S:1:pos:R:3:forces_component_raw:R:3 ipi_comment="Step:        4160  Bead:       0 forces_component_raw{ase}  cell{ase}" pbc="T T T"
O        0.00000000       0.00000000       0.00000000       0.62222052      -0.51179898       0.50875867
H        0.00000000       0.00000000       0.00000000      -0.32833397       0.30272543      -0.17811424
H        0.00000000       0.00000000       0.00000000       0.12530230       0.05898649      -0.16672581
O        0.00000000       0.00000000       0.00000000       0.28592244      -0.46614498       0.72754705
H        0.00000000       0.00000000       0.00000000      -0.74586952       0.62568104      -0.27511132
H        0.00000000       0.00000000       0.00000000       0.58540172      -0.25297004      -0.55891097
H        0.00000000       0.00000000       0.00000000      -0.54464328       0.24352145      -0.05744344
7
Lattice="529.1772105638412 0.0 0.0 0.0 529.1772105638412 0.0 0.0 0.0 529.1772105638412" Properties=species:S:1:pos:R:3:forces_component_raw:R:3 ipi_comment="Step:        4180  Bead:       0 forces_component_raw{ase}  cell{ase}" pbc="T T T"
O        0.00000000       0.00000000       0.00000000       0.13208556      -0.47600389      -0.11443734
H        0.00000000       0.00000000       0.00000000      -0.35045981      -0.05359200       0.08928415
H        0.00000000       0.00000000       0.00000000      -0.23520680       0.28986013      -0.13685185
O        0.00000000       0.00000000       0.00000000      -1.38772750       0.12365413       0.84773457
H        0.00000000       0.00000000       0.00000000       0.78433603      -0.35830656       0.09967320
H        0.00000000       0.00000000       0.00000000       0.65638679      -0.02074754      -0.73037821
H        0.00000000       0.00000000       0.00000000       0.40058577       0.49513549      -0.05502483
7
Lattice="529.1772105638412 0.0 0.0 0.0 529.1772105638412 0.0 0.0 0.0 529.1772105638412" Properties=species:S:1:pos:R:3:forces_component_raw:R:3 ipi_comment="Step:        4200  Bead:       0 forces_component_raw{ase}  cell{ase}" pbc="T T T"
O        0.00000000       0.00000000       0.00000000      -0.08374792      -1.57470143      -0.48115432
H        0.00000000       0.00000000       0.00000000       0.21243739       0.61453027       0.27358601
H        0.00000000       0.00000000       0.00000000      -0.22169645      -0.07754344      -0.19978464
O        0.00000000       0.00000000       0.00000000       0.11464131       0.94638014       0.42999661
H        0.00000000       0.00000000       0.00000000      -0.64636487       0.36980993       0.39051116
H        0.00000000       0.00000000       0.00000000       0.93828958      -0.19530961      -0.56558210
H        0.00000000       0.00000000       0.00000000      -0.31355858      -0.08316600       0.15242717
7
Lattice="529.1772105638412 0.0 0.0 0.0 529.1772105638412 0.0 0.0 0.0 529.1772105638412" Properties=species:S:1:pos:R:3:forces_component_raw:R:3 ipi_comment="Step:        4220  Bead:       0 forces_component_raw{ase}  cell{ase}" pbc="T T T"
O        0.00000000       0.00000000       0.00000000      -0.06645922       1.04085565      -0.36353374
H        0.00000000       0.00000000       0.00000000      -0.43717343      -0.27997863       0.15267903
H        0.00000000       0.00000000       0.00000000      -0.24229907      -0.62311316       0.39404696
O        0.00000000       0.00000000       0.00000000      -0.20347598       0.29659462       0.77481592
H        0.00000000       0.00000000       0.00000000       0.69404769      -0.79393333      -0.55938518
H        0.00000000       0.00000000       0.00000000      -0.16777551       0.38001764      -0.15117615
H        0.00000000       0.00000000       0.00000000       0.42313558      -0.02044290      -0.24744725
7
Lattice="529.1772105638412 0.0 0.0 0.0 529.1772105638412 0.0 0.0 0.0 529.1772105638412" Properties=species:S:1:pos:R:3:forces_component_raw:R:3 ipi_comment="Step:        4240  Bead:       0 forces_component_raw{ase}  cell{ase}" pbc="T T T"
O        0.00000000       0.00000000       0.00000000      -1.07141686       0.30190346      -0.42621756
H        0.00000000       0.00000000       0.00000000       0.65877712       0.20753971      -0.15675914
H        0.00000000       0.00000000       0.00000000       0.35540617      -0.94254756       0.29971647
O        0.00000000       0.00000000       0.00000000       2.05138040       0.16493523      -0.72955311
H        0.00000000       0.00000000       0.00000000      -0.58094531       0.58969349       0.35825896
H        0.00000000       0.00000000       0.00000000      -0.76353461      -0.13982561       0.66754860
H        0.00000000       0.00000000       0.00000000      -0.64966697      -0.18169844      -0.01299435
7
Lattice="529.1772105638412 0.0 0.0 0.0 529.1772105638412 0.0 0.0 0.0 529.1772105638412" Properties=species:S:1:pos:R:3:forces_component_raw:R:3 ipi_comment="Step:        4260  Bead:       0 forces_component_raw{ase}  cell{ase}" pbc="T T T"
O        0.00000000       0.00000000       0.00000000      -1.29322028       1.99008120      -0.06488812
H        0.00000000       0.00000000       0.00000000       0.81935811      -0.56046736      -0.21690971
H        0.00000000       0.00000000       0.00000000       0.24630985      -1.18314946       0.61562544
O        0.00000000       0.00000000       0.00000000      -0.39036304       0.04493356       0.09569216
H        0.00000000       0.00000000       0.00000000       0.82884288      -0.16768387      -0.62206286
H        0.00000000       0.00000000       0.00000000      -0.58433283       0.05166954       0.25101996
H        0.00000000       0.00000000       0.00000000       0.37340522      -0.17538327      -0.05847703
7
Lattice="529.1772105638412 0.0 0.0 0.0 529.1772105638412 0.0 0.0 0.0 529.1772105638412" Properties=species:S:1:pos:R:3:forces_component_raw:R:3 ipi_comment="Step:        4280  Bead:       0 forces_component_raw{ase}  cell{ase}" pbc="T T T"
O        0.00000000       0.00000000       0.00000000       0.87337214       0.76206631       0.22929013
H        0.00000000       0.00000000       0.00000000      -0.37263262       0.35734600       0.02944362
H        0.00000000       0.00000000       0.00000000       0.52583575      -0.65193927       0.03434414
O        0.00000000       0.00000000       0.00000000       0.40787017      -0.28496015      -0.59542108
H        0.00000000       0.00000000       0.00000000      -0.68791557       0.30906630       0.01785951
H        0.00000000       0.00000000       0.00000000      -0.30529231      -0.30984053       0.18935525
H        0.00000000       0.00000000       0.00000000      -0.44123745      -0.18173862       0.09512875
7
Lattice="529.1772105638412 0.0 0.0 0.0 529.1772105638412 0.0 0.0 0.0 529.1772105638412" Properties=species:S:1:pos:R:3:forces_component_raw:R:3 ipi_comment="Step:        4300  Bead:       0 forces_component_raw{ase}  cell{ase}" pbc="T T T"
O        0.00000000       0.00000000       0.00000000       1.38074732       0.97382844      -0.17124236
H        0.00000000       0.00000000       0.00000000      -1.05417204      -0.03492433       0.09558451
H        0.00000000       0.00000000       0.00000000       0.23081511      -0.30476528       0.16751736
O        0.00000000       0.00000000       0.00000000      -2.57553268      -1.23658872      -0.19394425
H        0.00000000       0.00000000       0.00000000       0.61728841       0.11203301       0.34768412
H        0.00000000       0.00000000       0.00000000       0.86964727       0.09492195      -0.31244606
H        0.00000000       0.00000000       0.00000000       0.53120637       0.39549500       0.06684697
7
Lattice="529.1772105638412 0.0 0.0 0.0 529.1772105638412 0.0 0.0 0.0 529.1772105638412" Properties=species:S:1:pos:R:3:forces_component_raw:R:3 ipi_comment="Step:        4320  Bead:       0 forces_component_raw{ase}  cell{ase}" pbc="T T T"
O        0.00000000       0.00000000       0.00000000       1.10673857      -1.09366918      -0.08182383
H        0.00000000       0.00000000       0.00000000      -1.31181824       0.59583569       0.03260645
H        0.00000000       0.00000000       0.00000000       0.12696022       0.03967232      -0.13822967
O        0.00000000       0.00000000       0.00000000       0.10911959       0.62785459       0.68116385
H        0.00000000       0.00000000       0.00000000      -0.26678541       0.29791766       0.01685917
H        0.00000000       0.00000000       0.00000000       0.51333261      -0.84562254      -1.01735521
H        0.00000000       0.00000000       0.00000000      -0.27754751       0.37801153       0.50677908
7
Lattice="529.1772105638412 0.0 0.0 0.0 529.1772105638412 0.0 0.0 0.0 529.1772105638412" Properties=species:S:1:pos:R:3:forces_component_raw:R:3 ipi_comment="Step:        4340  Bead:       0 forces_component_raw{ase}  cell{ase}" pbc="T T T"
O        0.00000000       0.00000000       0.00000000      -0.01184082      -0.40794802       0.04802918
H        0.00000000       0.00000000       0.00000000      -0.89967358       0.35042101      -0.25273979
H        0.00000000       0.00000000       0.00000000       0.18731132       0.04169333      -0.03147143
O        0.00000000       0.00000000       0.00000000      -0.69042874       0.07059280       0.19550943
H        0.00000000       0.00000000       0.00000000       0.30618250      -0.43176237      -0.00719890
H        0.00000000       0.00000000       0.00000000       0.54845733       0.21649005       0.12778884
H        0.00000000       0.00000000       0.00000000       0.55999208       0.16051328      -0.07991725
7
Lattice="529.1772105638412 0.0 0.0 0.0 529.1772105638412 0.0 0.0 0.0 529.1772105638412" Properties=species:S:1:pos:R:3:forces_component_raw:R:3 ipi_comment="Step:        4360  Bead:       0 forces_component_raw{ase}  cell{ase}" pbc="T T T"
O        0.00000000       0.00000000       0.00000000      -1.41404307      -1.69963813       0.31746233
H        0.00000000       0.00000000       0.00000000       0.20647246       0.30109251      -0.00070374
H        0.00000000       0.00000000       0.00000000       0.23325574       0.49584785      -0.55743766
O        0.00000000       0.00000000       0.00000000       2.26016641       0.63144672      -0.19968635
H        0.00000000       0.00000000       0.00000000      -0.01741476       0.37711158       0.21073458
H        0.00000000       0.00000000       0.00000000      -0.62226153      -0.02764627       0.00949365
H        0.00000000       0.00000000       0.00000000      -0.64617515      -0.07821420       0.22013748
7
Lattice="529.1772105638412 0.0 0.0 0.0 529.1772105638412 0.0 0.0 0.0 529.1772105638412" Properties=species:S:1:pos:R:3:forces_component_raw:R:3 ipi_comment="Step:        4380  Bead:       0 forces_component_raw{ase}  cell{ase}" pbc="T T T"
O        0.00000000       0.00000000       0.00000000      -1.18711162       0.15599585       0.29654193
H        0.00000000       0.00000000       0.00000000       0.53724980      -1.23464597       0.61998510
H        0.00000000       0.00000000       0.00000000      -0.05830306       0.92962349      -0.86657405
O        0.00000000       0.00000000       0.00000000       1.15457821       0.05779174      -1.04299796
H        0.00000000       0.00000000       0.00000000       0.08753182      -0.28656396      -0.11141032
H        0.00000000       0.00000000       0.00000000      -0.90936655       0.26695451       0.87851000
H        0.00000000       0.00000000       0.00000000       0.37542147       0.11084425       0.22594523
7
Lattice="529.1772105638412 0.0 0.0 0.0 529.1772105638412 0.0 0.0 0.0 529.1772105638412" Properties=species:S:1:pos:R:3:forces_component_raw:R:3 ipi_comment="Step:        4400  Bead:       0 forces_component_raw{ase}  cell{ase}" pbc="T T T"
O        0.00000000       0.00000000       0.00000000      -3.02902556       0.44311112      -0.41570759
H        0.00000000       0.00000000       0.00000000       1.83030069      -1.19116307       0.59186930
H        0.00000000       0.00000000       0.00000000       0.80053544       0.37044817      -0.43028909
O        0.00000000       0.00000000       0.00000000       1.87896598       0.11799169      -0.45652938
H        0.00000000       0.00000000       0.00000000      -0.10177176       0.18139595       0.29570854
H        0.00000000       0.00000000       0.00000000      -0.81713671       0.14487813       0.12187558
H        0.00000000       0.00000000       0.00000000      -0.56186783      -0.06666213       0.29307270
7
Lattice="529.1772105638412 0.0 0.0 0.0 529.1772105638412 0.0 0.0 0.0 529.1772105638412" Properties=species:S:1:pos:R:3:forces_component_raw:R:3 ipi_comment="Step:        4420  Bead:       0 forces_component_raw{ase}  cell{ase}" pbc="T T T"
O        0.00000000       0.00000000       0.00000000      -0.39495617       0.55493528      -0.07401514
H        0.00000000       0.00000000       0.00000000       0.74432051      -1.16929341       1.14212513
H        0.00000000       0.00000000       0.00000000      -0.05862483       0.98723567      -0.92093146
O        0.00000000       0.00000000       0.00000000      -1.11968863      -0.59115696       0.83513785
H        0.00000000       0.00000000       0.00000000       1.09678579       0.25686818      -0.12092349
H        0.00000000       0.00000000       0.00000000      -0.27138352      -0.06864059       0.05505061
H        0.00000000       0.00000000       0.00000000       0.00354660       0.03005195      -0.91644383
7
Lattice="529.1772105638412 0.0 0.0 0.0 529.1772105638412 0.0 0.0 0.0 529.1772105638412" Properties=species:S:1:pos:R:3:forces_component_raw:R:3 ipi_comment="Step:        4440  Bead:       0 forces_component_raw{ase}  cell{ase}" pbc="T T T"
O        0.00000000       0.00000000       0.00000000      -0.65269566      -0.69969881       0.66426575
H        0.00000000       0.00000000       0.00000000       0.36781424       0.23515916      -0.24924868
H        0.00000000       0.00000000       0.00000000       1.09854663       0.79424089      -0.47192878
O        0.00000000       0.00000000       0.00000000      -0.66790313       0.22775161       1.01413870
H        0.00000000       0.00000000       0.00000000      -0.69899696      -0.02593816       0.44735068
H        0.00000000       0.00000000       0.00000000       0.85301060      -0.38157791      -0.40236265
H        0.00000000       0.00000000       0.00000000      -0.29977515      -0.14993677      -1.00221491
7
Lattice="529.1772105638412 0.0 0.0 0.0 529.1772105638412 0.0 0.0 0.0 529.1772105638412" Properties=species:S:1:pos:R:3:forces_component_raw:R:3 ipi_comment="Step:        4460  Bead:       0 forces_component_raw{ase}  cell{ase}" pbc="T T T"
O        0.00000000       0.00000000       0.00000000       1.11158049      -0.20695943       0.84583765
H        0.00000000       0.00000000       0.00000000      -0.73833156       0.01583761      -0.45034576
H        0.00000000       0.00000000       0.00000000      -0.32556200       0.22281772      -0.34029567
O        0.00000000       0.00000000       0.00000000      -0.56426072       0.75506365       2.74436331
H        0.00000000       0.00000000       0.00000000       0.43437836      -0.12493555      -0.44440258
H        0.00000000       0.00000000       0.00000000       0.43756759      -0.81143928      -1.06474948
H        0.00000000       0.00000000       0.00000000      -0.35537216       0.14961541      -1.29040766
7
Lattice="529.1772105638412 0.0 0.0 0.0 529.1772105638412 0.0 0.0 0.0 529.1772105638412" Properties=species:S:1:pos:R:3:forces_component_raw:R:3 ipi_comment="Step:        4480  Bead:       0 forces_component_raw{ase}  cell{ase}" pbc="T T T"
O        0.00000000       0.00000000       0.00000000       0.24989843       0.15951309      -0.01384771
H        0.00000000       0.00000000       0.00000000      -0.34529489       1.17332709      -0.63858128
H        0.00000000       0.00000000       0.00000000      -0.25850308      -1.46284771       0.17117016
O        0.00000000       0.00000000       0.00000000      -0.90065730       0.36491966      -0.16655082
H        0.00000000       0.00000000       0.00000000      -0.04670167       0.14724338       1.05006862
H        0.00000000       0.00000000       0.00000000       1.13836527      -0.15406096      -0.04275000
H        0.00000000       0.00000000       0.00000000       0.16289300      -0.22809467      -0.35950869
7
Lattice="529.1772105638412 0.0 0.0 0.0 529.1772105638412 0.0 0.0 0.0 529.1772105638412" Properties=species:S:1:pos:R:3:forces_component_raw:R:3 ipi_comment="Step:        4500  Bead:       0 forces_component_raw{ase}  cell{ase}" pbc="T T T"
O        0.00000000       0.00000000       0.00000000       1.29783798       0.05556250       1.42675937
H        0.00000000       0.00000000       0.00000000      -0.84133887       1.10918880      -0.93119979
H        0.00000000       0.00000000       0.00000000      -0.90765643      -1.57443035      -0.45687944
O        0.00000000       0.00000000       0.00000000       0.92693162       0.28880078       0.81767333
H        0.00000000       0.00000000       0.00000000       0.04788812      -0.02262190      -0.70218051
H        0.00000000       0.00000000       0.00000000      -0.24361861      -0.31465888      -0.66257543
H        0.00000000       0.00000000       0.00000000      -0.28004372       0.45815873       0.50840235
7
Lattice="529.1772105638412 0.0 0.0 0.0 529.1772105638412 0.0 0.0 0.0 529.1772105638412" Properties=species:S:1:pos:R:3:forces_component_raw:R:3 ipi_comment="Step:        4520  Bead:       0 forces_component_raw{ase}  cell{ase}" pbc="T T T"
O        0.00000000       0.00000000       0.00000000       0.36418846       0.68852210       1.21232331
H        0.00000000       0.00000000       0.00000000      -0.94357193       1.01479531      -0.67878211
H        0.00000000       0.00000000       0.00000000       0.14103079      -1.38690532      -0.52732623
O        0.00000000       0.00000000       0.00000000       0.76614011      -1.30694592      -1.93722797
H        0.00000000       0.00000000       0.00000000       0.23442073      -0.40610588      -0.20030013
H        0.00000000       0.00000000       0.00000000      -1.19517637       0.90343207       0.72685725
H        0.00000000       0.00000000       0.00000000       0.63296813       0.49320775       1.40445543
7
Lattice="529.1772105638412 0.0 0.0 0.0 529.1772105638412 0.0 0.0 0.0 529.1772105638412" Properties=species:S:1:pos:R:3:forces_component_raw:R:3 ipi_comment="Step:        4540  Bead:       0 forces_component_raw{ase}  cell{ase}" pbc="T T T"
O        0.00000000       0.00000000       0.00000000      -0.22831339       0.22184116       0.28338873
H        0.00000000       0.00000000       0.00000000       0.00081780       0.28499967       0.00396919
H        0.00000000       0.00000000       0.00000000       0.32252497      -0.44641298      -0.23056144
O        0.00000000       0.00000000       0.00000000       3.47890545      -2.06658817      -1.21049965
H        0.00000000       0.00000000       0.00000000      -0.40101886       0.19234723       0.30587184
H        0.00000000       0.00000000       0.00000000      -2.15605093       1.00514889      -0.17732941
H        0.00000000       0.00000000       0.00000000      -1.01686490       0.80866409       1.02516091
7
Lattice="529.1772105638412 0.0 0.0 0.0 529.1772105638412 0.0 0.0 0.0 529.1772105638412" Properties=species:S:1:pos:R:3:forces_component_raw:R:3 ipi_comment="Step:        4560  Bead:       0 forces_component_raw{ase}  cell{ase}" pbc="T T T"
O        0.00000000       0.00000000       0.00000000      -0.43716824       0.19949478       0.27852809
H        0.00000000       0.00000000       0.00000000       0.12485600      -0.28835636      -0.11015165
H        0.00000000       0.00000000       0.00000000       0.13899878       0.33069196      -0.01058310
O        0.00000000       0.00000000       0.00000000      -0.17649999      -1.21992493      -0.84335494
H        0.00000000       0.00000000       0.00000000       0.60850185      -0.28428963      -0.22958234
H        0.00000000       0.00000000       0.00000000      -1.02819252       1.13774169       0.44198677
H        0.00000000       0.00000000       0.00000000       0.76950401       0.12464240       0.47315729
7
Lattice="529.1772105638412 0.0 0.0 0.0 529.1772105638412 0.0 0.0 0.0 529.1772105638412" Properties=species:S:1:pos:R:3:forces_component_raw:R:3 ipi_comment="Step:        4580  Bead:       0 forces_component_raw{ase}  cell{ase}" pbc="T T T"
O        0.00000000       0.00000000       0.00000000      -0.35847566      -0.23379800      -0.94661451
H        0.00000000       0.00000000       0.00000000       0.83563900      -0.48921931       0.49417496
H        0.00000000       0.00000000       0.00000000       0.01977918       0.40263760       0.40216762
O        0.00000000       0.00000000       0.00000000       0.63293207       1.39158130       1.77594579
H        0.00000000       0.00000000       0.00000000      -0.37700990       0.20175213       0.12465148
H        0.00000000       0.00000000       0.00000000      -0.20398885      -0.67053223      -0.58193511
H        0.00000000       0.00000000       0.00000000      -0.54887563      -0.60242134      -1.26838994
7
Lattice="529.1772105638412 0.0 0.0 0.0 529.1772105638412 0.0 0.0 0.0 529.1772105638412" Properties=species:S:1:pos:R:3:forces_component_raw:R:3 ipi_comment="Step:        4600  Bead:       0 forces_component_raw{ase}  cell{ase}" pbc="T T T"
O        0.00000000       0.00000000       0.00000000      -0.58569729       0.32507598      -0.24598989
H        0.00000000       0.00000000       0.00000000       0.67821151      -0.54494965       0.25394073
H        0.00000000       0.00000000       0.00000000      -0.11089301       0.00323117       0.00030369
O        0.00000000       0.00000000       0.00000000      -0.86226154       2.87693501       1.78733826
H        0.00000000       0.00000000       0.00000000       0.28811756       0.06012721      -0.21014243
H        0.00000000       0.00000000       0.00000000       0.44573289      -0.25221026       0.55433667
H        0.00000000       0.00000000       0.00000000       0.14678982      -2.46820975      -2.13978696
7
Lattice="529.1772105638412 0.0 0.0 0.0 529.1772105638412 0.0 0.0 0.0 529.1772105638412" Properties=species:S:1:pos:R:3:forces_component_raw:R:3 ipi_comment="Step:        4620  Bead:       0 forces_component_raw{ase}  cell{ase}" pbc="T T T"
O        0.00000000       0.00000000       0.00000000       0.01191580       0.52409703       0.03266853
H        0.00000000       0.00000000       0.00000000      -0.07113147      -0.32078847      -0.10994726
H        0.00000000       0.00000000       0.00000000       0.00964248       0.00931853       0.03825980
O        0.00000000       0.00000000       0.00000000       0.59356785       2.02997113       2.17651654
H        0.00000000       0.00000000       0.00000000      -0.18188241      -0.16441995       0.17963535
H        0.00000000       0.00000000       0.00000000      -0.08495563      -0.34691149      -0.31431383
H        0.00000000       0.00000000       0.00000000      -0.27715650      -1.73126650      -2.00281883
7
Lattice="529.1772105638412 0.0 0.0 0.0 529.1772105638412 0.0 0.0 0.0 529.1772105638412" Properties=species:S:1:pos:R:3:forces_component_raw:R:3 ipi_comment="Step:        4640  Bead:       0 forces_component_raw{ase}  cell{ase}" pbc="T T T"
O        0.00000000       0.00000000       0.00000000       0.73948133       0.36617667      -0.13612646
H        0.00000000       0.00000000       0.00000000      -1.08715618       0.25641230      -0.22408707
H        0.00000000       0.00000000       0.00000000       0.17462555      -0.28700608       0.25429344
O        0.00000000       0.00000000       0.00000000      -0.47883487      -1.05826473      -0.59952819
H        0.00000000       0.00000000       0.00000000       0.51069874       0.02404656       0.22187072
H        0.00000000       0.00000000       0.00000000      -0.28133732       1.14297605       0.24144134
H        0.00000000       0.00000000       0.00000000       0.42252284      -0.44434065       0.24213642
7
Lattice="529.1772105638412 0.0 0.0 0.0 529.1772105638412 0.0 0.0 0.0 529.1772105638412" Properties=species:S:1:pos:R:3:forces_component_raw:R:3 ipi_comment="Step:        4660  Bead:       0 forces_component_raw{ase}  cell{ase}" pbc="T T T"
O        0.00000000       0.00000000       0.00000000       1.25068164      -0.30439246      -0.15484059
H        0.00000000       0.00000000       0.00000000      -1.09907806       1.00727511       0.03962708
H        0.00000000       0.00000000       0.00000000      -0.26694375      -0.97402460       0.07811964
O        0.00000000       0.00000000       0.00000000       1.81000638      -2.25832463       0.26836801
H        0.00000000       0.00000000       0.00000000      -0.29814589       0.27642325      -0.10807145
H        0.00000000       0.00000000       0.00000000      -1.16402304       1.08276010      -0.73167128
H        0.00000000       0.00000000       0.00000000      -0.23249739       1.17028308       0.60846847
7
Lattice="529.1772105638412 0.0 0.0 0.0 529.1772105638412 0.0 0.0 0.0 529.1772105638412" Properties=species:S:1:pos:R:3:forces_component_raw:R:3 ipi_comment="Step:        4680  Bead:       0 forces_component_raw{ase}  cell{ase}" pbc="T T T"
O        0.00000000       0.00000000       0.00000000       0.98414731      -1.01497293      -0.42973447
H        0.00000000       0.00000000       0.00000000      -1.15159941       1.33945573       0.20302740
H        0.00000000       0.00000000       0.00000000      -0.17999911      -0.42030388      -0.01793325
O        0.00000000       0.00000000       0.00000000      -0.65928638      -1.20422006      -1.31946945
H        0.00000000       0.00000000       0.00000000       0.29437620      -0.34260756       0.08122432
H        0.00000000       0.00000000       0.00000000      -0.45668751       0.95098287       0.13470498
H        0.00000000       0.00000000       0.00000000       1.16904867       0.69166589       1.34818030
7
Lattice="529.1772105638412 0.0 0.0 0.0 529.1772105638412 0.0 0.0 0.0 529.1772105638412" Properties=species:S:1:pos:R:3:forces_component_raw:R:3 ipi_comment="Step:        4700  Bead:       0 forces_component_raw{ase}  cell{ase}" pbc="T T T"
O        0.00000000       0.00000000       0.00000000       1.02057719      -0.94502449      -0.05854118
H        0.00000000       0.00000000       0.00000000      -0.42688882       1.00349403       0.20889792
H        0.00000000       0.00000000       0.00000000      -0.34847933      -0.43490666      -0.06794202
O        0.00000000       0.00000000       0.00000000       0.53753185      -0.56650120      -0.21066904
H        0.00000000       0.00000000       0.00000000      -0.42773438       0.30256963      -0.05548137
H        0.00000000       0.00000000       0.00000000      -0.08055460      -0.73757452      -0.35354704
H        0.00000000       0.00000000       0.00000000      -0.27445147       1.37794328       0.53728283
7
Lattice="529.1772105638412 0.0 0.0 0.0 529.1772105638412 0.0 0.0 0.0 529.1772105638412" Properties=species:S:1:pos:R:3:forces_component_raw:R:3 ipi_comment="Step:        4720  Bead:       0 forces_component_raw{ase}  cell{ase}" pbc="T T T"
O        0.00000000       0.00000000       0.00000000       0.38071799       0.76931083       0.04973090
H        0.00000000       0.00000000       0.00000000       0.20597839      -0.37783247       0.13770585
H        0.00000000       0.00000000       0.00000000      -0.14865327      -0.17427588       0.13215566
O        0.00000000       0.00000000       0.00000000      -2.12124110       0.37846324      -2.01828433
H        0.00000000       0.00000000       0.00000000       0.63240051       0.06494577      -0.02045184
H        0.00000000       0.00000000       0.00000000       0.87876070      -0.85122699       1.10931683
H        0.00000000       0.00000000       0.00000000       0.17203662       0.19061565       0.60982692
7
Lattice="529.1772105638412 0.0 0.0 0.0 529.1772105638412 0.0 0.0 0.0 529.1772105638412" Properties=species:S:1:pos:R:3:forces_component_raw:R:3 ipi_comment="Step:        4740  Bead:       0 forces_component_raw{ase}  cell{ase}" pbc="T T T"
O        0.00000000       0.00000000       0.00000000      -1.02491331       0.94139475      -0.41211540
H        0.00000000       0.00000000       0.00000000       0.73746723      -0.80801213       0.48535237
H        0.00000000       0.00000000       0.00000000       0.55148482       0.10742447      -0.02499759
O        0.00000000       0.00000000       0.00000000      -0.43443218       2.34724474       0.21472406
H        0.00000000       0.00000000       0.00000000      -0.40702665      -0.12145530       0.02962297
H        0.00000000       0.00000000       0.00000000       0.94549799      -1.82935882       0.67118472
H        0.00000000       0.00000000       0.00000000      -0.36807790      -0.63723779      -0.96377129
7
Lattice="529.1772105638412 0.0 0.0 0.0 529.1772105638412 0.0 0.0 0.0 529.1772105638412" Properties=species:S:1:pos:R:3:forces_component_raw:R:3 ipi_comment="Step:        4760  Bead:       0 forces_component_raw{ase}  cell{ase}" pbc="T T T"
O        0.00000000       0.00000000       0.00000000      -0.82656086       0.29499364      -0.45008376
H        0.00000000       0.00000000       0.00000000       0.32617748      -0.74500412       0.88162130
H        0.00000000       0.00000000       0.00000000       0.06819367       0.25105530      -0.38528156
O        0.00000000       0.00000000       0.00000000      -1.11982632       2.23943997       0.16829681
H        0.00000000       0.00000000       0.00000000       0.67647261       0.20953129      -0.25013584
H        0.00000000       0.00000000       0.00000000       0.71237391      -0.91863692       0.85696608
H        0.00000000       0.00000000       0.00000000       0.16316941      -1.33137942      -0.82138288
7
Lattice="529.1772105638412 0.0 0.0 0.0 529.1772105638412 0.0 0.0 0.0 529.1772105638412" Properties=species:S:1:pos:R:3:forces_component_raw:R:3 ipi_comment="Step:        4780  Bead:       0 forces_component_raw{ase}  cell{ase}" pbc="T T T"
O        0.00000000       0.00000000       0.00000000      -1.85272861       0.25794172      -1.24426687
H        0.00000000       0.00000000       0.00000000       0.51550228      -0.54888857       0.70330995
H        0.00000000       0.00000000       0.00000000       0.47406167      -0.06628391      -0.00019503
O        0.00000000       0.00000000       0.00000000       2.05808449       0.96499521       1.64811790
H        0.00000000       0.00000000       0.00000000      -0.32554042       0.10668129       0.33064485
H        0.00000000       0.00000000       0.00000000      -0.43567225      -0.21545816      -0.43109030
H        0.00000000       0.00000000       0.00000000      -0.43370715      -0.49898768      -1.00652075
7
Lattice="529.1772105638412 0.0 0.0 0.0 529.1772105638412 0.0 0.0 0.0 529.1772105638412" Properties=species:S:1:pos:R:3:forces_component_raw:R:3 ipi_comment="Step:        4800  Bead:       0 forces_component_raw{ase}  cell{ase}" pbc="T T T"
O        0.00000000       0.00000000       0.00000000      -0.12291712      -0.41144300       0.01918151
H        0.00000000       0.00000000       0.00000000      -0.47649059       0.16268432      -0.26914012
H        0.00000000       0.00000000       0.00000000      -0.08924955       0.11521068      -0.13359857
O        0.00000000       0.00000000       0.00000000       0.23877800      -0.55419648       0.29566395
H        0.00000000       0.00000000       0.00000000       0.43302217      -0.19680327       0.09710282
H        0.00000000       0.00000000       0.00000000      -0.50068015       1.37459600      -0.05955786
H        0.00000000       0.00000000       0.00000000       0.51753730      -0.49004817       0.05034828
7
Lattice="529.1772105638412 0.0 0.0 0.0 529.1772105638412 0.0 0.0 0.0 529.1772105638412" Properties=species:S:1:pos:R:3:forces_component_raw:R:3 ipi_comment="Step:        4820  Bead:       0 forces_component_raw{ase}  cell{ase}" pbc="T T T"
O        0.00000000       0.00000000       0.00000000      -0.89444250       0.01693356       0.43149269
H        0.00000000       0.00000000       0.00000000       0.24057913       0.01648903      -0.55330235
H        0.00000000       0.00000000       0.00000000       0.27193648      -0.13160104       0.10843986
O        0.00000000       0.00000000       0.00000000       2.23162270      -2.50391222       0.74928570
H        0.00000000       0.00000000       0.00000000       0.09121546       0.14904331      -0.04661345
H        0.00000000       0.00000000       0.00000000      -1.54399419       1.82631040      -0.75720525
H        0.00000000       0.00000000       0.00000000      -0.39691702       0.62673700       0.06790316
7
Lattice="529.1772105638412 0.0 0.0 0.0 529.1772105638412 0.0 0.0 0.0 529.1772105638412" Properties=species:S:1:pos:R:3:forces_component_raw:R:3 ipi_comment="Step:        4840  Bead:       0 forces_component_raw{ase}  cell{ase}" pbc="T T T"
O        0.00000000       0.00000000       0.00000000       2.32917214       0.30656445       0.66286510
H        0.00000000       0.00000000       0.00000000      -0.27271348       0.04361868       0.04136860
H        0.00000000       0.00000000       0.00000000      -0.53298509       0.10115469      -0.14017755
O        0.00000000       0.00000000       0.00000000       0.59694100      -2.66450024      -0.80365753
H        0.00000000       0.00000000       0.00000000      -0.67940229      -0.17419328      -0.23761356
H        0.00000000       0.00000000       0.00000000      -1.93782592       2.79624963       0.06420296
H        0.00000000       0.00000000       0.00000000       0.49681366      -0.40889424       0.41301197
7
Lattice="529.1772105638412 0.0 0.0 0.0 529.1772105638412 0.0 0.0 0.0 529.1772105638412" Properties=species:S:1:pos:R:3:forces_component_raw:R:3 ipi_comment="Step:        4860  Bead:       0 forces_component_raw{ase}  cell{ase}" pbc="T T T"
O        0.00000000       0.00000000       0.00000000       0.26689142       0.51205230      -0.13669002
H        0.00000000       0.00000000       0.00000000       0.51224512      -0.16811571      -0.00880694
H        0.00000000       0.00000000       0.00000000       0.05390799       0.01655275       0.42668638
O        0.00000000       0.00000000       0.00000000       0.67686415      -1.20172894       0.28444028
H        0.00000000       0.00000000       0.00000000       0.68283415      -0.47892162       0.25124493
H        0.00000000       0.00000000       0.00000000      -1.49543536       0.89041984      -0.65668392
H        0.00000000       0.00000000       0.00000000      -0.69730747       0.42974123      -0.16019034
7
Lattice="529.1772105638412 0.0 0.0 0.0 529.1772105638412 0.0 0.0 0.0 529.1772105638412" Properties=species:S:1:pos:R:3:forces_component_raw:R:3 ipi_comment="Step:        4880  Bead:       0 forces_component_raw{ase}  cell{ase}" pbc="T T T"
O        0.00000000       0.00000000       0.00000000       0.34888753      -0.24193478       1.20706833
H        0.00000000       0.00000000       0.00000000      -0.17098196       0.39893884       0.12030619
H        0.00000000       0.00000000       0.00000000       0.42883274      -0.24474305      -0.83340544
O        0.00000000       0.00000000       0.00000000      -1.57251156       0.48012680      -0.65341401
H        0.00000000       0.00000000       0.00000000      -0.29197604       0.44444752      -0.52474922
H        0.00000000       0.00000000       0.00000000       0.75803352      -0.00920558       0.82518482
H        0.00000000       0.00000000       0.00000000       0.49971587      -0.82762981      -0.14099091
7
Lattice="529.1772105638412 0.0 0.0 0.0 529.1772105638412 0.0 0.0 0.0 529.1772105638412" Properties=species:S:1:pos:R:3:forces_component_raw:R:3 ipi_comment="Step:        4900  Bead:       0 forces_component_raw{ase}  cell{ase}" pbc="T T T"
O        0.00000000       0.00000000       0.00000000      -1.73958135       0.30873549       0.69585610
H        0.00000000       0.00000000       0.00000000       0.04711831      -0.08480173      -0.52762014
H        0.00000000       0.00000000       0.00000000       1.06340742      -0.52319443      -0.46804482
O        0.00000000       0.00000000       0.00000000       1.05627382       2.28334594       1.66805768
H        0.00000000       0.00000000       0.00000000      -0.17931655      -0.11758649       0.13512677
H        0.00000000       0.00000000       0.00000000       0.25992483      -2.17980934      -0.93762517
H        0.00000000       0.00000000       0.00000000      -0.50782651       0.31331077      -0.56575048
7
Lattice="529.1772105638412 0.0 0.0 0.0 529.1772105638412 0.0 0.0 0.0 529.1772105638412" Properties=species:S:1:pos:R:3:forces_component_raw:R:3 ipi_comment="Step:        4920  Bead:       0 forces_component_raw{ase}  cell{ase}" pbc="T T T"
O        0.00000000       0.00000000       0.00000000      -0.52612770      -0.18085051       0.62538153
H        0.00000000       0.00000000       0.00000000      -0.40167978       0.11643666      -0.22159272
H        0.00000000       0.00000000       0.00000000       0.38711161      -0.12894258      -0.62099826
O        0.00000000       0.00000000       0.00000000      -2.53869248       2.53885127       0.30685759
H        0.00000000       0.00000000       0.00000000       0.81639201       0.40949875       0.19143266
H        0.00000000       0.00000000       0.00000000       1.89286733      -1.81773985       0.61098516
H        0.00000000       0.00000000       0.00000000       0.37012881      -0.93725372      -0.89206588
7
Lattice="529.1772105638412 0.0 0.0 0.0 529.1772105638412 0.0 0.0 0.0 529.1772105638412" Properties=species:S:1:pos:R:3:forces_component_raw:R:3 ipi_comment="Step:        4940  Bead:       0 forces_component_raw{ase}  cell{ase}" pbc="T T T"
O        0.00000000       0.00000000       0.00000000      -0.25352424      -0.00380731      -0.62327600
H        0.00000000       0.00000000       0.00000000       0.04693419      -0.05870563       0.01673430
H        0.00000000       0.00000000       0.00000000      -0.79449105      -0.07193327       0.50213897
O        0.00000000       0.00000000       0.00000000       0.63504052       2.17786026       1.80442536
H        0.00000000       0.00000000       0.00000000      -0.33058792      -0.28539825      -0.15022582
H        0.00000000       0.00000000       0.00000000       1.35274852      -2.00224972      -1.09001661
H        0.00000000       0.00000000       0.00000000      -0.65611988       0.24423409      -0.45978034
7
Lattice="529.1772105638412 0.0 0.0 0.0 529.1772105638412 0.0 0.0 0.0 529.1772105638412" Properties=species:S:1:pos:R:3:forces_component_raw:R:3 ipi_comment="Step:        4960  Bead:       0 forces_component_raw{ase}  cell{ase}" pbc="T T T"
O        0.00000000       0.00000000       0.00000000      -0.14739090       0.43083704      -1.16206885
H        0.00000000       0.00000000       0.00000000       0.18221647      -0.17694977       0.45387697
H        0.00000000       0.00000000       0.00000000      -0.36786151      -0.16936298       0.48051652
O        0.00000000       0.00000000       0.00000000      -1.94877160       0.23558867      -1.55338025
H        0.00000000       0.00000000       0.00000000       0.24857487      -0.06925321       0.19624168
H        0.00000000       0.00000000       0.00000000       1.22196102      -0.40929556       0.46316594
H        0.00000000       0.00000000       0.00000000       0.81127203       0.15843570       1.12164784
7
Lattice="529.1772105638412 0.0 0.0 0.0 529.1772105638412 0.0 0.0 0.0 529.1772105638412" Properties=species:S:1:pos:R:3:forces_component_raw:R:3 ipi_comment="Step:        4980  Bead:       0 forces_component_raw{ase}  cell{ase}" pbc="T T T"
O        0.00000000       0.00000000       0.00000000       1.04071737       0.71386415      -0.42273751
H        0.00000000       0.00000000       0.00000000       0.21714830      -0.29398459       0.61131144
H        0.00000000       0.00000000       0.00000000      -0.21793455      -0.10160068       0.11669898
O        0.00000000       0.00000000       0.00000000       0.57876969      -2.18329049      -2.04022384
H        0.00000000       0.00000000       0.00000000      -0.24964096      -0.14098574      -0.11385390
H        0.00000000       0.00000000       0.00000000      -0.97542954       0.43543613      -0.41496235
H        0.00000000       0.00000000       0.00000000      -0.39363045       1.57056094       2.26376749
7
Lattice="529.1772105638412 0.0 0.0 0.0 529.1772105638412 0.0 0.0 0.0 529.1772105638412" Properties=species:S:1:pos:R:3:forces_component_raw:R:3 ipi_comment="Step:        5000  Bead:       0 forces_component_raw{ase}  cell{ase}" pbc="T T T"
O        0.00000000       0.00000000       0.00000000      -0.09681201      -0.40802837       0.94972104
H        0.00000000       0.00000000       0.00000000       0.33880138       0.09883964      -0.02378947
H        0.00000000       0.00000000       0.00000000       0.69480187       0.37782204      -0.42328262
O        0.00000000       0.00000000       0.00000000      -1.52544260      -2.50885654      -2.99930430
H        0.00000000       0.00000000       0.00000000       0.28979898       0.39927667      -0.37173319
H        0.00000000       0.00000000       0.00000000      -0.75321901       1.24770642       0.53576160
H        0.00000000       0.00000000       0.00000000       1.05207134       0.79323995       2.33262682
7
Lattice="529.1772105638412 0.0 0.0 0.0 529.1772105638412 0.0 0.0 0.0 529.1772105638412" Properties=species:S:1:pos:R:3:forces_component_raw:R:3 ipi_comment="Step:        5020  Bead:       0 forces_component_raw{ase}  cell{ase}" pbc="T T T"
O        0.00000000       0.00000000       0.00000000       0.05017352      -0.17214894       0.07760096
H        0.00000000       0.00000000       0.00000000      -0.37579340      -0.03687400      -0.14145985
H        0.00000000       0.00000000       0.00000000       0.39036167       0.45649517      -0.28777367
O        0.00000000       0.00000000       0.00000000       1.43066383      -2.34775782      -1.90662098
H        0.00000000       0.00000000       0.00000000      -0.27923060      -0.38985807       0.66723567
H        0.00000000       0.00000000       0.00000000      -1.18960691       1.06580186      -0.23053777
H        0.00000000       0.00000000       0.00000000      -0.02656820       1.42434204       1.82155538
7
Lattice="529.1772105638412 0.0 0.0 0.0 529.1772105638412 0.0 0.0 0.0 529.1772105638412" Properties=species:S:1:pos:R:3:forces_component_raw:R:3 ipi_comment="Step:        5040  Bead:       0 forces_component_raw{ase}  cell{ase}" pbc="T T T"
O        0.00000000       0.00000000       0.00000000      -0.76586968      -0.59676951       0.05817986
H        0.00000000       0.00000000       0.00000000       0.15944517       0.57234985      -0.14908901
H        0.00000000       0.00000000       0.00000000      -0.04719859      -0.48213288       0.10328931
O        0.00000000       0.00000000       0.00000000      -0.19869931      -0.36552453      -0.08672273
H        0.00000000       0.00000000       0.00000000       0.38803059       0.42280960      -0.49848026
H        0.00000000       0.00000000       0.00000000      -0.18483377       0.58943713       0.35032508
H        0.00000000       0.00000000       0.00000000       0.64912540      -0.14016944       0.22249758
7
Lattice="529.1772105638412 0.0 0.0 0.0 529.1772105638412 0.0 0.0 0.0 529.1772105638412" Properties=species:S:1:pos:R:3:forces_component_raw:R:3 ipi_comment="Step:        5060  Bead:       0 forces_component_raw{ase}  cell{ase}" pbc="T T T"
O        0.00000000       0.00000000       0.00000000       0.90105510       0.47148165      -0.86879325
H        0.00000000       0.00000000       0.00000000      -0.51062167      -0.34093756       0.23505567
H        0.00000000       0.00000000       0.00000000      -1.04319704      -0.19748569       0.28970385
O        0.00000000       0.00000000       0.00000000       1.02611649       2.01766587       2.05598164
H        0.00000000       0.00000000       0.00000000      -0.18003301      -0.21342623       0.29513264
H        0.00000000       0.00000000       0.00000000       0.29999954      -0.56235492      -0.22005430
H        0.00000000       0.00000000       0.00000000      -0.49331936      -1.17494285      -1.78702581
7
Lattice="529.1772105638412 0.0 0.0 0.0 529.1772105638412 0.0 0.0 0.0 529.1772105638412" Properties=species:S:1:pos:R:3:forces_component_raw:R:3 ipi_comment="Step:        5080  Bead:       0 forces_component_raw{ase}  cell{ase}" pbc="T T T"
O        0.00000000       0.00000000       0.00000000      -0.37831199      -0.14999133      -0.40895152
H        0.00000000       0.00000000       0.00000000       0.21962494       0.79255051      -0.06539220
H        0.00000000       0.00000000       0.00000000      -0.26898688      -0.87965024       0.31951135
O        0.00000000       0.00000000       0.00000000      -1.26585043       2.85357643       1.74403775
H        0.00000000       0.00000000       0.00000000       0.36507106       0.23398843       0.05325300
H        0.00000000       0.00000000       0.00000000       1.19882512      -0.33669818       0.77868825
H        0.00000000       0.00000000       0.00000000       0.12962836      -2.51377535      -2.42114664
7
Lattice="529.1772105638412 0.0 0.0 0.0 529.1772105638412 0.0 0.0 0.0 529.1772105638412" Properties=species:S:1:pos:R:3:forces_component_raw:R:3 ipi_comment="Step:        5100  Bead:       0 forces_component_raw{ase}  cell{ase}" pbc="T T T"
O        0.00000000       0.00000000       0.00000000       1.88198317      -0.44254148       0.55218685
H        0.00000000       0.00000000       0.00000000      -0.66792268       0.27898222       0.26488608
H        0.00000000       0.00000000       0.00000000      -0.30832127       0.43412364      -0.08260250
O        0.00000000       0.00000000       0.00000000      -0.13218886       2.41648460       2.48136831
H        0.00000000       0.00000000       0.00000000      -0.20040897      -0.41418544      -0.85041332
H        0.00000000       0.00000000       0.00000000      -0.03153980      -0.70492166      -0.39163780
H        0.00000000       0.00000000       0.00000000      -0.54160154      -1.56794191      -1.97378779
7
Lattice="529.1772105638412 0.0 0.0 0.0 529.1772105638412 0.0 0.0 0.0 529.1772105638412" Properties=species:S:1:pos:R:3:forces_component_raw:R:3 ipi_comment="Step:        5120  Bead:       0 forces_component_raw{ase}  cell{ase}" pbc="T T T"
O        0.00000000       0.00000000       0.00000000       0.77940273      -1.22543812       0.25790083
H        0.00000000       0.00000000       0.00000000      -0.50595969       0.95578647      -0.01127106
H        0.00000000       0.00000000       0.00000000       0.94877750       0.65868473      -0.26095057
O        0.00000000       0.00000000       0.00000000      -1.80940128      -0.50856269      -1.14712763
H        0.00000000       0.00000000       0.00000000       0.16467482       0.30082643       0.70837844
H        0.00000000       0.00000000       0.00000000       0.43541342       0.26418597       0.46857613
H        0.00000000       0.00000000       0.00000000      -0.01290749      -0.44548291      -0.01550591
7
Lattice="529.1772105638412 0.0 0.0 0.0 529.1772105638412 0.0 0.0 0.0 529.1772105638412" Properties=species:S:1:pos:R:3:forces_component_raw:R:3 ipi_comment="Step:        5140  Bead:       0 forces_component_raw{ase}  cell{ase}" pbc="T T T"
O        0.00000000       0.00000000       0.00000000      -0.07542098      -2.58573843       1.21520257
H        0.00000000       0.00000000       0.00000000      -0.94499070       0.62740219       0.02987808
H        0.00000000       0.00000000       0.00000000       0.99769318       2.00409699      -0.99828470
O        0.00000000       0.00000000       0.00000000       0.75922173      -1.78541315      -0.23127520
H        0.00000000       0.00000000       0.00000000      -0.08687533      -0.06481642      -0.49842674
H        0.00000000       0.00000000       0.00000000      -0.67980933       0.77215034      -0.36587268
H        0.00000000       0.00000000       0.00000000       0.03018162       1.03231848       0.84877837
7
Lattice="529.1772105638412 0.0 0.0 0.0 529.1772105638412 0.0 0.0 0.0 529.1772105638412" Properties=species:S:1:pos:R:3:forces_component_raw:R:3 ipi_comment="Step:        5160  Bead:       0 forces_component_raw{ase}  cell{ase}" pbc="T T T"
O        0.00000000       0.00000000       0.00000000      -2.35847641      -0.69964928       0.08355713
H        0.00000000       0.00000000       0.00000000       0.60105640      -0.17651475       0.02873132
H        0.00000000       0.00000000       0.00000000       0.86636150       0.64890862      -0.32907900
O        0.00000000       0.00000000       0.00000000       0.96651197      -2.60595370      -1.04380656
H        0.00000000       0.00000000       0.00000000       0.02972643       0.01600093      -0.16554648
H        0.00000000       0.00000000       0.00000000      -0.78720594       1.75953544      -0.26938701
H        0.00000000       0.00000000       0.00000000       0.68202627       1.05767274       1.69553066
7
Lattice="529.1772105638412 0.0 0.0 0.0 529.1772105638412 0.0 0.0 0.0 529.1772105638412" Properties=species:S:1:pos:R:3:forces_component_raw:R:3 ipi_comment="Step:        5180  Bead:       0 forces_component_raw{ase}  cell{ase}" pbc="T T T"
O        0.00000000       0.00000000       0.00000000      -0.78018660       0.46195769      -0.35692096
H        0.00000000       0.00000000       0.00000000       0.16892010      -1.19664955       0.33826351
H        0.00000000       0.00000000       0.00000000       0.03071922       0.75289124      -0.28493500
O        0.00000000       0.00000000       0.00000000       1.22553528      -1.13843084      -0.94359100
H        0.00000000       0.00000000       0.00000000      -0.24684903      -0.08059123       0.50032711
H        0.00000000       0.00000000       0.00000000      -0.25062612       0.25319356      -0.16916221
H        0.00000000       0.00000000       0.00000000      -0.14751272       0.94762922       0.91601861
7
Lattice="529.1772105638412 0.0 0.0 0.0 529.1772105638412 0.0 0.0 0.0 529.1772105638412" Properties=species:S:1:pos:R:3:forces_component_raw:R:3 ipi_comment="Step:        5200  Bead:       0 forces_component_raw{ase}  cell{ase}" pbc="T T T"
O        0.00000000       0.00000000       0.00000000      -1.03513241       1.74536252      -0.79893130
H        0.00000000       0.00000000       0.00000000       0.65912926      -0.97941733       0.56464481
H        0.00000000       0.00000000       0.00000000      -0.45187318      -0.63707352       0.15672118
O        0.00000000       0.00000000       0.00000000       0.15101804       0.78978032       0.48202324
H        0.00000000       0.00000000       0.00000000       0.05805661      -0.36449587      -0.42394060
H        0.00000000       0.00000000       0.00000000       0.51788914      -0.57424015       0.11000711
H        0.00000000       0.00000000       0.00000000       0.10091247       0.02008390      -0.09052461
7
Lattice="529.1772105638412 0.0 0.0 0.0 529.1772105638412 0.0 0.0 0.0 529.1772105638412" Properties=species:S:1:pos:R:3:forces_component_raw:R:3 ipi_comment="Step:        5220  Bead:       0 forces_component_raw{ase}  cell{ase}" pbc="T T T"
O        0.00000000       0.00000000       0.00000000       1.08027411       1.26140261      -0.33947069
H        0.00000000       0.00000000       0.00000000      -0.05193436      -0.25962198       0.25530249
H        0.00000000       0.00000000       0.00000000      -1.12597800      -1.02464247       0.04161515
O        0.00000000       0.00000000       0.00000000      -0.44792867       1.32260096       0.44965053
H        0.00000000       0.00000000       0.00000000      -0.26614624       0.15084893      -0.08204456
H        0.00000000       0.00000000       0.00000000       1.00807262      -0.76850468       0.28117019
H        0.00000000       0.00000000       0.00000000      -0.19635947      -0.68208319      -0.60622305
7
Lattice="529.1772105638412 0.0 0.0 0.0 529.1772105638412 0.0 0.0 0.0 529.1772105638412" Properties=species:S:1:pos:R:3:forces_component_raw:R:3 ipi_comment="Step:        5240  Bead:       0 forces_component_raw{ase}  cell{ase}" pbc="T T T"
O        0.00000000       0.00000000       0.00000000       1.44133997       0.66848231       1.64025057
H        0.00000000       0.00000000       0.00000000      -0.21211128       0.63737035      -1.31375861
H        0.00000000       0.00000000       0.00000000      -0.72375405      -1.19058645      -0.29269782
O        0.00000000       0.00000000       0.00000000      -0.47947025       1.72755218       0.69145382
H        0.00000000       0.00000000       0.00000000      -0.11489919      -0.26040021       0.12073946
H        0.00000000       0.00000000       0.00000000       0.51792592      -1.29897523      -0.21551508
H        0.00000000       0.00000000       0.00000000      -0.42903084      -0.28344280      -0.63047254
7
Lattice="529.1772105638412 0.0 0.0 0.0 529.1772105638412 0.0 0.0 0.0 529.1772105638412" Properties=species:S:1:pos:R:3:forces_component_raw:R:3 ipi_comment="Step:        5260  Bead:       0 forces_component_raw{ase}  cell{ase}" pbc="T T T"
O        0.00000000       0.00000000       0.00000000      -0.05224447       0.81442285       1.88100088
H        0.00000000       0.00000000       0.00000000       0.87518710       0.49896157      -1.44662154
H        0.00000000       0.00000000       0.00000000      -0.64032775      -1.40150476      -0.08526507
O        0.00000000       0.00000000       0.00000000      -1.58500398       1.00404656      -0.26938796
H        0.00000000       0.00000000       0.00000000       0.59586972       0.03979921      -0.17340517
H        0.00000000       0.00000000       0.00000000       0.57423264      -0.57786209       0.22510669
H        0.00000000       0.00000000       0.00000000       0.23228669      -0.37786341      -0.13142788
7
Lattice="529.1772105638412 0.0 0.0 0.0 529.1772105638412 0.0 0.0 0.0 529.1772105638412" Properties=species:S:1:pos:R:3:forces_component_raw:R:3 ipi_comment="Step:        5280  Bead:       0 forces_component_raw{ase}  cell{ase}" pbc="T T T"
O        0.00000000       0.00000000       0.00000000       1.24560619       0.40827215       2.00078607
H        0.00000000       0.00000000       0.00000000       0.21888286       0.59652400      -2.22059107
H        0.00000000       0.00000000       0.00000000      -0.49434054      -1.09282375       0.13260227
O        0.00000000       0.00000000       0.00000000       0.18592113       0.01773602      -0.81525934
H        0.00000000       0.00000000       0.00000000      -1.05863977       0.15498593       0.52768636
H        0.00000000       0.00000000       0.00000000      -0.07615806      -0.41551828      -0.01770020
H        0.00000000       0.00000000       0.00000000      -0.02127168       0.33082390       0.39247573
7
Lattice="529.1772105638412 0.0 0.0 0.0 529.1772105638412 0.0 0.0 0.0 529.1772105638412" Properties=species:S:1:pos:R:3:forces_component_raw:R:3 ipi_comment="Step:        5300  Bead:       0 forces_component_raw{ase}  cell{ase}" pbc="T T T"
O        0.00000000       0.00000000       0.00000000      -0.44407493       0.66181874       1.68047309
H        0.00000000       0.00000000       0.00000000       0.35743803       0.30273509      -1.54374457
H        0.00000000       0.00000000       0.00000000      -0.76497322      -1.00273240       0.06185277
O        0.00000000       0.00000000       0.00000000      -0.38048613      -0.00673926      -0.55647481
H        0.00000000       0.00000000       0.00000000       0.39268825      -0.18266967      -0.66829622
H        0.00000000       0.00000000       0.00000000      -0.03385139      -0.04399610       0.12456802
H        0.00000000       0.00000000       0.00000000       0.87325937       0.27158397       0.90162176
7
Lattice="529.1772105638412 0.0 0.0 0.0 529.1772105638412 0.0 0.0 0.0 529.1772105638412" Properties=species:S:1:pos:R:3:forces_component_raw:R:3 ipi_comment="Step:        5320  Bead:       0 forces_component_raw{ase}  cell{ase}" pbc="T T T"
O        0.00000000       0.00000000       0.00000000       0.38676819       0.14917320       0.09342456
H        0.00000000       0.00000000       0.00000000      -0.38508770       0.09620343      -0.37102354
H        0.00000000       0.00000000       0.00000000      -0.28197616      -0.20466501      -0.06135171
O        0.00000000       0.00000000       0.00000000       0.03103796      -1.70593453      -0.87716472
H        0.00000000       0.00000000       0.00000000       0.12820038       0.19873047       0.50777811
H        0.00000000       0.00000000       0.00000000      -0.15697032       0.10236573      -0.33136273
H        0.00000000       0.00000000       0.00000000       0.27802777       1.36412669       1.03970003
7
Lattice="529.1772105638412 0.0 0.0 0.0 529.1772105638412 0.0 0.0 0.0 529.1772105638412" Properties=species:S:1:pos:R:3:forces_component_raw:R:3 ipi_comment="Step:        5340  Bead:       0 forces_component_raw{ase}  cell{ase}" pbc="T T T"
O        0.00000000       0.00000000       0.00000000      -0.10415691       0.02555436       0.05425300
H        0.00000000       0.00000000       0.00000000      -0.24940562      -0.22417939       0.22485381
H        0.00000000       0.00000000       0.00000000       0.29907507       0.37078020      -0.29943419
O        0.00000000       0.00000000       0.00000000      -0.53121555      -0.97873855      -0.98951912
H        0.00000000       0.00000000       0.00000000      -0.04227067      -0.22158194      -0.16354537
H        0.00000000       0.00000000       0.00000000       0.03184034       0.51181567       0.16997629
H        0.00000000       0.00000000       0.00000000       0.59613347       0.51634961       1.00341559
7
Lattice="529.1772105638412 0.0 0.0 0.0 529.1772105638412 0.0 0.0 0.0 529.1772105638412" Properties=species:S:1:pos:R:3:forces_component_raw:R:3 ipi_comment="Step:        5360  Bead:       0 forces_component_raw{ase}  cell{ase}" pbc="T T T"
O        0.00000000       0.00000000       0.00000000      -0.58694762       0.85119689       0.67478478
H        0.00000000       0.00000000       0.00000000       0.30142489      -1.36759091       0.70039702
H        0.00000000       0.00000000       0.00000000       1.09255481       0.23600107      -0.81449092
O        0.00000000       0.00000000       0.00000000       0.16007952      -0.51814354       0.19610131
H        0.00000000       0.00000000       0.00000000      -0.38793355       0.10473697      -0.46317023
H        0.00000000       0.00000000       0.00000000      -0.38798049       0.21579564      -0.33574271
H        0.00000000       0.00000000       0.00000000      -0.19119768       0.47800362       0.04212081
7
Lattice="529.1772105638412 0.0 0.0 0.0 529.1772105638412 0.0 0.0 0.0 529.1772105638412" Properties=species:S:1:pos:R:3:forces_component_raw:R:3 ipi_comment="Step:        5380  Bead:       0 forces_component_raw{ase}  cell{ase}" pbc="T T T"
O        0.00000000       0.00000000       0.00000000      -1.10868478       0.35215747       0.09200406
H        0.00000000       0.00000000       0.00000000      -0.33380181      -1.22288299       0.95685828
H        0.00000000       0.00000000       0.00000000       1.94345284       0.69718295      -1.40961159
O        0.00000000       0.00000000       0.00000000      -1.06742978       0.45002371      -0.59069526
H        0.00000000       0.00000000       0.00000000      -0.00185180       0.10790689       0.70513880
H        0.00000000       0.00000000       0.00000000       0.38161963       0.05923462       0.39953026
H        0.00000000       0.00000000       0.00000000       0.18669570      -0.44362262      -0.15322477
7
Lattice="529.1772105638412 0.0 0.0 0.0 529.1772105638412 0.0 0.0 0.0 529.1772105638412" Properties=species:S:1:pos:R:3:forces_component_raw:R:3 ipi_comment="Step:        5400  Bead:       0 forces_component_raw{ase}  cell{ase}" pbc="T T T"
O        0.00000000       0.00000000       0.00000000      -1.12698329       0.43477655       1.62944532
H        0.00000000       0.00000000       0.00000000       0.49347851      -0.94168508       0.26200542
H        0.00000000       0.00000000       0.00000000       1.33276332       0.04483517      -1.19857729
O        0.00000000       0.00000000       0.00000000       0.69136983       0.38728726       1.58649886
H        0.00000000       0.00000000       0.00000000      -0.53468299       0.05656390      -1.03408659
H        0.00000000       0.00000000       0.00000000      -0.51191151       0.06347561      -0.35792354
H        0.00000000       0.00000000       0.00000000      -0.34403390      -0.04525349      -0.88736201
7
Lattice="529.1772105638412 0.0 0.0 0.0 529.1772105638412 0.0 0.0 0.0 529.1772105638412" Properties=species:S:1:pos:R:3:forces_component_raw:R:3 ipi_comment="Step:        5420  Bead:       0 forces_component_raw{ase}  cell{ase}" pbc="T T T"
O        0.00000000       0.00000000       0.00000000      -0.44159317       0.11696637      -0.86103177
H        0.00000000       0.00000000       0.00000000      -0.35884449      -0.29931146       0.27200818
H        0.00000000       0.00000000       0.00000000       0.24857056       0.30315346      -0.11622679
O        0.00000000       0.00000000       0.00000000       0.59504938      -0.38977027       0.33481675
H        0.00000000       0.00000000       0.00000000      -0.11032191       0.48128769       0.95440304
H        0.00000000       0.00000000       0.00000000       0.30663607       0.24309969       0.62218893
H        0.00000000       0.00000000       0.00000000      -0.23949659      -0.45542565      -1.20615852
7
Lattice="529.1772105638412 0.0 0.0 0.0 529.1772105638412 0.0 0.0 0.0 529.1772105638412" Properties=species:S:1:pos:R:3:forces_component_raw:R:3 ipi_comment="Step:        5440  Bead:       0 forces_component_raw{ase}  cell{ase}" pbc="T T T"
O        0.00000000       0.00000000       0.00000000       0.36238104       0.59162140      -0.69690925
H        0.00000000       0.00000000       0.00000000      -0.06235525       0.03457993      -0.05314046
H        0.00000000       0.00000000       0.00000000      -0.97370124      -0.34141040       0.65065897
O        0.00000000       0.00000000       0.00000000       0.26549286       0.10748208       1.47741521
H        0.00000000       0.00000000       0.00000000       0.54322815      -0.58627981      -0.86985028
H        0.00000000       0.00000000       0.00000000      -0.41461107       0.02110660      -0.60573191
H        0.00000000       0.00000000       0.00000000       0.27956522       0.17290035       0.09755778
7
Lattice="529.1772105638412 0.0 0.0 0.0 529.1772105638412 0.0 0.0 0.0 529.1772105638412" Properties=species:S:1:pos:R:3:forces_component_raw:R:3 ipi_comment="Step:        5460  Bead:       0 forces_component_raw{ase}  cell{ase}" pbc="T T T"
O        0.00000000       0.00000000       0.00000000       1.26291621       0.17585835      -0.33583751
H        0.00000000       0.00000000       0.00000000      -0.53333861       0.52000702      -0.86983442
H        0.00000000       0.00000000       0.00000000      -1.29816473      -0.49978116       0.55765152
O        0.00000000       0.00000000       0.00000000       0.72842664       0.35659862      -1.16013146
H        0.00000000       0.00000000       0.00000000      -0.48856586       0.51370680       1.07733035
H        0.00000000       0.00000000       0.00000000       0.53978711      -0.67569196       0.12446266
H        0.00000000       0.00000000       0.00000000      -0.21106078      -0.39069736       0.60635901
7
Lattice="529.1772105638412 0.0 0.0 0.0 529.1772105638412 0.0 0.0 0.0 529.1772105638412" Properties=species:S:1:pos:R:3:forces_component_raw:R:3 ipi_comment="Step:        5480  Bead:       0 forces_component_raw{ase}  cell{ase}" pbc="T T T"
O        0.00000000       0.00000000       0.00000000       0.09843826      -0.39973888       1.17428112
H        0.00000000       0.00000000       0.00000000       0.33541018       0.56377357      -1.38309753
H        0.00000000       0.00000000       0.00000000      -0.83051139      -0.18115309       0.52149636
O        0.00000000       0.00000000       0.00000000       0.38011569       0.80814219       0.99368692
H        0.00000000       0.00000000       0.00000000       0.26095381      -0.23762873      -1.07672382
H        0.00000000       0.00000000       0.00000000      -0.26766360      -0.44543219      -1.01159501
H        0.00000000       0.00000000       0.00000000       0.02325717      -0.10796291       0.78195250
7
Lattice="529.1772105638412 0.0 0.0 0.0 529.1772105638412 0.0 0.0 0.0 529.1772105638412" Properties=species:S:1:pos:R:3:forces_component_raw:R:3 ipi_comment="Step:        5500  Bead:       0 forces_component_raw{ase}  cell{ase}" pbc="T T T"
O        0.00000000       0.00000000       0.00000000       2.02772046      -0.61170972       0.83335310
H        0.00000000       0.00000000       0.00000000      -0.54957807       0.33016074      -0.99513781
H        0.00000000       0.00000000       0.00000000      -0.46643680      -0.05670825       0.02821082
O        0.00000000       0.00000000       0.00000000      -0.88918871       1.21314764      -1.11931944
H        0.00000000       0.00000000       0.00000000      -0.49886367       0.16405058       1.13001096
H        0.00000000       0.00000000       0.00000000       0.72106153      -0.69679964      -0.28112787
H        0.00000000       0.00000000       0.00000000      -0.34471482      -0.34214121       0.40401030
7
Lattice="529.1772105638412 0.0 0.0 0.0 529.1772105638412 0.0 0.0 0.0 529.1772105638412" Properties=species:S:1:pos:R:3:forces_component_raw:R:3 ipi_comment="Step:        5520  Bead:       0 forces_component_raw{ase}  cell{ase}" pbc="T T T"
O        0.00000000       0.00000000       0.00000000       1.14855242      -0.65996426       1.08216894
H        0.00000000       0.00000000       0.00000000       0.57874298       0.11692025      -0.78956640
H        0.00000000       0.00000000       0.00000000      -0.97893542      -0.16934627       0.65846300
O        0.00000000       0.00000000       0.00000000      -0.90291143       0.19495523       0.70270729
H        0.00000000       0.00000000       0.00000000       0.21542464       0.48786062      -1.29314995
H        0.00000000       0.00000000       0.00000000      -0.08457798       0.03593659      -0.77314460
H        0.00000000       0.00000000       0.00000000       0.02370468      -0.00636214       0.41252208
7
Lattice="529.1772105638412 0.0 0.0 0.0 529.1772105638412 0.0 0.0 0.0 529.1772105638412" Properties=species:S:1:pos:R:3:forces_component_raw:R:3 ipi_comment="Step:        5540  Bead:       0 forces_component_raw{ase}  cell{ase}" pbc="T T T"
O        0.00000000       0.00000000       0.00000000       0.85228896       0.91254020      -2.06005049
H        0.00000000       0.00000000       0.00000000      -0.23450446       0.07873742       0.77074170
H        0.00000000       0.00000000       0.00000000      -0.49004996      -0.50461739       0.45061722
O        0.00000000       0.00000000       0.00000000      -0.37281805       0.54886222      -0.83241248
H        0.00000000       0.00000000       0.00000000      -0.63985145      -0.48870456       1.03713441
H        0.00000000       0.00000000       0.00000000       0.33726701      -0.14843077       0.24817604
H        0.00000000       0.00000000       0.00000000       0.54766792      -0.39838684       0.38579351
7
Lattice="529.1772105638412 0.0 0.0 0.0 529.1772105638412 0.0 0.0 0.0 529.1772105638412" Properties=species:S:1:pos:R:3:forces_component_raw:R:3 ipi_comment="Step:        5560  Bead:       0 forces_component_raw{ase}  cell{ase}" pbc="T T T"
O        0.00000000       0.00000000       0.00000000      -0.58348835       0.26309574      -1.18821323
H        0.00000000       0.00000000       0.00000000       0.43261764      -0.05157074       1.10191322
H        0.00000000       0.00000000       0.00000000      -0.68824977       0.03421795       0.27749717
O        0.00000000       0.00000000       0.00000000       1.15936661      -0.51837182      -0.40624064
H        0.00000000       0.00000000       0.00000000       0.55189383       0.06863964      -1.10520029
H        0.00000000       0.00000000       0.00000000      -1.19836593       0.48476890       0.55062693
H        0.00000000       0.00000000       0.00000000       0.32622585      -0.28077957       0.76961672
7
Lattice="529.1772105638412 0.0 0.0 0.0 529.1772105638412 0.0 0.0 0.0 529.1772105638412" Properties=species:S:1:pos:R:3:forces_component_raw:R:3 ipi_comment="Step:        5580  Bead:       0 forces_component_raw{ase}  cell{ase}" pbc="T T T"
O        0.00000000       0.00000000       0.00000000      -1.07651782       0.16883683      -0.77311748
H        0.00000000       0.00000000       0.00000000       0.16273755       0.09508145       0.45680899
H        0.00000000       0.00000000       0.00000000       0.03359663       0.05603161      -0.11262289
O        0.00000000       0.00000000       0.00000000       1.47321534      -0.35783815      -1.46144772
H        0.00000000       0.00000000       0.00000000       0.07065623       0.09353145       1.09223962
H        0.00000000       0.00000000       0.00000000      -0.44506967      -0.13186312       0.79101849
H        0.00000000       0.00000000       0.00000000      -0.21861807       0.07621992       0.00712097
7
Lattice="529.1772105638412 0.0 0.0 0.0 529.1772105638412 0.0 0.0 0.0 529.1772105638412" Properties=species:S:1:pos:R:3:forces_component_raw:R:3 ipi_comment="Step:        5600  Bead:       0 forces_component_raw{ase}  cell{ase}" pbc="T T T"
O        0.00000000       0.00000000       0.00000000      -0.68161369      -0.01872694       1.10268200
H        0.00000000       0.00000000       0.00000000       0.55136371      -0.20578262       0.45634067
H        0.00000000       0.00000000       0.00000000       0.29891479       0.26791853      -0.61453533
O        0.00000000       0.00000000       0.00000000       0.92466104       0.08831465       1.19803214
H        0.00000000       0.00000000       0.00000000      -0.50148368       0.00662707      -1.18291927
H        0.00000000       0.00000000       0.00000000      -0.12784332      -0.01751942      -0.03874344
H        0.00000000       0.00000000       0.00000000      -0.46399886      -0.12083116      -0.92085684
7
Lattice="529.1772105638412 0.0 0.0 0.0 529.1772105638412 0.0 0.0 0.0 529.1772105638412" Properties=species:S:1:pos:R:3:forces_component_raw:R:3 ipi_comment="Step:        5620  Bead:       0 forces_component_raw{ase}  cell{ase}" pbc="T T T"
O        0.00000000       0.00000000       0.00000000      -1.11987639      -0.31277204       0.42096007
H        0.00000000       0.00000000       0.00000000       0.17612481       0.14153391      -0.01098627
H        0.00000000       0.00000000       0.00000000       1.40790963      -0.05645174      -0.81725240
O        0.00000000       0.00000000       0.00000000      -1.18441618       0.40798748       0.81949794
H        0.00000000       0.00000000       0.00000000       0.34767348      -0.19168656       0.96906436
H        0.00000000       0.00000000       0.00000000       0.74807400       0.13752276      -0.02910268
H        0.00000000       0.00000000       0.00000000      -0.37548933      -0.12613398      -1.35218096
7
Lattice="529.1772105638412 0.0 0.0 0.0 529.1772105638412 0.0 0.0 0.0 529.1772105638412" Properties=species:S:1:pos:R:3:forces_component_raw:R:3 ipi_comment="Step:        5640  Bead:       0 forces_component_raw{ase}  cell{ase}" pbc="T T T"
O        0.00000000       0.00000000       0.00000000       1.08422518      -0.93587911       0.59216994
H        0.00000000       0.00000000       0.00000000      -0.39204925       0.11290762       0.46286893
H        0.00000000       0.00000000       0.00000000       0.16455400       0.07497314      -0.86544442
O        0.00000000       0.00000000       0.00000000      -0.02690446      -0.34105229       1.06619728
H        0.00000000       0.00000000       0.00000000      -0.40781352       0.79429555      -0.58730519
H        0.00000000       0.00000000       0.00000000      -0.12081879       0.32572863      -0.85513038
H        0.00000000       0.00000000       0.00000000      -0.30119300      -0.03097361       0.18664378
7
Lattice="529.1772105638412 0.0 0.0 0.0 529.1772105638412 0.0 0.0 0.0 529.1772105638412" Properties=species:S:1:pos:R:3:forces_component_raw:R:3 ipi_comment="Step:        5660  Bead:       0 forces_component_raw{ase}  cell{ase}" pbc="T T T"
O        0.00000000       0.00000000       0.00000000      -1.44531417       0.60732091      -0.01224494
H        0.00000000       0.00000000       0.00000000       0.39837211       0.01174945      -0.05888808
H        0.00000000       0.00000000       0.00000000       0.60249776       0.04012182      -0.02808762
O        0.00000000       0.00000000       0.00000000      -1.06950903      -0.15969324      -1.44215167
H        0.00000000       0.00000000       0.00000000      -0.16160488      -0.69652432       0.13798814
H        0.00000000       0.00000000       0.00000000       0.55844212      -0.03914842       0.47520262
H        0.00000000       0.00000000       0.00000000       1.11711657       0.23617369       0.92818153
7
Lattice="529.1772105638412 0.0 0.0 0.0 529.1772105638412 0.0 0.0 0.0 529.1772105638412" Properties=species:S:1:pos:R:3:forces_component_raw:R:3 ipi_comment="Step:        5680  Bead:       0 forces_component_raw{ase}  cell{ase}" pbc="T T T"
O        0.00000000       0.00000000       0.00000000       0.88065142       0.10176480      -0.16335590
H        0.00000000       0.00000000       0.00000000      -0.21182054      -0.11898695       0.31161290
H        0.00000000       0.00000000       0.00000000      -1.46133578       0.09731680       0.10386303
O        0.00000000       0.00000000       0.00000000       1.47588849      -1.26471436      -2.13996816
H        0.00000000       0.00000000       0.00000000       0.05124919       0.67715466      -0.29394633
H        0.00000000       0.00000000       0.00000000      -0.85336793       0.02170923       0.26602370
H        0.00000000       0.00000000       0.00000000       0.11873531       0.48575571       1.91577077
7
Lattice="529.1772105638412 0.0 0.0 0.0 529.1772105638412 0.0 0.0 0.0 529.1772105638412" Properties=species:S:1:pos:R:3:forces_component_raw:R:3 ipi_comment="Step:        5700  Bead:       0 forces_component_raw{ase}  cell{ase}" pbc="T T T"
O        0.00000000       0.00000000       0.00000000       0.48059946       0.47592968      -1.82064641
H        0.00000000       0.00000000       0.00000000       0.51681411      -0.03071665       0.25919426
H        0.00000000       0.00000000       0.00000000      -1.52229989      -0.36154968       1.40466321
O        0.00000000       0.00000000       0.00000000      -0.98090339       0.32287026      -2.06590271
H        0.00000000       0.00000000       0.00000000       0.72572816      -0.23975796       0.33491117
H        0.00000000       0.00000000       0.00000000      -0.30014831       0.07054096       1.07512021
H        0.00000000       0.00000000       0.00000000       1.08020973      -0.23731671       0.81265998
7
Lattice="529.1772105638412 0.0 0.0 0.0 529.1772105638412 0.0 0.0 0.0 529.1772105638412" Properties=species:S:1:pos:R:3:forces_component_raw:R:3 ipi_comment="Step:        5720  Bead:       0 forces_component_raw{ase}  cell{ase}" pbc="T T T"
O        0.00000000       0.00000000       0.00000000       3.23262692      -0.39877606      -0.75651819
H        0.00000000       0.00000000       0.00000000      -0.31482601       0.11107779      -0.01187515
H        0.00000000       0.00000000       0.00000000      -1.56271160      -0.49379990       0.81162310
O        0.00000000       0.00000000       0.00000000       0.57210171      -0.05934918      -0.66497296
H        0.00000000       0.00000000       0.00000000      -1.23056579       0.54618043      -0.46476141
H        0.00000000       0.00000000       0.00000000      -0.99611521       0.42536351       0.79428959
H        0.00000000       0.00000000       0.00000000       0.29948998      -0.13069679       0.29221508
7
Lattice="529.1772105638412 0.0 0.0 0.0 529.1772105638412 0.0 0.0 0.0 529.1772105638412" Properties=species:S:1:pos:R:3:forces_component_raw:R:3 ipi_comment="Step:        5740  Bead:       0 forces_component_raw{ase}  cell{ase}" pbc="T T T"
O        0.00000000       0.00000000       0.00000000       0.69770438       0.65197170      -0.46663606
H        0.00000000       0.00000000       0.00000000       0.11629272       0.20130394      -0.52723897
H        0.00000000       0.00000000       0.00000000      -0.69554806      -0.82450509       0.84001929
O        0.00000000       0.00000000       0.00000000      -0.88129771       0.80580890       1.20809293
H        0.00000000       0.00000000       0.00000000       0.28849387      -0.44822443      -0.07305491
H        0.00000000       0.00000000       0.00000000       0.35458207       0.03771383      -0.27117044
H        0.00000000       0.00000000       0.00000000       0.11977279      -0.42406878      -0.71001184
7
Lattice="529.1772105638412 0.0 0.0 0.0 529.1772105638412 0.0 0.0 0.0 529.1772105638412" Properties=species:S:1:pos:R:3:forces_component_raw:R:3 ipi_comment="Step:        5760  Bead:       0 forces_component_raw{ase}  cell{ase}" pbc="T T T"
O        0.00000000       0.00000000       0.00000000       0.98749250      -0.00770175       0.76189864
H        0.00000000       0.00000000       0.00000000      -0.11520096      -0.15538675      -0.58271903
H        0.00000000       0.00000000       0.00000000      -0.37305379      -0.29107678      -0.12743539
O        0.00000000       0.00000000       0.00000000      -0.06727290       0.46115571       1.08195591
H        0.00000000       0.00000000       0.00000000       0.07071772       0.46639609       0.35402811
H        0.00000000       0.00000000       0.00000000       0.41075659      -0.33503738      -0.90058208
H        0.00000000       0.00000000       0.00000000      -0.91343916      -0.13834903      -0.58714587
7
Lattice="529.1772105638412 0.0 0.0 0.0 529.1772105638412 0.0 0.0 0.0 529.1772105638412" Properties=species:S:1:pos:R:3:forces_component_raw:R:3 ipi_comment="Step:        5780  Bead:       0 forces_component_raw{ase}  cell{ase}" pbc="T T T"
O        0.00000000       0.00000000       0.00000000      -1.04061711      -0.81449843       1.17731679
H        0.00000000       0.00000000       0.00000000       0.21952142       0.15662660      -0.58024079
H        0.00000000       0.00000000       0.00000000       1.29590917       0.79796851      -0.28973046
O        0.00000000       0.00000000       0.00000000      -1.08712816       0.22641754      -0.09999537
H        0.00000000       0.00000000       0.00000000      -0.19607595      -0.51002562      -0.40525419
H        0.00000000       0.00000000       0.00000000       0.31857622       0.12183100       0.21569806
H        0.00000000       0.00000000       0.00000000       0.48981476       0.02168047      -0.01779413
7
Lattice="529.1772105638412 0.0 0.0 0.0 529.1772105638412 0.0 0.0 0.0 529.1772105638412" Properties=species:S:1:pos:R:3:forces_component_raw:R:3 ipi_comment="Step:        5800  Bead:       0 forces_component_raw{ase}  cell{ase}" pbc="T T T"
O        0.00000000       0.00000000       0.00000000      -1.44587040      -0.49412540      -0.02889311
H        0.00000000       0.00000000       0.00000000       0.13678053      -0.51682997       0.61300022
H        0.00000000       0.00000000       0.00000000       1.14486194       1.02536118      -0.62092865
O        0.00000000       0.00000000       0.00000000      -0.10742927      -0.65398491      -0.40174884
H        0.00000000       0.00000000       0.00000000       0.24933308       0.25293976       0.33756974
H        0.00000000       0.00000000       0.00000000       0.23297119      -0.08423883      -0.45402432
H        0.00000000       0.00000000       0.00000000      -0.21064735       0.47087813       0.55502486
7
Lattice="529.1772105638412 0.0 0.0 0.0 529.1772105638412 0.0 0.0 0.0 529.1772105638412" Properties=species:S:1:pos:R:3:forces_component_raw:R:3 ipi_comment="Step:        5820  Bead:       0 forces_component_raw{ase}  cell{ase}" pbc="T T T"
O        0.00000000       0.00000000       0.00000000      -1.80097676       0.95221889      -0.65919149
H        0.00000000       0.00000000       0.00000000       0.70201922      -1.70498634       1.39394081
H        0.00000000       0.00000000       0.00000000       0.93959522       0.91302800      -0.58941746
O        0.00000000       0.00000000       0.00000000      -0.80205774      -0.74041188       0.08255216
H        0.00000000       0.00000000       0.00000000      -0.01815277      -0.14743230      -0.52769661
H        0.00000000       0.00000000       0.00000000       0.28865254       0.33991417       0.17236030
H        0.00000000       0.00000000       0.00000000       0.69092041       0.38766950       0.12745219
7
Lattice="529.1772105638412 0.0 0.0 0.0 529.1772105638412 0.0 0.0 0.0 529.1772105638412" Properties=species:S:1:pos:R:3:forces_component_raw:R:3 ipi_comment="Step:        5840  Bead:       0 forces_component_raw{ase}  cell{ase}" pbc="T T T"
O        0.00000000       0.00000000       0.00000000      -1.15322423       1.22972656      -0.92929828
H        0.00000000       0.00000000       0.00000000       0.64349753      -1.44259453       0.86755282
H        0.00000000       0.00000000       0.00000000       0.71910983       0.26893079      -0.13197012
O        0.00000000       0.00000000       0.00000000      -0.23933971      -0.04739451      -1.09266091
H        0.00000000       0.00000000       0.00000000       0.15757266      -0.11677326       0.77481961
H        0.00000000       0.00000000       0.00000000       0.07730401      -0.18483526       0.02988207
H        0.00000000       0.00000000       0.00000000      -0.20491982       0.29294038       0.48167476
7
Lattice="529.1772105638412 0.0 0.0 0.0 529.1772105638412 0.0 0.0 0.0 529.1772105638412" Properties=species:S:1:pos:R:3:forces_component_raw:R:3 ipi_comment="Step:        5860  Bead:       0 forces_component_raw{ase}  cell{ase}" pbc="T T T"
O        0.00000000       0.00000000       0.00000000       0.65280277      -0.06417319      -0.08927548
H        0.00000000       0.00000000       0.00000000      -0.00684309      -0.60824180       0.33652511
H        0.00000000       0.00000000       0.00000000      -0.45657188       0.28333056       0.00260620
O        0.00000000       0.00000000       0.00000000       0.54007363       0.34571862       0.74379170
H        0.00000000       0.00000000       0.00000000      -0.03498369       0.18312219      -0.82425469
H        0.00000000       0.00000000       0.00000000      -0.34046590       0.29435432       0.60462088
H        0.00000000       0.00000000       0.00000000      -0.35401177      -0.43411061      -0.77401352
7
Lattice="529.1772105638412 0.0 0.0 0.0 529.1772105638412 0.0 0.0 0.0 529.1772105638412" Properties=species:S:1:pos:R:3:forces_component_raw:R:3 ipi_comment="Step:        5880  Bead:       0 forces_component_raw{ase}  cell{ase}" pbc="T T T"
O        0.00000000       0.00000000       0.00000000      -0.06940788       0.76271540      -0.53295791
H        0.00000000       0.00000000       0.00000000       0.21240106       0.47639352      -0.09238607
H        0.00000000       0.00000000       0.00000000      -0.28189802      -0.88680709       0.28651503
O        0.00000000       0.00000000       0.00000000       1.33443141       0.35396218       0.62046647
H        0.00000000       0.00000000       0.00000000       0.01296446      -0.38969722       0.62458009
H        0.00000000       0.00000000       0.00000000      -0.02595398      -0.00637949      -0.00375706
H        0.00000000       0.00000000       0.00000000      -1.18253696      -0.31018734      -0.90246058
7
Lattice="529.1772105638412 0.0 0.0 0.0 529.1772105638412 0.0 0.0 0.0 529.1772105638412" Properties=species:S:1:pos:R:3:forces_component_raw:R:3 ipi_comment="Step:        5900  Bead:       0 forces_component_raw{ase}  cell{ase}" pbc="T T T"
O        0.00000000       0.00000000       0.00000000       0.97467864      -1.09298921       1.51177264
H        0.00000000       0.00000000       0.00000000      -0.45112294       0.87455017      -1.02532041
H        0.00000000       0.00000000       0.00000000      -0.77895689      -0.07385969      -0.35231784
O        0.00000000       0.00000000       0.00000000       1.47898746       0.66086686       1.21945405
H        0.00000000       0.00000000       0.00000000       0.47093174       0.16738325      -0.38451645
H        0.00000000       0.00000000       0.00000000      -0.31888658      -0.00020194      -0.04513729
H        0.00000000       0.00000000       0.00000000      -1.37563122      -0.53574920      -0.92393464
7
Lattice="529.1772105638412 0.0 0.0 0.0 529.1772105638412 0.0 0.0 0.0 529.1772105638412" Properties=species:S:1:pos:R:3:forces_component_raw:R:3 ipi_comment="Step:        5920  Bead:       0 forces_component_raw{ase}  cell{ase}" pbc="T T T"
O        0.00000000       0.00000000       0.00000000       0.72079539       0.48963329       1.17725742
H        0.00000000       0.00000000       0.00000000      -0.07238852       1.19153393      -0.80587924
H        0.00000000       0.00000000       0.00000000      -0.25360262      -1.38136828      -0.22383022
O        0.00000000       0.00000000       0.00000000       0.56905770       0.24639189       0.14721870
H        0.00000000       0.00000000       0.00000000      -0.32849735      -0.40990505      -0.19840542
H        0.00000000       0.00000000       0.00000000      -0.04132172       0.33586106       0.51891631
H        0.00000000       0.00000000       0.00000000      -0.59404302      -0.47214657      -0.61527753
7
Lattice="529.1772105638412 0.0 0.0 0.0 529.1772105638412 0.0 0.0 0.0 529.1772105638412" Properties=species:S:1:pos:R:3:forces_component_raw:R:3 ipi_comment="Step:        5940  Bead:       0 forces_component_raw{ase}  cell{ase}" pbc="T T T"
O        0.00000000       0.00000000       0.00000000       0.61812151      -0.27119452       0.24451864
H        0.00000000       0.00000000       0.00000000      -0.13019854       0.53432167      -0.41670871
H        0.00000000       0.00000000       0.00000000      -0.56242609      -0.56181795      -0.07720801
O        0.00000000       0.00000000       0.00000000       0.34332585      -0.82534683      -0.89122993
H        0.00000000       0.00000000       0.00000000       0.31543964       0.68535030       0.70230395
H        0.00000000       0.00000000       0.00000000      -0.10320663       0.32214969       0.43425489
H        0.00000000       0.00000000       0.00000000      -0.48105574       0.11653754       0.00406906
7
Lattice="529.1772105638412 0.0 0.0 0.0 529.1772105638412 0.0 0.0 0.0 529.1772105638412" Properties=species:S:1:pos:R:3:forces_component_raw:R:3 ipi_comment="Step:        5960  Bead:       0 forces_component_raw{ase}  cell{ase}" pbc="T T T"
O        0.00000000       0.00000000       0.00000000      -0.20348644       0.09088376       0.92849088
H        0.00000000       0.00000000       0.00000000      -0.18707365       0.37213692      -0.34115881
H        0.00000000       0.00000000       0.00000000      -0.03595078      -0.05068022      -0.08288702
O        0.00000000       0.00000000       0.00000000       0.81471157       0.20349912       0.32267487
H        0.00000000       0.00000000       0.00000000      -0.10743684      -0.76539231      -1.03955364
H        0.00000000       0.00000000       0.00000000      -0.36433184       0.44532383       0.38659424
H        0.00000000       0.00000000       0.00000000       0.08356786      -0.29577112      -0.17416054
7
Lattice="529.1772105638412 0.0 0.0 0.0 529.1772105638412 0.0 0.0 0.0 529.1772105638412" Properties=species:S:1:pos:R:3:forces_component_raw:R:3 ipi_comment="Step:        5980  Bead:       0 forces_component_raw{ase}  cell{ase}" pbc="T T T"
O        0.00000000       0.00000000       0.00000000      -1.24520159      -1.09299243       0.14270180
H        0.00000000       0.00000000       0.00000000      -0.04208946      -0.08570230       0.13604075
H        0.00000000       0.00000000       0.00000000       1.18061018       1.06463814      -0.57450515
O        0.00000000       0.00000000       0.00000000      -1.00597859      -0.57361639      -0.62437374
H        0.00000000       0.00000000       0.00000000       0.19718877       0.40417963       0.76449108
H        0.00000000       0.00000000       0.00000000       0.39930922      -0.11824411      -0.09078294
H        0.00000000       0.00000000       0.00000000       0.51616156       0.40173751       0.24642822
7
Lattice="529.1772105638412 0.0 0.0 0.0 529.1772105638412 0.0 0.0 0.0 529.1772105638412" Properties=species:S:1:pos:R:3:forces_component_raw:R:3 ipi_comment="Step:        6000  Bead:       0 forces_component_raw{ase}  cell{ase}" pbc="T T T"
O        0.00000000       0.00000000       0.00000000      -1.42853904      -0.66054213       0.33590043
H        0.00000000       0.00000000       0.00000000       0.67029309      -0.53562641       0.38626331
H        0.00000000       0.00000000       0.00000000       1.54097700       0.86760706      -0.67130315
O        0.00000000       0.00000000       0.00000000      -1.58105672       0.58499658       0.68437982
H        0.00000000       0.00000000       0.00000000      -0.19377227      -0.28271210      -0.42085216
H        0.00000000       0.00000000       0.00000000      -0.07771367      -0.63544160      -0.73606253
H        0.00000000       0.00000000       0.00000000       1.06981182       0.66171873       0.42167443
7
Lattice="529.1772105638412 0.0 0.0 0.0 529.1772105638412 0.0 0.0 0.0 529.1772105638412" Properties=species:S:1:pos:R:3:forces_component_raw:R:3 ipi_comment="Step:        6020  Bead:       0 forces_component_raw{ase}  cell{ase}" pbc="T T T"
O        0.00000000       0.00000000       0.00000000       0.28173852      -0.94850624       0.32340896
H        0.00000000       0.00000000       0.00000000      -0.12451983      -0.67251879       0.66160935
H        0.00000000       0.00000000       0.00000000       0.47756297       1.15147841      -0.97795928
O        0.00000000       0.00000000       0.00000000      -1.78786648       0.40153408       1.22457087
H        0.00000000       0.00000000       0.00000000      -0.09011044       0.23845424      -0.17194355
H        0.00000000       0.00000000       0.00000000       0.42095989      -0.93058688      -1.26002074
H        0.00000000       0.00000000       0.00000000       0.82223547       0.76014507       0.20033464
7
Lattice="529.1772105638412 0.0 0.0 0.0 529.1772105638412 0.0 0.0 0.0 529.1772105638412" Properties=species:S:1:pos:R:3:forces_component_raw:R:3 ipi_comment="Step:        6040  Bead:       0 forces_component_raw{ase}  cell{ase}" pbc="T T T"
O        0.00000000       0.00000000       0.00000000      -1.71861363       0.78026790      -0.61281288
H        0.00000000       0.00000000       0.00000000       0.70057339      -0.14668903       0.50616700
H        0.00000000       0.00000000       0.00000000       0.81379348      -0.06952149      -0.09409647
O        0.00000000       0.00000000       0.00000000      -0.38571614      -0.04413372       1.15678728
H        0.00000000       0.00000000       0.00000000      -0.11750546      -0.32143298       0.48464137
H        0.00000000       0.00000000       0.00000000       0.52932817      -0.69541896      -1.40799332
H        0.00000000       0.00000000       0.00000000       0.17814004       0.49692828      -0.03269243
7
Lattice="529.1772105638412 0.0 0.0 0.0 529.1772105638412 0.0 0.0 0.0 529.1772105638412" Properties=species:S:1:pos:R:3:forces_component_raw:R:3 ipi_comment="Step:        6060  Bead:       0 forces_component_raw{ase}  cell{ase}" pbc="T T T"
O        0.00000000       0.00000000       0.00000000       0.51217145       0.93342000      -0.27483422
H        0.00000000       0.00000000       0.00000000       0.06029516      -0.56014252       0.63127095
H        0.00000000       0.00000000       0.00000000      -1.10965348      -0.25461382       0.14042005
O        0.00000000       0.00000000       0.00000000       1.00170303       0.20244479       1.21197140
H        0.00000000       0.00000000       0.00000000      -0.18314076       0.25727463      -0.63827199
H        0.00000000       0.00000000       0.00000000      -0.03262484      -0.38175058      -0.96872014
H        0.00000000       0.00000000       0.00000000      -0.24875051      -0.19663239      -0.10183629
7
Lattice="529.1772105638412 0.0 0.0 0.0 529.1772105638412 0.0 0.0 0.0 529.1772105638412" Properties=species:S:1:pos:R:3:forces_component_raw:R:3 ipi_comment="Step:        6080  Bead:       0 forces_component_raw{ase}  cell{ase}" pbc="T T T"
O        0.00000000       0.00000000       0.00000000       0.07563961       1.04106581      -1.12520683
H        0.00000000       0.00000000       0.00000000       0.23661506       0.14029440      -0.28343624
H        0.00000000       0.00000000       0.00000000      -0.68616307      -0.93426758       1.30551577
O        0.00000000       0.00000000       0.00000000       0.81857926       0.96191579      -0.03528702
H        0.00000000       0.00000000       0.00000000       0.46097380      -0.39182860       0.31986788
H        0.00000000       0.00000000       0.00000000      -0.09653717      -0.24507076      -0.21022034
H        0.00000000       0.00000000       0.00000000      -0.80910778      -0.57210893       0.02876699
7
Lattice="529.1772105638412 0.0 0.0 0.0 529.1772105638412 0.0 0.0 0.0 529.1772105638412" Properties=species:S:1:pos:R:3:forces_component_raw:R:3 ipi_comment="Step:        6100  Bead:       0 forces_component_raw{ase}  cell{ase}" pbc="T T T"
O        0.00000000       0.00000000       0.00000000       2.60526062      -0.70904595      -0.37673360
H        0.00000000       0.00000000       0.00000000      -0.45903683       0.21239623      -0.77409059
H        0.00000000       0.00000000       0.00000000      -0.81427348      -0.37307030       0.87670344
O        0.00000000       0.00000000       0.00000000       0.33145887       0.24523643      -0.20785129
H        0.00000000       0.00000000       0.00000000      -0.95939702       0.58221555       0.06243844
H        0.00000000       0.00000000       0.00000000      -0.01465517       0.56023485       0.52593780
H        0.00000000       0.00000000       0.00000000      -0.68935704      -0.51796699      -0.10640430
7
Lattice="529.1772105638412 0.0 0.0 0.0 529.1772105638412 0.0 0.0 0.0 529.1772105638412" Properties=species:S:1:pos:R:3:forces_component_raw:R:3 ipi_comment="Step:        6120  Bead:       0 forces_component_raw{ase}  cell{ase}" pbc="T T T"
O        0.00000000       0.00000000       0.00000000       1.58438945      -0.15894783       0.25681573
H        0.00000000       0.00000000       0.00000000      -1.08032942       0.39936769      -0.96500099
H        0.00000000       0.00000000       0.00000000      -0.21487594      -0.38900715       0.50351805
O        0.00000000       0.00000000       0.00000000      -0.19269782      -0.31440485      -1.14324022
H        0.00000000       0.00000000       0.00000000       0.56040520      -0.16529350       0.02481204
H        0.00000000       0.00000000       0.00000000      -0.07445240       0.98711759       1.29165745
H        0.00000000       0.00000000       0.00000000      -0.58243895      -0.35883176       0.03143799
7
Lattice="529.1772105638412 0.0 0.0 0.0 529.1772105638412 0.0 0.0 0.0 529.1772105638412" Properties=species:S:1:pos:R:3:forces_component_raw:R:3 ipi_comment="Step:        6140  Bead:       0 forces_component_raw{ase}  cell{ase}" pbc="T T T"
O        0.00000000       0.00000000       0.00000000       0.84117210      -0.62598068       1.45364547
H        0.00000000       0.00000000       0.00000000      -1.10960722       0.47764224      -0.81858349
H        0.00000000       0.00000000       0.00000000       0.14024264       0.27483058      -0.32139972
O        0.00000000       0.00000000       0.00000000       0.96496511      -0.12278795      -0.49841857
H        0.00000000       0.00000000       0.00000000      -0.25813082      -0.00808559      -0.44600988
H        0.00000000       0.00000000       0.00000000       0.01220843       0.61366391       0.84655827
H        0.00000000       0.00000000       0.00000000      -0.59085035      -0.60928255      -0.21579215
7
Lattice="529.1772105638412 0.0 0.0 0.0 529.1772105638412 0.0 0.0 0.0 529.1772105638412" Properties=species:S:1:pos:R:3:forces_component_raw:R:3 ipi_comment="Step:        6160  Bead:       0 forces_component_raw{ase}  cell{ase}" pbc="T T T"
O        0.00000000       0.00000000       0.00000000      -0.25222313       0.14301634       0.18312591
H        0.00000000       0.00000000       0.00000000      -0.39226407       0.19771405      -0.06545097
H        0.00000000       0.00000000       0.00000000       0.16993263      -0.02766579      -0.09935635
O        0.00000000       0.00000000       0.00000000       0.92592144      -0.53966761      -0.25440598
H        0.00000000       0.00000000       0.00000000      -0.00238708       0.16717570       0.16621435
H        0.00000000       0.00000000       0.00000000      -0.02149589       0.03249526      -0.00003028
H        0.00000000       0.00000000       0.00000000      -0.42748374       0.02693218       0.06990331
7
Lattice="529.1772105638412 0.0 0.0 0.0 529.1772105638412 0.0 0.0 0.0 529.1772105638412" Properties=species:S:1:pos:R:3:forces_component_raw:R:3 ipi_comment="Step:        6180  Bead:       0 forces_component_raw{ase}  cell{ase}" pbc="T T T"
O        0.00000000       0.00000000       0.00000000      -0.55004680       0.52528381      -0.25728527
H        0.00000000       0.00000000       0.00000000       0.50459838      -0.17704397       0.31935123
H        0.00000000       0.00000000       0.00000000      -0.04757196      -0.18945295       0.09211409
O        0.00000000       0.00000000       0.00000000      -0.74370516       0.08648014       1.00804353
H        0.00000000       0.00000000       0.00000000       0.49792469      -0.38837308      -0.46013668
H        0.00000000       0.00000000       0.00000000      -0.15658304      -0.30912614      -0.81409753
H        0.00000000       0.00000000       0.00000000       0.49538395       0.45223212       0.11201078
7
Lattice="529.1772105638412 0.0 0.0 0.0 529.1772105638412 0.0 0.0 0.0 529.1772105638412" Properties=species:S:1:pos:R:3:forces_component_raw:R:3 ipi_comment="Step:        6200  Bead:       0 forces_component_raw{ase}  cell{ase}" pbc="T T T"
O        0.00000000       0.00000000       0.00000000      -0.83927083       0.34814203      -1.66932750
H        0.00000000       0.00000000       0.00000000       1.17497039      -0.13377407       1.05824971
H        0.00000000       0.00000000       0.00000000      -0.15786240      -0.27571470       0.28971645
O        0.00000000       0.00000000       0.00000000      -0.95661020      -0.35355353       0.78496432
H        0.00000000       0.00000000       0.00000000      -0.18739557       0.10791343       0.47910881
H        0.00000000       0.00000000       0.00000000      -0.09852269      -0.48252058      -1.19553781
H        0.00000000       0.00000000       0.00000000       1.06469131       0.78950739       0.25282630
7
Lattice="529.1772105638412 0.0 0.0 0.0 529.1772105638412 0.0 0.0 0.0 529.1772105638412" Properties=species:S:1:pos:R:3:forces_component_raw:R:3 ipi_comment="Step:        6220  Bead:       0 forces_component_raw{ase}  cell{ase}" pbc="T T T"
O        0.00000000       0.00000000       0.00000000      -2.09264112      -0.31319964      -1.33801830
H        0.00000000       0.00000000       0.00000000       2.20058775       0.03653997       1.29403389
H        0.00000000       0.00000000       0.00000000       0.08776295       0.03879559       0.22502917
O        0.00000000       0.00000000       0.00000000      -1.50249505      -0.14696479       1.14291668
H        0.00000000       0.00000000       0.00000000      -0.12166369       0.32924348      -0.14745298
H        0.00000000       0.00000000       0.00000000       0.15243268      -0.45013648      -1.31567574
H        0.00000000       0.00000000       0.00000000       1.27601671       0.50572181       0.13916716
7
Lattice="529.1772105638412 0.0 0.0 0.0 529.1772105638412 0.0 0.0 0.0 529.1772105638412" Properties=species:S:1:pos:R:3:forces_component_raw:R:3 ipi_comment="Step:        6240  Bead:       0 forces_component_raw{ase}  cell{ase}" pbc="T T T"
O        0.00000000       0.00000000       0.00000000      -0.43219382       0.12212026       0.15267554
H        0.00000000       0.00000000       0.00000000       0.35021806      -0.13006845       0.66338635
H        0.00000000       0.00000000       0.00000000      -0.26187289       0.13845623      -0.74581236
O        0.00000000       0.00000000       0.00000000       0.02522057       0.27139378       0.32955444
H        0.00000000       0.00000000       0.00000000       0.19677030      -0.11198768       0.12681823
H        0.00000000       0.00000000       0.00000000      -0.23264214      -0.36256212      -0.84027976
H        0.00000000       0.00000000       0.00000000       0.35449994       0.07264793       0.31365752
7
Lattice="529.1772105638412 0.0 0.0 0.0 529.1772105638412 0.0 0.0 0.0 529.1772105638412" Properties=species:S:1:pos:R:3:forces_component_raw:R:3 ipi_comment="Step:        6260  Bead:       0 forces_component_raw{ase}  cell{ase}" pbc="T T T"
O        0.00000000       0.00000000       0.00000000      -0.38432241      -0.14941561       1.42277873
H        0.00000000       0.00000000       0.00000000      -0.13324338      -0.04254377      -0.16590345
H        0.00000000       0.00000000       0.00000000       0.18010548       0.39733481      -1.12163472
O        0.00000000       0.00000000       0.00000000       0.20120859       0.08382459      -0.05511409
H        0.00000000       0.00000000       0.00000000       0.08985913      -0.19812846      -0.00328167
H        0.00000000       0.00000000       0.00000000       0.06351468      -0.01428586       0.06759143
H        0.00000000       0.00000000       0.00000000      -0.01712215      -0.07678601      -0.14443627
7
Lattice="529.1772105638412 0.0 0.0 0.0 529.1772105638412 0.0 0.0 0.0 529.1772105638412" Properties=species:S:1:pos:R:3:forces_component_raw:R:3 ipi_comment="Step:        6280  Bead:       0 forces_component_raw{ase}  cell{ase}" pbc="T T T"
O        0.00000000       0.00000000       0.00000000       1.48172510      -0.44143593       2.00171686
H        0.00000000       0.00000000       0.00000000      -1.12874174      -0.21215326      -0.39047358
H        0.00000000       0.00000000       0.00000000      -0.10536644       0.42140856      -1.74955225
O        0.00000000       0.00000000       0.00000000       0.77444029      -0.01316941      -0.52210426
H        0.00000000       0.00000000       0.00000000      -0.35701349       0.28130326       0.24264702
H        0.00000000       0.00000000       0.00000000       0.06027466      -0.07051826       0.82925528
H        0.00000000       0.00000000       0.00000000      -0.72531825       0.03456526      -0.41148907
7
Lattice="529.1772105638412 0.0 0.0 0.0 529.1772105638412 0.0 0.0 0.0 529.1772105638412" Properties=species:S:1:pos:R:3:forces_component_raw:R:3 ipi_comment="Step:        6300  Bead:       0 forces_component_raw{ase}  cell{ase}" pbc="T T T"
O        0.00000000       0.00000000       0.00000000       0.46407306       0.27820849       0.49694985
H        0.00000000       0.00000000       0.00000000      -0.90105015      -0.22193378      -0.31827137
H        0.00000000       0.00000000       0.00000000       0.11286683       0.02046689       0.01135421
O        0.00000000       0.00000000       0.00000000       1.30839694       0.23696244      -0.48883671
H        0.00000000       0.00000000       0.00000000       0.33059242      -0.15576136      -0.19199097
H        0.00000000       0.00000000       0.00000000      -0.03424281      -0.31070066       1.10795689
H        0.00000000       0.00000000       0.00000000      -1.28063655       0.15275796      -0.61716205
7
Lattice="529.1772105638412 0.0 0.0 0.0 529.1772105638412 0.0 0.0 0.0 529.1772105638412" Properties=species:S:1:pos:R:3:forces_component_raw:R:3 ipi_comment="Step:        6320  Bead:       0 forces_component_raw{ase}  cell{ase}" pbc="T T T"
O        0.00000000       0.00000000       0.00000000       0.89460254       0.21275604      -0.73480040
H        0.00000000       0.00000000       0.00000000      -0.92403317      -0.27148748      -0.00388312
H        0.00000000       0.00000000       0.00000000       0.13696988      -0.01757634       0.57077330
O        0.00000000       0.00000000       0.00000000       1.59541977       0.25704724      -0.38589248
H        0.00000000       0.00000000       0.00000000      -0.22602435       0.01155615       0.17121418
H        0.00000000       0.00000000       0.00000000      -0.26737720      -0.30431122       0.68203747
H        0.00000000       0.00000000       0.00000000      -1.20955754       0.11201566      -0.29944900
7
Lattice="529.1772105638412 0.0 0.0 0.0 529.1772105638412 0.0 0.0 0.0 529.1772105638412" Properties=species:S:1:pos:R:3:forces_component_raw:R:3 ipi_comment="Step:        6340  Bead:       0 forces_component_raw{ase}  cell{ase}" pbc="T T T"
O        0.00000000       0.00000000       0.00000000      -0.16388311      -0.06130552      -1.15691448
H        0.00000000       0.00000000       0.00000000      -0.11336410      -0.12163937      -0.19952439
H        0.00000000       0.00000000       0.00000000       0.48711509       0.17636713       1.16559315
O        0.00000000       0.00000000       0.00000000      -1.20824051      -0.33287299       1.38156677
H        0.00000000       0.00000000       0.00000000       0.19198096      -0.23709288      -0.17033994
H        0.00000000       0.00000000       0.00000000       0.54517090       0.41766822      -0.74318987
H        0.00000000       0.00000000       0.00000000       0.26122075       0.15887511      -0.27719122
7
Lattice="529.1772105638412 0.0 0.0 0.0 529.1772105638412 0.0 0.0 0.0 529.1772105638412" Properties=species:S:1:pos:R:3:forces_component_raw:R:3 ipi_comment="Step:        6360  Bead:       0 forces_component_raw{ase}  cell{ase}" pbc="T T T"
O        0.00000000       0.00000000       0.00000000      -0.14693075      -0.54926866      -1.10083127
H        0.00000000       0.00000000       0.00000000       0.55507732       0.52662760       0.11737289
H        0.00000000       0.00000000       0.00000000      -0.15912913      -0.00666364       0.96473682
O        0.00000000       0.00000000       0.00000000      -0.63605642      -1.03421951       0.50103212
H        0.00000000       0.00000000       0.00000000      -0.07125455       0.26214591       0.00457364
H        0.00000000       0.00000000       0.00000000      -0.32117260       1.38313783      -1.43391514
H        0.00000000       0.00000000       0.00000000       0.77946586      -0.58175933       0.94703067
7
Lattice="529.1772105638412 0.0 0.0 0.0 529.1772105638412 0.0 0.0 0.0 529.1772105638412" Properties=species:S:1:pos:R:3:forces_component_raw:R:3 ipi_comment="Step:        6380  Bead:       0 forces_component_raw{ase}  cell{ase}" pbc="T T T"
O        0.00000000       0.00000000       0.00000000      -0.59404922      -0.87566126      -0.23460448
H        0.00000000       0.00000000       0.00000000       0.71591914       0.88903296      -0.18490596
H        0.00000000       0.00000000       0.00000000      -0.16315222       0.16726778       0.43428695
O        0.00000000       0.00000000       0.00000000      -2.64304638      -1.14297724       0.65157873
H        0.00000000       0.00000000       0.00000000       0.08701539      -0.08145693       0.38665992
H        0.00000000       0.00000000       0.00000000       0.82609248       1.48190439      -1.53982950
H        0.00000000       0.00000000       0.00000000       1.77122081      -0.43810973       0.48681405
7
Lattice="529.1772105638412 0.0 0.0 0.0 529.1772105638412 0.0 0.0 0.0 529.1772105638412" Properties=species:S:1:pos:R:3:forces_component_raw:R:3 ipi_comment="Step:        6400  Bead:       0 forces_component_raw{ase}  cell{ase}" pbc="T T T"
O        0.00000000       0.00000000       0.00000000       0.20536000      -0.05937541      -0.03879273
H        0.00000000       0.00000000       0.00000000       0.00352135       0.03744525       0.08276996
H        0.00000000       0.00000000       0.00000000      -0.18509206      -0.10125586       0.06601107
O        0.00000000       0.00000000       0.00000000      -1.12292993      -1.03553725       0.88859922
H        0.00000000       0.00000000       0.00000000      -0.18346757       0.41077131      -0.09178191
H        0.00000000       0.00000000       0.00000000       0.19429719       1.33012128      -1.14544642
H        0.00000000       0.00000000       0.00000000       1.08831096      -0.58216906       0.23864090
7
Lattice="529.1772105638412 0.0 0.0 0.0 529.1772105638412 0.0 0.0 0.0 529.1772105638412" Properties=species:S:1:pos:R:3:forces_component_raw:R:3 ipi_comment="Step:        6420  Bead:       0 forces_component_raw{ase}  cell{ase}" pbc="T T T"
O        0.00000000       0.00000000       0.00000000       0.30899802       0.55943060       0.09147275
H        0.00000000       0.00000000       0.00000000      -0.41219989      -0.45458669       0.11510277
H        0.00000000       0.00000000       0.00000000       0.04245763      -0.05424124      -0.27407819
O        0.00000000       0.00000000       0.00000000       0.21703935      -0.32775545       0.35136095
H        0.00000000       0.00000000       0.00000000       0.16935176      -0.27500168       0.13772160
H        0.00000000       0.00000000       0.00000000      -0.08930442       0.66499913      -0.56328362
H        0.00000000       0.00000000       0.00000000      -0.23634267      -0.11284441       0.14170408
7
Lattice="529.1772105638412 0.0 0.0 0.0 529.1772105638412 0.0 0.0 0.0 529.1772105638412" Properties=species:S:1:pos:R:3:forces_component_raw:R:3 ipi_comment="Step:        6440  Bead:       0 forces_component_raw{ase}  cell{ase}" pbc="T T T"
O        0.00000000       0.00000000       0.00000000       0.11563514      -0.74740923      -0.82239086
H        0.00000000       0.00000000       0.00000000      -0.20368487       0.34539425       0.42269671
H        0.00000000       0.00000000       0.00000000       0.02729467       0.12847811       0.25818420
O        0.00000000       0.00000000       0.00000000       0.28900898      -0.36985689       0.63836992
H        0.00000000       0.00000000       0.00000000       0.22092325       0.24579209      -0.20755053
H        0.00000000       0.00000000       0.00000000       0.29512537      -0.37262583       0.18305853
H        0.00000000       0.00000000       0.00000000      -0.74430245       0.77022773      -0.47236770
7
Lattice="529.1772105638412 0.0 0.0 0.0 529.1772105638412 0.0 0.0 0.0 529.1772105638412" Properties=species:S:1:pos:R:3:forces_component_raw:R:3 ipi_comment="Step:        6460  Bead:       0 forces_component_raw{ase}  cell{ase}" pbc="T T T"
O        0.00000000       0.00000000       0.00000000      -0.57166112      -0.72714222       0.15511620
H        0.00000000       0.00000000       0.00000000       0.00060531      -0.03138715      -0.18633443
H        0.00000000       0.00000000       0.00000000       0.38697672       1.05428553       0.32085240
O        0.00000000       0.00000000       0.00000000       2.42953373       1.03573060      -0.98140472
H        0.00000000       0.00000000       0.00000000      -0.20740745      -0.49758253       0.05243030
H        0.00000000       0.00000000       0.00000000      -0.72984886      -1.20303977       0.62252301
H        0.00000000       0.00000000       0.00000000      -1.30819810       0.36913562       0.01681727
7
Lattice="529.1772105638412 0.0 0.0 0.0 529.1772105638412 0.0 0.0 0.0 529.1772105638412" Properties=species:S:1:pos:R:3:forces_component_raw:R:3 ipi_comment="Step:        6480  Bead:       0 forces_component_raw{ase}  cell{ase}" pbc="T T T"
O        0.00000000       0.00000000       0.00000000       0.19366229      -1.00417090      -1.07747567
H        0.00000000       0.00000000       0.00000000      -0.17480771      -0.02557516       0.31433064
H        0.00000000       0.00000000       0.00000000       0.03640300       0.90086484       0.79586065
O        0.00000000       0.00000000       0.00000000       0.72528720      -0.04331380       0.29508126
H        0.00000000       0.00000000       0.00000000       0.09396613       0.33488578      -0.45914555
H        0.00000000       0.00000000       0.00000000      -0.16692439      -1.53832388       0.59279186
H        0.00000000       0.00000000       0.00000000      -0.70758659       1.37563312      -0.46144310
7
Lattice="529.1772105638412 0.0 0.0 0.0 529.1772105638412 0.0 0.0 0.0 529.1772105638412" Properties=species:S:1:pos:R:3:forces_component_raw:R:3 ipi_comment="Step:        6500  Bead:       0 forces_component_raw{ase}  cell{ase}" pbc="T T T"
O        0.00000000       0.00000000       0.00000000      -0.05861086      -0.88563413      -0.10160160
H        0.00000000       0.00000000       0.00000000       0.38943434       0.44032186      -0.60000444
H        0.00000000       0.00000000       0.00000000      -0.15035173       0.61863583       0.44392681
O        0.00000000       0.00000000       0.00000000       1.56360495      -0.35795814      -0.46787536
H        0.00000000       0.00000000       0.00000000       0.19612682      -0.24608293       0.24732132
H        0.00000000       0.00000000       0.00000000      -0.75943989      -0.72592676       0.44463459
H        0.00000000       0.00000000       0.00000000      -1.18076325       1.15664411       0.03359827
7
Lattice="529.1772105638412 0.0 0.0 0.0 529.1772105638412 0.0 0.0 0.0 529.1772105638412" Properties=species:S:1:pos:R:3:forces_component_raw:R:3 ipi_comment="Step:        6520  Bead:       0 forces_component_raw{ase}  cell{ase}" pbc="T T T"
O        0.00000000       0.00000000       0.00000000       0.31906885      -0.74327624      -0.23848963
H        0.00000000       0.00000000       0.00000000       0.24259363       0.93618649      -0.10555959
H        0.00000000       0.00000000       0.00000000      -0.21378681      -0.45517972       0.18509859
O        0.00000000       0.00000000       0.00000000       0.32306326      -0.33401290       0.24411941
H        0.00000000       0.00000000       0.00000000      -0.18612653       0.50635660      -0.18620491
H        0.00000000       0.00000000       0.00000000      -0.32248283      -0.67560226       0.28242630
H        0.00000000       0.00000000       0.00000000      -0.16232932       0.76552802      -0.18139035
7
Lattice="529.1772105638412 0.0 0.0 0.0 529.1772105638412 0.0 0.0 0.0 529.1772105638412" Properties=species:S:1:pos:R:3:forces_component_raw:R:3 ipi_comment="Step:        6540  Bead:       0 forces_component_raw{ase}  cell{ase}" pbc="T T T"
O        0.00000000       0.00000000       0.00000000      -0.30303317      -0.56260413       0.93172372
H        0.00000000       0.00000000       0.00000000       0.40648350       0.53286761      -0.68810070
H        0.00000000       0.00000000       0.00000000      -0.01542950      -0.03084174      -0.40460706
O        0.00000000       0.00000000       0.00000000       0.34120953       0.73584956      -0.22396094
H        0.00000000       0.00000000       0.00000000       0.08326495      -0.23339540      -0.02456057
H        0.00000000       0.00000000       0.00000000      -0.25187600      -0.26257759      -0.02509618
H        0.00000000       0.00000000       0.00000000      -0.26061952      -0.17929810       0.43460149
7
Lattice="529.1772105638412 0.0 0.0 0.0 529.1772105638412 0.0 0.0 0.0 529.1772105638412" Properties=species:S:1:pos:R:3:forces_component_raw:R:3 ipi_comment="Step:        6560  Bead:       0 forces_component_raw{ase}  cell{ase}" pbc="T T T"
O        0.00000000       0.00000000       0.00000000       0.00720978       0.45659649      -0.05702269
H        0.00000000       0.00000000       0.00000000       0.16904987       0.24234933       0.53148294
H        0.00000000       0.00000000       0.00000000      -0.48932389      -0.84063459      -0.40982401
O        0.00000000       0.00000000       0.00000000      -0.70061660       1.02224756       0.08325768
H        0.00000000       0.00000000       0.00000000       0.22307056       0.17792426       0.16885406
H        0.00000000       0.00000000       0.00000000       0.43516708      -0.06096643      -0.22641826
H        0.00000000       0.00000000       0.00000000       0.35544321      -0.99751652      -0.09032962
7
Lattice="529.1772105638412 0.0 0.0 0.0 529.1772105638412 0.0 0.0 0.0 529.1772105638412" Properties=species:S:1:pos:R:3:forces_component_raw:R:3 ipi_comment="Step:        6580  Bead:       0 forces_component_raw{ase}  cell{ase}" pbc="T T T"
O        0.00000000       0.00000000       0.00000000      -0.18351769       0.67036909       1.60182178
H        0.00000000       0.00000000       0.00000000      -0.15443859      -0.21163869      -0.31488931
H        0.00000000       0.00000000       0.00000000      -0.02108157       0.00506806      -0.57874024
O        0.00000000       0.00000000       0.00000000       0.35803294       0.55470812      -0.34027255
H        0.00000000       0.00000000       0.00000000      -0.17702487      -0.21560639      -0.02820241
H        0.00000000       0.00000000       0.00000000       0.19641042       0.65773976       0.25110340
H        0.00000000       0.00000000       0.00000000      -0.01838076      -1.46064020      -0.59082109
7
Lattice="529.1772105638412 0.0 0.0 0.0 529.1772105638412 0.0 0.0 0.0 529.1772105638412" Properties=species:S:1:pos:R:3:forces_component_raw:R:3 ipi_comment="Step:        6600  Bead:       0 forces_component_raw{ase}  cell{ase}" pbc="T T T"
O        0.00000000       0.00000000       0.00000000      -0.35520119       0.13822174      -0.21529788
H        0.00000000       0.00000000       0.00000000       0.04964358       0.21877873       0.58139420
H        0.00000000       0.00000000       0.00000000      -0.14259458      -0.01196402       0.39780438
O        0.00000000       0.00000000       0.00000000      -0.94580478       0.11057937       0.33780480
H        0.00000000       0.00000000       0.00000000       0.01206685       0.12304407      -0.08959088
H        0.00000000       0.00000000       0.00000000       0.64617652       0.36984140       0.05155176
H        0.00000000       0.00000000       0.00000000       0.73571348      -0.94850075      -1.06366635
7
Lattice="529.1772105638412 0.0 0.0 0.0 529.1772105638412 0.0 0.0 0.0 529.1772105638412" Properties=species:S:1:pos:R:3:forces_component_raw:R:3 ipi_comment="Step:        6620  Bead:       0 forces_component_raw{ase}  cell{ase}" pbc="T T T"
O        0.00000000       0.00000000       0.00000000      -0.46313602       0.48106778      -0.03645992
H        0.00000000       0.00000000       0.00000000      -0.44697052      -0.02874738      -0.08251414
H        0.00000000       0.00000000       0.00000000       0.67763299      -0.02656192       0.13186461
O        0.00000000       0.00000000       0.00000000      -0.32916367       0.03658366      -0.24645591
H        0.00000000       0.00000000       0.00000000      -0.01153988      -0.60554361       0.37389565
H        0.00000000       0.00000000       0.00000000       0.77389503       0.92973232       0.01415341
H        0.00000000       0.00000000       0.00000000      -0.20071796      -0.78653091      -0.15448412
7
Lattice="529.1772105638412 0.0 0.0 0.0 529.1772105638412 0.0 0.0 0.0 529.1772105638412" Properties=species:S:1:pos:R:3:forces_component_raw:R:3 ipi_comment="Step:        6640  Bead:       0 forces_component_raw{ase}  cell{ase}" pbc="T T T"
O        0.00000000       0.00000000       0.00000000       0.84881491       0.15006602      -1.90688587
H        0.00000000       0.00000000       0.00000000      -0.23859078      -0.24676383       0.20451823
H        0.00000000       0.00000000       0.00000000      -0.03999355      -0.41139090       1.41440845
O        0.00000000       0.00000000       0.00000000      -0.89228136      -0.86885488       1.13374949
H        0.00000000       0.00000000       0.00000000      -0.41963285       0.51522684      -0.37920940
H        0.00000000       0.00000000       0.00000000       0.63432688      -0.02833721      -0.32007438
H        0.00000000       0.00000000       0.00000000       0.10735667       0.89005381      -0.14650638
7
Lattice="529.1772105638412 0.0 0.0 0.0 529.1772105638412 0.0 0.0 0.0 529.1772105638412" Properties=species:S:1:pos:R:3:forces_component_raw:R:3 ipi_comment="Step:        6660  Bead:       0 forces_component_raw{ase}  cell{ase}" pbc="T T T"
O        0.00000000       0.00000000       0.00000000      -1.23818195       0.52225387      -0.70533043
H        0.00000000       0.00000000       0.00000000       0.67714608      -0.02350253      -0.12583381
H        0.00000000       0.00000000       0.00000000       0.41782242      -0.61420322       0.53209168
O        0.00000000       0.00000000       0.00000000       0.00977135      -1.74793399       0.28908321
H        0.00000000       0.00000000       0.00000000       0.55843312      -0.40153036       0.04358590
H        0.00000000       0.00000000       0.00000000       0.18204379       0.33397865      -0.26397950
H        0.00000000       0.00000000       0.00000000      -0.60703457       1.93093777       0.23038307
7
Lattice="529.1772105638412 0.0 0.0 0.0 529.1772105638412 0.0 0.0 0.0 529.1772105638412" Properties=species:S:1:pos:R:3:forces_component_raw:R:3 ipi_comment="Step:        6680  Bead:       0 forces_component_raw{ase}  cell{ase}" pbc="T T T"
O        0.00000000       0.00000000       0.00000000       0.50027025       0.32954741       0.04012210
H        0.00000000       0.00000000       0.00000000      -0.20639724      -0.01879630      -0.24023682
H        0.00000000       0.00000000       0.00000000      -0.15166056      -0.44238860       0.56082076
O        0.00000000       0.00000000       0.00000000       0.72565401      -0.94120556      -0.37174809
H        0.00000000       0.00000000       0.00000000      -0.35791645       0.19374399      -0.13034400
H        0.00000000       0.00000000       0.00000000      -0.61596096      -0.95623571       0.34340862
H        0.00000000       0.00000000       0.00000000       0.10601094       1.83533454      -0.20202261
7
Lattice="529.1772105638412 0.0 0.0 0.0 529.1772105638412 0.0 0.0 0.0 529.1772105638412" Properties=species:S:1:pos:R:3:forces_component_raw:R:3 ipi_comment="Step:        6700  Bead:       0 forces_component_raw{ase}  cell{ase}" pbc="T T T"
O        0.00000000       0.00000000       0.00000000       0.75056911       0.13011551       0.17165825
H        0.00000000       0.00000000       0.00000000      -0.75761384       0.54266250       0.02803528
H        0.00000000       0.00000000       0.00000000      -0.20170277      -0.28879237       0.18757984
O        0.00000000       0.00000000       0.00000000       1.20884431      -1.22369397      -1.47114742
H        0.00000000       0.00000000       0.00000000       0.03576225       0.07163455       0.17335956
H        0.00000000       0.00000000       0.00000000      -0.81503773      -0.18781161       0.61825293
H        0.00000000       0.00000000       0.00000000      -0.22082150       0.95588535       0.29226136
7
Lattice="529.1772105638412 0.0 0.0 0.0 529.1772105638412 0.0 0.0 0.0 529.1772105638412" Properties=species:S:1:pos:R:3:forces_component_raw:R:3 ipi_comment="Step:        6720  Bead:       0 forces_component_raw{ase}  cell{ase}" pbc="T T T"
O        0.00000000       0.00000000       0.00000000       0.03038120      -0.67210084       0.84919876
H        0.00000000       0.00000000       0.00000000      -0.59333992       1.16872168       0.00359449
H        0.00000000       0.00000000       0.00000000       0.26992947       0.16330659      -0.34360364
O        0.00000000       0.00000000       0.00000000       0.28759772      -0.23890865      -0.34458995
H        0.00000000       0.00000000       0.00000000       0.17476231      -0.19778571      -0.05181837
H        0.00000000       0.00000000       0.00000000      -0.67113900      -0.81682760       0.23680687
H        0.00000000       0.00000000       0.00000000       0.50180829       0.59359455      -0.34958825
7
Lattice="529.1772105638412 0.0 0.0 0.0 529.1772105638412 0.0 0.0 0.0 529.1772105638412" Properties=species:S:1:pos:R:3:forces_component_raw:R:3 ipi_comment="Step:        6740  Bead:       0 forces_component_raw{ase}  cell{ase}" pbc="T T T"
O        0.00000000       0.00000000       0.00000000      -0.15774488      -0.93843276       0.73393995
H        0.00000000       0.00000000       0.00000000      -0.05151904       1.38946700      -0.37861806
H        0.00000000       0.00000000       0.00000000       0.31403250      -0.23587492      -0.21048361
O        0.00000000       0.00000000       0.00000000       0.79966909      -0.12588954      -0.76872611
H        0.00000000       0.00000000       0.00000000      -0.25369322       0.05300649       0.09556577
H        0.00000000       0.00000000       0.00000000      -0.39089859       0.19369590       0.48573893
H        0.00000000       0.00000000       0.00000000      -0.25984621      -0.33597213       0.04258341
7
Lattice="529.1772105638412 0.0 0.0 0.0 529.1772105638412 0.0 0.0 0.0 529.1772105638412" Properties=species:S:1:pos:R:3:forces_component_raw:R:3 ipi_comment="Step:        6760  Bead:       0 forces_component_raw{ase}  cell{ase}" pbc="T T T"
O        0.00000000       0.00000000       0.00000000       0.31428814      -1.72682095      -0.21824151
H        0.00000000       0.00000000       0.00000000      -0.33525890       1.04873884      -0.02436191
H        0.00000000       0.00000000       0.00000000      -0.06294334       0.43698782       0.09651698
O        0.00000000       0.00000000       0.00000000       0.12533268       1.87658287       1.68529964
H        0.00000000       0.00000000       0.00000000       0.19570592      -0.11194536      -0.21408340
H        0.00000000       0.00000000       0.00000000       0.14611632      -0.39363164      -0.55431634
H        0.00000000       0.00000000       0.00000000      -0.38324103      -1.12991166      -0.77081353
7
Lattice="529.1772105638412 0.0 0.0 0.0 529.1772105638412 0.0 0.0 0.0 529.1772105638412" Properties=species:S:1:pos:R:3:forces_component_raw:R:3 ipi_comment="Step:        6780  Bead:       0 forces_component_raw{ase}  cell{ase}" pbc="T T T"
O        0.00000000       0.00000000       0.00000000       0.23043990      -1.29699922      -0.43009412
H        0.00000000       0.00000000       0.00000000       0.40925741       0.67427468      -0.50419420
H        0.00000000       0.00000000       0.00000000      -0.56608009      -0.24167149       0.20767476
O        0.00000000       0.00000000       0.00000000       0.87067056       0.91651148       0.18547988
H        0.00000000       0.00000000       0.00000000       0.05377445       0.33105898       0.23398116
H        0.00000000       0.00000000       0.00000000       0.48361373       0.35871047      -0.00377852
H        0.00000000       0.00000000       0.00000000      -1.48167587      -0.74188447       0.31093091
7
Lattice="529.1772105638412 0.0 0.0 0.0 529.1772105638412 0.0 0.0 0.0 529.1772105638412" Properties=species:S:1:pos:R:3:forces_component_raw:R:3 ipi_comment="Step:        6800  Bead:       0 forces_component_raw{ase}  cell{ase}" pbc="T T T"
O        0.00000000       0.00000000       0.00000000       0.84127134       0.21086073      -0.03470635
H        0.00000000       0.00000000       0.00000000      -0.04190984      -0.11176074      -0.03180668
H        0.00000000       0.00000000       0.00000000      -0.74241388      -0.20480001      -0.22079158
O        0.00000000       0.00000000       0.00000000      -0.19799286       1.25928080       1.65490532
H        0.00000000       0.00000000       0.00000000       0.29509053      -0.42928854      -0.08762185
H        0.00000000       0.00000000       0.00000000       0.09615719      -0.28294268      -0.61283064
H        0.00000000       0.00000000       0.00000000      -0.25020218      -0.44134930      -0.66714817
7
Lattice="529.1772105638412 0.0 0.0 0.0 529.1772105638412 0.0 0.0 0.0 529.1772105638412" Properties=species:S:1:pos:R:3:forces_component_raw:R:3 ipi_comment="Step:        6820  Bead:       0 forces_component_raw{ase}  cell{ase}" pbc="T T T"
O        0.00000000       0.00000000       0.00000000       2.12573910       0.05928803       0.05109870
H        0.00000000       0.00000000       0.00000000      -0.57077420      -0.65157461      -0.04599833
H        0.00000000       0.00000000       0.00000000      -1.20161128       0.28268898      -0.34089959
O        0.00000000       0.00000000       0.00000000       0.12513079      -0.37257072      -0.48276568
H        0.00000000       0.00000000       0.00000000      -0.16959797       0.52203304       0.32019600
H        0.00000000       0.00000000       0.00000000       0.08839560       0.35278320       0.43725860
H        0.00000000       0.00000000       0.00000000      -0.39728224      -0.19264795       0.06111038
7
Lattice="529.1772105638412 0.0 0.0 0.0 529.1772105638412 0.0 0.0 0.0 529.1772105638412" Properties=species:S:1:pos:R:3:forces_component_raw:R:3 ipi_comment="Step:        6840  Bead:       0 forces_component_raw{ase}  cell{ase}" pbc="T T T"
O        0.00000000       0.00000000       0.00000000       1.15755022       0.95069349       0.69016236
H        0.00000000       0.00000000       0.00000000      -0.18728876      -0.66566032      -0.17677575
H        0.00000000       0.00000000       0.00000000      -1.11784768       0.14033854      -0.06265961
O        0.00000000       0.00000000       0.00000000      -0.31842667      -0.39692235       0.41821921
H        0.00000000       0.00000000       0.00000000      -0.04130147      -0.15951100      -0.07997066
H        0.00000000       0.00000000       0.00000000      -0.16103601      -0.02985126      -0.57990551
H        0.00000000       0.00000000       0.00000000       0.66835034       0.16091290      -0.20907021
7
Lattice="529.1772105638412 0.0 0.0 0.0 529.1772105638412 0.0 0.0 0.0 529.1772105638412" Properties=species:S:1:pos:R:3:forces_component_raw:R:3 ipi_comment="Step:        6860  Bead:       0 forces_component_raw{ase}  cell{ase}" pbc="T T T"
O        0.00000000       0.00000000       0.00000000       0.04066554       0.51417214       0.22318704
H        0.00000000       0.00000000       0.00000000      -0.67229653      -0.55485010      -0.39178619
H        0.00000000       0.00000000       0.00000000       0.35656107       0.21761984       0.14940715
O        0.00000000       0.00000000       0.00000000      -0.20505707      -0.02899849      -1.86871887
H        0.00000000       0.00000000       0.00000000       0.23259223      -0.24511769      -0.05608147
H        0.00000000       0.00000000       0.00000000      -0.09310454       0.08374381       0.56758177
H        0.00000000       0.00000000       0.00000000       0.34063947       0.01343048       1.37641084
7
Lattice="529.1772105638412 0.0 0.0 0.0 529.1772105638412 0.0 0.0 0.0 529.1772105638412" Properties=species:S:1:pos:R:3:forces_component_raw:R:3 ipi_comment="Step:        6880  Bead:       0 forces_component_raw{ase}  cell{ase}" pbc="T T T"
O        0.00000000       0.00000000       0.00000000      -0.41921786       0.71980816       0.32433277
H        0.00000000       0.00000000       0.00000000      -0.61848760      -0.42926532      -0.46922538
H        0.00000000       0.00000000       0.00000000       0.64182657       0.02653515       0.16234477
O        0.00000000       0.00000000       0.00000000       0.15423709      -0.30777574      -0.37590772
H        0.00000000       0.00000000       0.00000000      -0.07943113      -0.14853281       0.26696330
H        0.00000000       0.00000000       0.00000000      -0.70052457      -0.01587361      -0.58860552
H        0.00000000       0.00000000       0.00000000       1.02159739       0.15510425       0.68009776
7
Lattice="529.1772105638412 0.0 0.0 0.0 529.1772105638412 0.0 0.0 0.0 529.1772105638412" Properties=species:S:1:pos:R:3:forces_component_raw:R:3 ipi_comment="Step:        6900  Bead:       0 forces_component_raw{ase}  cell{ase}" pbc="T T T"
O        0.00000000       0.00000000       0.00000000      -0.06409055       0.24931133       0.21393253
H        0.00000000       0.00000000       0.00000000      -0.02756184      -0.29253203      -0.20941854
H        0.00000000       0.00000000       0.00000000      -0.00561285      -0.05392045       0.01789760
O        0.00000000       0.00000000       0.00000000       1.42174900      -0.61447281      -0.47794795
H        0.00000000       0.00000000       0.00000000      -0.03277142       0.41785184      -0.13077694
H        0.00000000       0.00000000       0.00000000      -1.08567882       0.10801554       0.35195336
H        0.00000000       0.00000000       0.00000000      -0.20603359       0.18574670       0.23435980
7
Lattice="529.1772105638412 0.0 0.0 0.0 529.1772105638412 0.0 0.0 0.0 529.1772105638412" Properties=species:S:1:pos:R:3:forces_component_raw:R:3 ipi_comment="Step:        6920  Bead:       0 forces_component_raw{ase}  cell{ase}" pbc="T T T"
O        0.00000000       0.00000000       0.00000000      -0.07264949      -0.73677159      -0.58015657
H        0.00000000       0.00000000       0.00000000       0.37268040       0.53981954       0.55167747
H        0.00000000       0.00000000       0.00000000       0.05682826      -0.14374828      -0.13229644
O        0.00000000       0.00000000       0.00000000      -0.19256169       1.04059756       0.90718025
H        0.00000000       0.00000000       0.00000000      -0.02478215      -0.32647374      -0.25161022
H        0.00000000       0.00000000       0.00000000      -0.79986185       0.02025517      -0.51787794
H        0.00000000       0.00000000       0.00000000       0.66034621      -0.39367852       0.02308345
7
Lattice="529.1772105638412 0.0 0.0 0.0 529.1772105638412 0.0 0.0 0.0 529.1772105638412" Properties=species:S:1:pos:R:3:forces_component_raw:R:3 ipi_comment="Step:        6940  Bead:       0 forces_component_raw{ase}  cell{ase}" pbc="T T T"
O        0.00000000       0.00000000       0.00000000       0.31042379      -0.54918409      -0.48505539
H        0.00000000       0.00000000       0.00000000       0.10472441       0.25207681       0.27990216
H        0.00000000       0.00000000       0.00000000      -0.05078173      -0.16233076      -0.14744018
O        0.00000000       0.00000000       0.00000000       0.28495276      -0.59886605      -0.95391673
H        0.00000000       0.00000000       0.00000000      -0.07633857       0.34719062       0.30413133
H        0.00000000       0.00000000       0.00000000      -0.33271444       0.48558611       0.49921537
H        0.00000000       0.00000000       0.00000000      -0.24026635       0.22552721       0.50316370
7
Lattice="529.1772105638412 0.0 0.0 0.0 529.1772105638412 0.0 0.0 0.0 529.1772105638412" Properties=species:S:1:pos:R:3:forces_component_raw:R:3 ipi_comment="Step:        6960  Bead:       0 forces_component_raw{ase}  cell{ase}" pbc="T T T"
O        0.00000000       0.00000000       0.00000000       0.01633178       0.28861350       0.23918039
H        0.00000000       0.00000000       0.00000000      -0.08076984      -0.10253185      -0.06429708
H        0.00000000       0.00000000       0.00000000      -0.17480052       0.04488918       0.01626253
O        0.00000000       0.00000000       0.00000000      -0.10330647       0.63421792       0.38082665
H        0.00000000       0.00000000       0.00000000       0.22649223      -0.30671334      -0.25152475
H        0.00000000       0.00000000       0.00000000      -0.06309176      -0.29484198      -0.36977285
H        0.00000000       0.00000000       0.00000000       0.17914453      -0.26363349       0.04932523
7
Lattice="529.1772105638412 0.0 0.0 0.0 529.1772105638412 0.0 0.0 0.0 529.1772105638412" Properties=species:S:1:pos:R:3:forces_component_raw:R:3 ipi_comment="Step:        6980  Bead:       0 forces_component_raw{ase}  cell{ase}" pbc="T T T"
O        0.00000000       0.00000000       0.00000000       0.41231385       0.60763544       0.15862775
H        0.00000000       0.00000000       0.00000000      -0.19224358      -0.01015180      -0.06669962
H        0.00000000       0.00000000       0.00000000      -0.41517127       0.14932704       0.17156094
O        0.00000000       0.00000000       0.00000000       0.52675021      -0.80657500      -0.47081876
H        0.00000000       0.00000000       0.00000000      -0.13564231      -0.15227374       0.22808319
H        0.00000000       0.00000000       0.00000000       0.05651033      -0.07763863      -0.00233003
H        0.00000000       0.00000000       0.00000000      -0.25251731       0.28967679      -0.01842368
7
Lattice="529.1772105638412 0.0 0.0 0.0 529.1772105638412 0.0 0.0 0.0 529.1772105638412" Properties=species:S:1:pos:R:3:forces_component_raw:R:3 ipi_comment="Step:        7000  Bead:       0 forces_component_raw{ase}  cell{ase}" pbc="T T T"
O        0.00000000       0.00000000       0.00000000      -0.16001841      -0.62838662      -0.47709227
H        0.00000000       0.00000000       0.00000000       0.20402944       0.18517724       0.11663687
H        0.00000000       0.00000000       0.00000000      -0.26989797       0.27554637       0.32159966
O        0.00000000       0.00000000       0.00000000       0.20262119      -0.04553139       0.74988425
H        0.00000000       0.00000000       0.00000000       0.22703171       0.29989791       0.07400215
H        0.00000000       0.00000000       0.00000000      -0.02441114      -0.10241914      -0.23960030
H        0.00000000       0.00000000       0.00000000      -0.17935474       0.01571578      -0.54543007
7
Lattice="529.1772105638412 0.0 0.0 0.0 529.1772105638412 0.0 0.0 0.0 529.1772105638412" Properties=species:S:1:pos:R:3:forces_component_raw:R:3 ipi_comment="Step:        7020  Bead:       0 forces_component_raw{ase}  cell{ase}" pbc="T T T"
O        0.00000000       0.00000000       0.00000000      -0.68170750      -0.06494135       0.11839116
H        0.00000000       0.00000000       0.00000000       0.86211944       0.43924272       0.03255504
H        0.00000000       0.00000000       0.00000000       0.00849953      -0.34733147      -0.36550385
O        0.00000000       0.00000000       0.00000000       0.01251918       0.21194881       1.11108470
H        0.00000000       0.00000000       0.00000000      -0.15348056      -0.30388829      -0.16584870
H        0.00000000       0.00000000       0.00000000       0.10647093      -0.14666176       0.06261298
H        0.00000000       0.00000000       0.00000000      -0.15442118       0.21163103      -0.79329097
7
Lattice="529.1772105638412 0.0 0.0 0.0 529.1772105638412 0.0 0.0 0.0 529.1772105638412" Properties=species:S:1:pos:R:3:forces_component_raw:R:3 ipi_comment="Step:        7040  Bead:       0 forces_component_raw{ase}  cell{ase}" pbc="T T T"
O        0.00000000       0.00000000       0.00000000      -0.77668756      -0.01799172       0.12118447
H        0.00000000       0.00000000       0.00000000       0.36944288       0.22021356       0.46384293
H        0.00000000       0.00000000       0.00000000       0.59862501       0.03390440      -0.58286208
O        0.00000000       0.00000000       0.00000000      -0.02964056       0.32497704      -0.05008912
H        0.00000000       0.00000000       0.00000000      -0.24810109      -0.28253233       0.01254380
H        0.00000000       0.00000000       0.00000000       0.01773092      -0.31250990       0.48501790
H        0.00000000       0.00000000       0.00000000       0.06863046       0.03393884      -0.44963759
7
Lattice="529.1772105638412 0.0 0.0 0.0 529.1772105638412 0.0 0.0 0.0 529.1772105638412" Properties=species:S:1:pos:R:3:forces_component_raw:R:3 ipi_comment="Step:        7060  Bead:       0 forces_component_raw{ase}  cell{ase}" pbc="T T T"
O        0.00000000       0.00000000       0.00000000      -1.39499688      -0.60133535       1.48132205
H        0.00000000       0.00000000       0.00000000       0.60654348       0.14731038      -0.17716754
H        0.00000000       0.00000000       0.00000000       0.37166441       0.26424605      -0.92860913
O        0.00000000       0.00000000       0.00000000       0.81145859       0.89313615      -0.70980090
H        0.00000000       0.00000000       0.00000000       0.36548555       0.60096109      -0.17098081
H        0.00000000       0.00000000       0.00000000      -0.64793170      -0.91233397       0.56715775
H        0.00000000       0.00000000       0.00000000      -0.11222342      -0.39198440      -0.06192124
7
Lattice="529.1772105638412 0.0 0.0 0.0 529.1772105638412 0.0 0.0 0.0 529.1772105638412" Properties=species:S:1:pos:R:3:forces_component_raw:R:3 ipi_comment="Step:        7080  Bead:       0 forces_component_raw{ase}  cell{ase}" pbc="T T T"
O        0.00000000       0.00000000       0.00000000       0.77768713       0.78371084       0.24249077
H        0.00000000       0.00000000       0.00000000      -0.76154214      -0.44298083       0.08560523
H        0.00000000       0.00000000       0.00000000       0.15891993       0.01938422      -0.13003016
O        0.00000000       0.00000000       0.00000000       0.71543110      -0.01664555      -0.09662229
H        0.00000000       0.00000000       0.00000000      -0.50368041      -0.01101223       0.19137359
H        0.00000000       0.00000000       0.00000000      -0.35792375      -0.28907001       0.68388868
H        0.00000000       0.00000000       0.00000000      -0.02889204      -0.04338641      -0.97670579
7
Lattice="529.1772105638412 0.0 0.0 0.0 529.1772105638412 0.0 0.0 0.0 529.1772105638412" Properties=species:S:1:pos:R:3:forces_component_raw:R:3 ipi_comment="Step:        7100  Bead:       0 forces_component_raw{ase}  cell{ase}" pbc="T T T"
O        0.00000000       0.00000000       0.00000000       1.95121801       1.86644376      -1.14574647
H        0.00000000       0.00000000       0.00000000      -1.59047115      -1.81703616      -0.07858506
H        0.00000000       0.00000000       0.00000000      -0.44731698      -0.19645211       1.08197189
O        0.00000000       0.00000000       0.00000000      -0.53093737       1.32223463       1.84690822
H        0.00000000       0.00000000       0.00000000       0.57498789      -0.79093206      -0.44831485
H        0.00000000       0.00000000       0.00000000       0.06069475      -0.19296134      -0.20699662
H        0.00000000       0.00000000       0.00000000      -0.01817527      -0.19129652      -1.04923690
7
Lattice="529.1772105638412 0.0 0.0 0.0 529.1772105638412 0.0 0.0 0.0 529.1772105638412" Properties=species:S:1:pos:R:3:forces_component_raw:R:3 ipi_comment="Step:        7120  Bead:       0 forces_component_raw{ase}  cell{ase}" pbc="T T T"
O        0.00000000       0.00000000       0.00000000       2.03232432      -0.05738440      -1.98726440
H        0.00000000       0.00000000       0.00000000      -1.31862116      -1.31785226       0.62187410
H        0.00000000       0.00000000       0.00000000      -0.19779828       0.28705752       0.79785788
O        0.00000000       0.00000000       0.00000000      -0.12051749      -0.53582031      -0.09307492
H        0.00000000       0.00000000       0.00000000      -0.50127572       0.88284195       0.42479289
H        0.00000000       0.00000000       0.00000000       0.07077184       0.28354931       0.17329639
H        0.00000000       0.00000000       0.00000000       0.03511663       0.45760799       0.06251812
7
Lattice="529.1772105638412 0.0 0.0 0.0 529.1772105638412 0.0 0.0 0.0 529.1772105638412" Properties=species:S:1:pos:R:3:forces_component_raw:R:3 ipi_comment="Step:        7140  Bead:       0 forces_component_raw{ase}  cell{ase}" pbc="T T T"
O        0.00000000       0.00000000       0.00000000       0.36890924       1.19329000       0.16255069
H        0.00000000       0.00000000       0.00000000      -0.37355417      -0.73027384      -0.14629273
H        0.00000000       0.00000000       0.00000000      -0.16148405      -0.25428999       0.07526922
O        0.00000000       0.00000000       0.00000000      -0.57169020       0.03834182      -0.67381776
H        0.00000000       0.00000000       0.00000000       0.41655380      -0.56184739      -0.49084386
H        0.00000000       0.00000000       0.00000000       0.13654637       0.39476383      -0.63931674
H        0.00000000       0.00000000       0.00000000       0.18471926      -0.07998437       1.71245098
7
Lattice="529.1772105638412 0.0 0.0 0.0 529.1772105638412 0.0 0.0 0.0 529.1772105638412" Properties=species:S:1:pos:R:3:forces_component_raw:R:3 ipi_comment="Step:        7160  Bead:       0 forces_component_raw{ase}  cell{ase}" pbc="T T T"
O        0.00000000       0.00000000       0.00000000      -0.95198202      -0.33417410       1.17383623
H        0.00000000       0.00000000       0.00000000       0.44268841       0.64219421       0.35802868
H        0.00000000       0.00000000       0.00000000       0.50353903       0.26082349      -1.38718343
O        0.00000000       0.00000000       0.00000000      -0.20535183      -1.71517742      -1.74627650
H        0.00000000       0.00000000       0.00000000      -0.30758494      -0.08748747       0.22887144
H        0.00000000       0.00000000       0.00000000       0.10389084       0.68674386      -0.02521059
H        0.00000000       0.00000000       0.00000000       0.41480029       0.54707736       1.39793444
7
Lattice="529.1772105638412 0.0 0.0 0.0 529.1772105638412 0.0 0.0 0.0 529.1772105638412" Properties=species:S:1:pos:R:3:forces_component_raw:R:3 ipi_comment="Step:        7180  Bead:       0 forces_component_raw{ase}  cell{ase}" pbc="T T T"
O        0.00000000       0.00000000       0.00000000      -1.35584271      -0.43260205       2.30671979
H        0.00000000       0.00000000       0.00000000       1.00616527       0.57364553      -0.68342436
H        0.00000000       0.00000000       0.00000000       0.11184332      -0.25037259      -1.51127613
O        0.00000000       0.00000000       0.00000000      -0.03526318      -0.56415492      -0.56211341
H        0.00000000       0.00000000       0.00000000       0.13113545       0.43933803      -0.00590217
H        0.00000000       0.00000000       0.00000000      -0.11105084       0.22277367      -0.47931421
H        0.00000000       0.00000000       0.00000000       0.25301248       0.01137215       0.93531031
7
Lattice="529.1772105638412 0.0 0.0 0.0 529.1772105638412 0.0 0.0 0.0 529.1772105638412" Properties=species:S:1:pos:R:3:forces_component_raw:R:3 ipi_comment="Step:        7200  Bead:       0 forces_component_raw{ase}  cell{ase}" pbc="T T T"
O        0.00000000       0.00000000       0.00000000      -0.28156602      -0.36585832       0.10524130
H        0.00000000       0.00000000       0.00000000       0.09371781       0.31311655       0.29980764
H        0.00000000       0.00000000       0.00000000       0.33898667       0.08680613      -0.46566349
O        0.00000000       0.00000000       0.00000000      -0.06543255      -0.15249896      -0.47880849
H        0.00000000       0.00000000       0.00000000      -0.23611623      -0.04813646       0.04114926
H        0.00000000       0.00000000       0.00000000      -0.05076605       0.01421523       0.02920532
H        0.00000000       0.00000000       0.00000000       0.20117617       0.15235591       0.46906817
7
Lattice="529.1772105638412 0.0 0.0 0.0 529.1772105638412 0.0 0.0 0.0 529.1772105638412" Properties=species:S:1:pos:R:3:forces_component_raw:R:3 ipi_comment="Step:        7220  Bead:       0 forces_component_raw{ase}  cell{ase}" pbc="T T T"
O        0.00000000       0.00000000       0.00000000      -0.15427923      -0.76923192      -0.17367148
H        0.00000000       0.00000000       0.00000000       0.11495447       0.06423539       0.00383677
H        0.00000000       0.00000000       0.00000000       0.04541126       0.02685949      -0.00902474
O        0.00000000       0.00000000       0.00000000      -0.41530514       0.97166783       0.23399848
H        0.00000000       0.00000000       0.00000000       0.47987324      -0.00261482      -0.08875275
H        0.00000000       0.00000000       0.00000000       0.05337033      -0.31695575       0.35108632
H        0.00000000       0.00000000       0.00000000      -0.12402505       0.02604005      -0.31747252
7
Lattice="529.1772105638412 0.0 0.0 0.0 529.1772105638412 0.0 0.0 0.0 529.1772105638412" Properties=species:S:1:pos:R:3:forces_component_raw:R:3 ipi_comment="Step:        7240  Bead:       0 forces_component_raw{ase}  cell{ase}" pbc="T T T"
O        0.00000000       0.00000000       0.00000000       0.83169931      -0.60721743      -0.58608741
H        0.00000000       0.00000000       0.00000000      -0.17685998       0.10032743      -0.00756586
H        0.00000000       0.00000000       0.00000000      -0.16598827      -0.02979113       0.18994778
O        0.00000000       0.00000000       0.00000000       0.13531899       1.60423005      -0.77456540
H        0.00000000       0.00000000       0.00000000      -0.46358156       0.16689009       0.44709510
H        0.00000000       0.00000000       0.00000000      -0.04479399      -1.16899801       0.71433729
H        0.00000000       0.00000000       0.00000000      -0.11579472      -0.06544116       0.01683849
7
Lattice="529.1772105638412 0.0 0.0 0.0 529.1772105638412 0.0 0.0 0.0 529.1772105638412" Properties=species:S:1:pos:R:3:forces_component_raw:R:3 ipi_comment="Step:        7260  Bead:       0 forces_component_raw{ase}  cell{ase}" pbc="T T T"
O        0.00000000       0.00000000       0.00000000       0.50053835      -0.16328502      -0.32805854
H        0.00000000       0.00000000       0.00000000      -0.19665125      -0.52587247       0.07210469
H        0.00000000       0.00000000       0.00000000      -0.50972509       0.49376097       0.41143024
O        0.00000000       0.00000000       0.00000000       0.10228622       1.30996418      -0.06750226
H        0.00000000       0.00000000       0.00000000       0.28558749      -0.04389226      -0.42384455
H        0.00000000       0.00000000       0.00000000       0.22353017      -1.00055289       0.79465342
H        0.00000000       0.00000000       0.00000000      -0.40556586      -0.07012266      -0.45878288
7
Lattice="529.1772105638412 0.0 0.0 0.0 529.1772105638412 0.0 0.0 0.0 529.1772105638412" Properties=species:S:1:pos:R:3:forces_component_raw:R:3 ipi_comment="Step:        7280  Bead:       0 forces_component_raw{ase}  cell{ase}" pbc="T T T"
O        0.00000000       0.00000000       0.00000000       0.60719282       0.53408653      -0.36155310
H        0.00000000       0.00000000       0.00000000      -0.28183314      -0.45997232       0.11884211
H        0.00000000       0.00000000       0.00000000      -0.49051851       0.38785949       0.30469507
O        0.00000000       0.00000000       0.00000000       0.25365639       0.81982190      -0.77121318
H        0.00000000       0.00000000       0.00000000      -0.12662423      -0.09214187       0.34712005
H        0.00000000       0.00000000       0.00000000       0.30550963      -0.74288839       0.92993915
H        0.00000000       0.00000000       0.00000000      -0.26738274      -0.44676501      -0.56782997
7
Lattice="529.1772105638412 0.0 0.0 0.0 529.1772105638412 0.0 0.0 0.0 529.1772105638412" Properties=species:S:1:pos:R:3:forces_component_raw:R:3 ipi_comment="Step:        7300  Bead:       0 forces_component_raw{ase}  cell{ase}" pbc="T T T"
O        0.00000000       0.00000000       0.00000000      -0.29168627      -0.44322443       0.18257262
H        0.00000000       0.00000000       0.00000000       0.37881494       0.29721469      -0.13865770
H        0.00000000       0.00000000       0.00000000      -0.21109325       0.23060834       0.19678757
O        0.00000000       0.00000000       0.00000000       0.33778727       0.90990472       0.29923117
H        0.00000000       0.00000000       0.00000000      -0.17161542       0.27892965      -0.38674221
H        0.00000000       0.00000000       0.00000000       0.41081405      -0.54077298       0.53347170
H        0.00000000       0.00000000       0.00000000      -0.45302129      -0.73266006      -0.68666327
7
Lattice="529.1772105638412 0.0 0.0 0.0 529.1772105638412 0.0 0.0 0.0 529.1772105638412" Properties=species:S:1:pos:R:3:forces_component_raw:R:3 ipi_comment="Step:        7320  Bead:       0 forces_component_raw{ase}  cell{ase}" pbc="T T T"
O        0.00000000       0.00000000       0.00000000      -0.97158689      -0.08057040       0.20937325
H        0.00000000       0.00000000       0.00000000       0.41836059       0.39519727      -0.10892116
H        0.00000000       0.00000000       0.00000000       0.60083103      -0.31397504      -0.23322302
O        0.00000000       0.00000000       0.00000000      -0.36093640       0.42390370      -0.13334519
H        0.00000000       0.00000000       0.00000000       0.31775412      -0.16768116       0.42713389
H        0.00000000       0.00000000       0.00000000       0.06112543       0.21544194       0.19764680
H        0.00000000       0.00000000       0.00000000      -0.06554788      -0.47231603      -0.35866463
7
Lattice="529.1772105638412 0.0 0.0 0.0 529.1772105638412 0.0 0.0 0.0 529.1772105638412" Properties=species:S:1:pos:R:3:forces_component_raw:R:3 ipi_comment="Step:        7340  Bead:       0 forces_component_raw{ase}  cell{ase}" pbc="T T T"
O        0.00000000       0.00000000       0.00000000      -0.26038650       0.09661400       0.05500327
H        0.00000000       0.00000000       0.00000000      -0.38244882       0.13133681       0.21109307
H        0.00000000       0.00000000       0.00000000       0.92961192      -0.02253370      -0.30216280
O        0.00000000       0.00000000       0.00000000       0.75672579      -0.38828802       0.76492429
H        0.00000000       0.00000000       0.00000000      -0.56065607      -0.08124813      -0.13677797
H        0.00000000       0.00000000       0.00000000      -0.36876679       0.23404640      -0.50544345
H        0.00000000       0.00000000       0.00000000      -0.11407959       0.03007251      -0.08663636
7
Lattice="529.1772105638412 0.0 0.0 0.0 529.1772105638412 0.0 0.0 0.0 529.1772105638412" Properties=species:S:1:pos:R:3:forces_component_raw:R:3 ipi_comment="Step:        7360  Bead:       0 forces_component_raw{ase}  cell{ase}" pbc="T T T"
O        0.00000000       0.00000000       0.00000000      -0.95983452       1.35055399       0.29375696
H        0.00000000       0.00000000       0.00000000      -0.07639584      -0.54527432       0.05715545
H        0.00000000       0.00000000       0.00000000       0.66589409      -0.31633186      -0.28150603
O        0.00000000       0.00000000       0.00000000       0.59446311      -1.69886113       0.67160130
H        0.00000000       0.00000000       0.00000000       0.38754088       0.02087054      -0.00519723
H        0.00000000       0.00000000       0.00000000      -1.28029180       0.71829182      -1.01237059
H        0.00000000       0.00000000       0.00000000       0.66862404       0.47075093       0.27656025
7
Lattice="529.1772105638412 0.0 0.0 0.0 529.1772105638412 0.0 0.0 0.0 529.1772105638412" Properties=species:S:1:pos:R:3:forces_component_raw:R:3 ipi_comment="Step:        7380  Bead:       0 forces_component_raw{ase}  cell{ase}" pbc="T T T"
O        0.00000000       0.00000000       0.00000000       0.89877916       0.96111453      -0.50673425
H        0.00000000       0.00000000       0.00000000      -0.94513685      -0.91734618       0.41408968
H        0.00000000       0.00000000       0.00000000      -0.08928812       0.34637779       0.00139529
O        0.00000000       0.00000000       0.00000000       0.90492928      -2.32587743       0.81879854
H        0.00000000       0.00000000       0.00000000      -0.27043501      -0.15059388       0.16064388
H        0.00000000       0.00000000       0.00000000      -1.65326572       0.99740130      -1.17996395
H        0.00000000       0.00000000       0.00000000       1.15441704       1.08892358       0.29177103
7
Lattice="529.1772105638412 0.0 0.0 0.0 529.1772105638412 0.0 0.0 0.0 529.1772105638412" Properties=species:S:1:pos:R:3:forces_component_raw:R:3 ipi_comment="Step:        7400  Bead:       0 forces_component_raw{ase}  cell{ase}" pbc="T T T"
O        0.00000000       0.00000000       0.00000000       0.38265619       0.35768259      -0.38664472
H        0.00000000       0.00000000       0.00000000      -0.13828230      -0.58740401       0.02431601
H        0.00000000       0.00000000       0.00000000      -0.64395744       0.07922164       0.39168137
O        0.00000000       0.00000000       0.00000000       0.10634404      -1.79266978       1.05778921
H        0.00000000       0.00000000       0.00000000       0.86471355       0.01794435      -0.01510578
H        0.00000000       0.00000000       0.00000000      -1.77055645       1.11462403      -1.02792788
H        0.00000000       0.00000000       0.00000000       1.19908214       0.81060118      -0.04410800
7
Lattice="529.1772105638412 0.0 0.0 0.0 529.1772105638412 0.0 0.0 0.0 529.1772105638412" Properties=species:S:1:pos:R:3:forces_component_raw:R:3 ipi_comment="Step:        7420  Bead:       0 forces_component_raw{ase}  cell{ase}" pbc="T T T"
O        0.00000000       0.00000000       0.00000000       1.72748042      -0.57204902      -1.36818755
H        0.00000000       0.00000000       0.00000000      -0.28027469      -0.17121089       0.08108848
H        0.00000000       0.00000000       0.00000000      -0.90390521       0.06340788       1.14004851
O        0.00000000       0.00000000       0.00000000      -0.17596386       0.06941742       0.36303222
H        0.00000000       0.00000000       0.00000000      -0.85537505      -0.12274617      -0.06736916
H        0.00000000       0.00000000       0.00000000      -0.41448933      -0.23565829      -0.18080556
H        0.00000000       0.00000000       0.00000000       0.90252793       0.96883917       0.03219298
7
Lattice="529.1772105638412 0.0 0.0 0.0 529.1772105638412 0.0 0.0 0.0 529.1772105638412" Properties=species:S:1:pos:R:3:forces_component_raw:R:3 ipi_comment="Step:        7440  Bead:       0 forces_component_raw{ase}  cell{ase}" pbc="T T T"
O        0.00000000       0.00000000       0.00000000      -0.47663605      -1.01301635      -1.26666904
H        0.00000000       0.00000000       0.00000000       0.51320464       0.29317343      -0.03694718
H        0.00000000       0.00000000       0.00000000      -0.24288575       0.25679287       1.08620453
O        0.00000000       0.00000000       0.00000000      -1.75775350      -0.31690264      -0.22240305
H        0.00000000       0.00000000       0.00000000       1.04605603      -0.02818376       0.36415452
H        0.00000000       0.00000000       0.00000000       0.48933318       0.41893935       0.30930370
H        0.00000000       0.00000000       0.00000000       0.42868131       0.38919693      -0.23364341
7
Lattice="529.1772105638412 0.0 0.0 0.0 529.1772105638412 0.0 0.0 0.0 529.1772105638412" Properties=species:S:1:pos:R:3:forces_component_raw:R:3 ipi_comment="Step:        7460  Bead:       0 forces_component_raw{ase}  cell{ase}" pbc="T T T"
O        0.00000000       0.00000000       0.00000000      -0.31436420      -0.12017435       0.21570969
H        0.00000000       0.00000000       0.00000000       0.53784734       0.38945520      -0.24746551
H        0.00000000       0.00000000       0.00000000       0.01521626       0.20689654       0.16704321
O        0.00000000       0.00000000       0.00000000      -0.24628212       0.62305176      -0.73133683
H        0.00000000       0.00000000       0.00000000      -0.82670415      -0.35806209      -0.17416549
H        0.00000000       0.00000000       0.00000000       0.75483996      -0.50336242       0.48416209
H        0.00000000       0.00000000       0.00000000       0.07944697      -0.23780495       0.28605285
7
Lattice="529.1772105638412 0.0 0.0 0.0 529.1772105638412 0.0 0.0 0.0 529.1772105638412" Properties=species:S:1:pos:R:3:forces_component_raw:R:3 ipi_comment="Step:        7480  Bead:       0 forces_component_raw{ase}  cell{ase}" pbc="T T T"
O        0.00000000       0.00000000       0.00000000      -0.34104085       0.65463615       0.83366829
H        0.00000000       0.00000000       0.00000000       0.13872314      -0.21103603      -0.06474164
H        0.00000000       0.00000000       0.00000000      -0.01768215      -0.15617418      -0.51245153
O        0.00000000       0.00000000       0.00000000      -1.06007886      -0.80392254      -0.63442874
H        0.00000000       0.00000000       0.00000000       0.33174682       0.38542876      -0.07894981
H        0.00000000       0.00000000       0.00000000       1.20967436       0.50611329       0.53159100
H        0.00000000       0.00000000       0.00000000      -0.26134235      -0.37504560      -0.07468754
7
Lattice="529.1772105638412 0.0 0.0 0.0 529.1772105638412 0.0 0.0 0.0 529.1772105638412" Properties=species:S:1:pos:R:3:forces_component_raw:R:3 ipi_comment="Step:        7500  Bead:       0 forces_component_raw{ase}  cell{ase}" pbc="T T T"
O        0.00000000       0.00000000       0.00000000      -0.22094810       0.58319318       1.79764581
H        0.00000000       0.00000000       0.00000000       0.23112685       0.77611083      -0.62911475
H        0.00000000       0.00000000       0.00000000       0.04597250      -0.97796285      -1.49671138
O        0.00000000       0.00000000       0.00000000      -0.17770785       0.99849588      -0.42694557
H        0.00000000       0.00000000       0.00000000      -0.13085614      -0.19672859       0.41561529
H        0.00000000       0.00000000       0.00000000       0.41308820      -0.31738859       0.19840950
H        0.00000000       0.00000000       0.00000000      -0.16067547      -0.86571980       0.14110112
7
Lattice="529.1772105638412 0.0 0.0 0.0 529.1772105638412 0.0 0.0 0.0 529.1772105638412" Properties=species:S:1:pos:R:3:forces_component_raw:R:3 ipi_comment="Step:        7520  Bead:       0 forces_component_raw{ase}  cell{ase}" pbc="T T T"
O        0.00000000       0.00000000       0.00000000       0.41840136       0.25089037       2.57790137
H        0.00000000       0.00000000       0.00000000      -0.00889179       0.43670064      -0.66363549
H        0.00000000       0.00000000       0.00000000      -0.37068075      -0.93741167      -1.50274301
O        0.00000000       0.00000000       0.00000000       1.57335604      -0.54722977       0.75548351
H        0.00000000       0.00000000       0.00000000       0.04967117       0.14627095      -0.70777559
H        0.00000000       0.00000000       0.00000000      -0.89846987       0.70454544      -0.38586110
H        0.00000000       0.00000000       0.00000000      -0.76338625      -0.05376595      -0.07336950
7
Lattice="529.1772105638412 0.0 0.0 0.0 529.1772105638412 0.0 0.0 0.0 529.1772105638412" Properties=species:S:1:pos:R:3:forces_component_raw:R:3 ipi_comment="Step:        7540  Bead:       0 forces_component_raw{ase}  cell{ase}" pbc="T T T"
O        0.00000000       0.00000000       0.00000000       0.33211887      -0.54941678       0.30297613
H        0.00000000       0.00000000       0.00000000      -0.31154159       0.54811406      -0.06277841
H        0.00000000       0.00000000       0.00000000      -0.06981066      -0.68247140      -0.71442574
O        0.00000000       0.00000000       0.00000000       0.89623302      -0.09930629       0.08032149
H        0.00000000       0.00000000       0.00000000       0.37000880       0.29957277       0.47044683
H        0.00000000       0.00000000       0.00000000      -2.05306721       0.46186662       0.01430067
H        0.00000000       0.00000000       0.00000000       0.83605886       0.02164119      -0.09084097
7
Lattice="529.1772105638412 0.0 0.0 0.0 529.1772105638412 0.0 0.0 0.0 529.1772105638412" Properties=species:S:1:pos:R:3:forces_component_raw:R:3 ipi_comment="Step:        7560  Bead:       0 forces_component_raw{ase}  cell{ase}" pbc="T T T"
O        0.00000000       0.00000000       0.00000000       0.22484577      -0.35761297       0.17913610
H        0.00000000       0.00000000       0.00000000      -0.00903806      -0.20868903      -0.12871999
H        0.00000000       0.00000000       0.00000000      -0.03144246       0.39799577       0.45212019
O        0.00000000       0.00000000       0.00000000       1.69460702      -2.28080631       0.22961944
H        0.00000000       0.00000000       0.00000000      -0.41741961      -0.20435946      -0.57226616
H        0.00000000       0.00000000       0.00000000      -1.93914175       1.33941675       0.36923173
H        0.00000000       0.00000000       0.00000000       0.47758943       1.31405521      -0.52912140
7
Lattice="529.1772105638412 0.0 0.0 0.0 529.1772105638412 0.0 0.0 0.0 529.1772105638412" Properties=species:S:1:pos:R:3:forces_component_raw:R:3 ipi_comment="Step:        7580  Bead:       0 forces_component_raw{ase}  cell{ase}" pbc="T T T"
O        0.00000000       0.00000000       0.00000000      -1.04212582      -1.21134031      -1.93289710
H        0.00000000       0.00000000       0.00000000       0.08711240      -0.09013182       0.64319509
H        0.00000000       0.00000000       0.00000000       0.61526883       1.42168737       0.99519831
O        0.00000000       0.00000000       0.00000000       0.14649609      -0.89253241      -0.08973569
H        0.00000000       0.00000000       0.00000000       0.56454122      -0.02263346       0.36387134
H        0.00000000       0.00000000       0.00000000      -1.54578948       0.21620268       0.87634176
H        0.00000000       0.00000000       0.00000000       1.17449665       0.57874805      -0.85597348
7
Lattice="529.1772105638412 0.0 0.0 0.0 529.1772105638412 0.0 0.0 0.0 529.1772105638412" Properties=species:S:1:pos:R:3:forces_component_raw:R:3 ipi_comment="Step:        7600  Bead:       0 forces_component_raw{ase}  cell{ase}" pbc="T T T"
O        0.00000000       0.00000000       0.00000000      -0.27811146      -1.56051016      -0.29893059
H        0.00000000       0.00000000       0.00000000       0.03109843      -0.21448824      -0.02114856
H        0.00000000       0.00000000       0.00000000       0.72433067       1.66581953       0.59465146
O        0.00000000       0.00000000       0.00000000      -0.15030208      -2.12293864       1.00853443
H        0.00000000       0.00000000       0.00000000      -0.59395266       0.40139800      -0.38265276
H        0.00000000       0.00000000       0.00000000      -0.12105775       0.46732038      -0.06967163
H        0.00000000       0.00000000       0.00000000       0.38799486       1.36339927      -0.83078247
7
Lattice="529.1772105638412 0.0 0.0 0.0 529.1772105638412 0.0 0.0 0.0 529.1772105638412" Properties=species:S:1:pos:R:3:forces_component_raw:R:3 ipi_comment="Step:        7620  Bead:       0 forces_component_raw{ase}  cell{ase}" pbc="T T T"
O        0.00000000       0.00000000       0.00000000      -1.70314169      -0.10898766      -0.51453591
H        0.00000000       0.00000000       0.00000000      -0.00103905       0.09096532      -0.17356372
H        0.00000000       0.00000000       0.00000000       1.26720250       0.79609835       0.21149951
O        0.00000000       0.00000000       0.00000000      -0.71668077      -0.67080754       1.35265422
H        0.00000000       0.00000000       0.00000000       0.21782744      -0.21629901       0.59618062
H        0.00000000       0.00000000       0.00000000       0.57170540      -0.43363613      -0.64448381
H        0.00000000       0.00000000       0.00000000       0.36412615       0.54266662      -0.82775074
7
Lattice="529.1772105638412 0.0 0.0 0.0 529.1772105638412 0.0 0.0 0.0 529.1772105638412" Properties=species:S:1:pos:R:3:forces_component_raw:R:3 ipi_comment="Step:        7640  Bead:       0 forces_component_raw{ase}  cell{ase}" pbc="T T T"
O        0.00000000       0.00000000       0.00000000      -0.25430983       0.47035077       0.72295594
H        0.00000000       0.00000000       0.00000000      -0.31130245      -0.03428943      -0.62425167
H        0.00000000       0.00000000       0.00000000       0.37096644      -0.17793182       0.00776643
O        0.00000000       0.00000000       0.00000000      -0.79168165       0.12776208       1.92292858
H        0.00000000       0.00000000       0.00000000       0.14316367      -0.15568477      -0.37255949
H        0.00000000       0.00000000       0.00000000       0.84903872      -0.42521447      -1.73685480
H        0.00000000       0.00000000       0.00000000      -0.00587502       0.19500768       0.08001471
7
Lattice="529.1772105638412 0.0 0.0 0.0 529.1772105638412 0.0 0.0 0.0 529.1772105638412" Properties=species:S:1:pos:R:3:forces_component_raw:R:3 ipi_comment="Step:        7660  Bead:       0 forces_component_raw{ase}  cell{ase}" pbc="T T T"
O        0.00000000       0.00000000       0.00000000       1.91958857      -0.75904870       1.22571636
H        0.00000000       0.00000000       0.00000000      -0.86931068       0.33304104      -1.06399679
H        0.00000000       0.00000000       0.00000000      -0.57494307      -0.49778497       0.02252910
O        0.00000000       0.00000000       0.00000000      -1.13088870       2.93408728       0.26108867
H        0.00000000       0.00000000       0.00000000      -0.25135535       0.15623061      -0.05708551
H        0.00000000       0.00000000       0.00000000       0.84752232      -1.57375884      -1.11106217
H        0.00000000       0.00000000       0.00000000       0.05938670      -0.59276629       0.72281039
7
Lattice="529.1772105638412 0.0 0.0 0.0 529.1772105638412 0.0 0.0 0.0 529.1772105638412" Properties=species:S:1:pos:R:3:forces_component_raw:R:3 ipi_comment="Step:        7680  Bead:       0 forces_component_raw{ase}  cell{ase}" pbc="T T T"
O        0.00000000       0.00000000       0.00000000       1.46595872       0.13943008       0.59057987
H        0.00000000       0.00000000       0.00000000      -0.96721810       0.40110862      -0.66616851
H        0.00000000       0.00000000       0.00000000      -0.66789174      -0.94848633       0.16519815
O        0.00000000       0.00000000       0.00000000       0.01521996       0.44418216      -1.04135466
H        0.00000000       0.00000000       0.00000000       0.33247870       0.11837515       0.06056738
H        0.00000000       0.00000000       0.00000000       0.23721923      -0.21291387      -0.41307300
H        0.00000000       0.00000000       0.00000000      -0.41576684       0.05830398       1.30425048
7
Lattice="529.1772105638412 0.0 0.0 0.0 529.1772105638412 0.0 0.0 0.0 529.1772105638412" Properties=species:S:1:pos:R:3:forces_component_raw:R:3 ipi_comment="Step:        7700  Bead:       0 forces_component_raw{ase}  cell{ase}" pbc="T T T"
O        0.00000000       0.00000000       0.00000000       0.81081802       1.53680384      -0.28672791
H        0.00000000       0.00000000       0.00000000       0.03156269       0.02299440       0.06171381
H        0.00000000       0.00000000       0.00000000      -0.99126697      -0.97416610       0.25014517
O        0.00000000       0.00000000       0.00000000       0.55910134      -0.43631196      -1.44497979
H        0.00000000       0.00000000       0.00000000      -0.04513687      -0.11982417      -0.08545309
H        0.00000000       0.00000000       0.00000000      -0.07982104       0.47234714       0.92674065
H        0.00000000       0.00000000       0.00000000      -0.28525722      -0.50184327       0.57856095
7
Lattice="529.1772105638412 0.0 0.0 0.0 529.1772105638412 0.0 0.0 0.0 529.1772105638412" Properties=species:S:1:pos:R:3:forces_component_raw:R:3 ipi_comment="Step:        7720  Bead:       0 forces_component_raw{ase}  cell{ase}" pbc="T T T"
O        0.00000000       0.00000000       0.00000000       0.11356530       2.01620555      -1.02584052
H        0.00000000       0.00000000       0.00000000       0.84140593      -0.04847439       0.52402848
H        0.00000000       0.00000000       0.00000000      -1.18495393      -1.51153124       0.27932841
O        0.00000000       0.00000000       0.00000000       0.21581054      -2.38569308      -1.33116031
H        0.00000000       0.00000000       0.00000000      -0.04634784       0.32496476       0.09993637
H        0.00000000       0.00000000       0.00000000       0.16929540       1.39919663       1.21823001
H        0.00000000       0.00000000       0.00000000      -0.10877514       0.20533156       0.23547739
7
Lattice="529.1772105638412 0.0 0.0 0.0 529.1772105638412 0.0 0.0 0.0 529.1772105638412" Properties=species:S:1:pos:R:3:forces_component_raw:R:3 ipi_comment="Step:        7740  Bead:       0 forces_component_raw{ase}  cell{ase}" pbc="T T T"
O        0.00000000       0.00000000       0.00000000      -0.57914043       1.32709801      -0.71188563
H        0.00000000       0.00000000       0.00000000       1.04396081      -0.08929002       0.50344598
H        0.00000000       0.00000000       0.00000000      -0.59193897      -0.72146088       0.09629166
O        0.00000000       0.00000000       0.00000000      -0.20634425      -1.49677241       0.04429333
H        0.00000000       0.00000000       0.00000000       0.08891336       0.02169186      -0.45964712
H        0.00000000       0.00000000       0.00000000      -0.09266725       1.04063583       1.52055240
H        0.00000000       0.00000000       0.00000000       0.33721662      -0.08190256      -0.99305082
7
Lattice="529.1772105638412 0.0 0.0 0.0 529.1772105638412 0.0 0.0 0.0 529.1772105638412" Properties=species:S:1:pos:R:3:forces_component_raw:R:3 ipi_comment="Step:        7760  Bead:       0 forces_component_raw{ase}  cell{ase}" pbc="T T T"
O        0.00000000       0.00000000       0.00000000      -0.46082199      -0.22378218      -0.19629115
H        0.00000000       0.00000000       0.00000000       0.61280918      -0.25504193       0.24301150
H        0.00000000       0.00000000       0.00000000       0.09550463       0.45558906      -0.16442990
O        0.00000000       0.00000000       0.00000000      -0.90551377      -0.40334845       0.42525336
H        0.00000000       0.00000000       0.00000000       0.06030345      -0.80670655       0.82939762
H        0.00000000       0.00000000       0.00000000       0.10749376       0.21914327       0.19080079
H        0.00000000       0.00000000       0.00000000       0.49022490       1.01414716      -1.32774234
7
Lattice="529.1772105638412 0.0 0.0 0.0 529.1772105638412 0.0 0.0 0.0 529.1772105638412" Properties=species:S:1:pos:R:3:forces_component_raw:R:3 ipi_comment="Step:        7780  Bead:       0 forces_component_raw{ase}  cell{ase}" pbc="T T T"
O        0.00000000       0.00000000       0.00000000       0.02009377      -1.34225142       0.39088559
H        0.00000000       0.00000000       0.00000000      -0.06460822      -0.11838546       0.03773168
H        0.00000000       0.00000000       0.00000000       0.37409100       1.00401426      -0.21678504
O        0.00000000       0.00000000       0.00000000      -0.60230732      -0.12471437       2.28747607
H        0.00000000       0.00000000       0.00000000      -0.10136503       0.29571116      -0.46687207
H        0.00000000       0.00000000       0.00000000       0.00266325      -0.29798257      -0.28695852
H        0.00000000       0.00000000       0.00000000       0.37143260       0.58360815      -1.74547792
7
Lattice="529.1772105638412 0.0 0.0 0.0 529.1772105638412 0.0 0.0 0.0 529.1772105638412" Properties=species:S:1:pos:R:3:forces_component_raw:R:3 ipi_comment="Step:        7800  Bead:       0 forces_component_raw{ase}  cell{ase}" pbc="T T T"
O        0.00000000       0.00000000       0.00000000      -0.10880151      -0.67999119       0.29061759
H        0.00000000       0.00000000       0.00000000      -0.45322925      -0.15810639       0.10853809
H        0.00000000       0.00000000       0.00000000       0.66050315       0.45263565      -0.09699154
O        0.00000000       0.00000000       0.00000000      -0.52106261       0.91431606       1.11039770
H        0.00000000       0.00000000       0.00000000       0.11887971      -0.03300525      -0.62919212
H        0.00000000       0.00000000       0.00000000       0.22150999      -0.33248484      -0.29732218
H        0.00000000       0.00000000       0.00000000       0.08220063      -0.16336381      -0.48604757
7
Lattice="529.1772105638412 0.0 0.0 0.0 529.1772105638412 0.0 0.0 0.0 529.1772105638412" Properties=species:S:1:pos:R:3:forces_component_raw:R:3 ipi_comment="Step:        7820  Bead:       0 forces_component_raw{ase}  cell{ase}" pbc="T T T"
O        0.00000000       0.00000000       0.00000000       1.21646047      -0.52958131       0.10985124
H        0.00000000       0.00000000       0.00000000      -0.72124839       0.50331378      -0.22017050
H        0.00000000       0.00000000       0.00000000      -0.33933520       0.10324770      -0.00194377
O        0.00000000       0.00000000       0.00000000       0.20534015      -0.01482265      -1.48674441
H        0.00000000       0.00000000       0.00000000      -0.40447113      -0.14825493       0.72474814
H        0.00000000       0.00000000       0.00000000       0.07288516      -0.33589950       0.06594783
H        0.00000000       0.00000000       0.00000000      -0.02963108       0.42199692       0.80831146
7
Lattice="529.1772105638412 0.0 0.0 0.0 529.1772105638412 0.0 0.0 0.0 529.1772105638412" Properties=species:S:1:pos:R:3:forces_component_raw:R:3 ipi_comment="Step:        7840  Bead:       0 forces_component_raw{ase}  cell{ase}" pbc="T T T"
O        0.00000000       0.00000000       0.00000000       0.78992677       0.56710577      -0.27056783
H        0.00000000       0.00000000       0.00000000      -1.19577301       0.36737895       0.06320971
H        0.00000000       0.00000000       0.00000000      -0.07231814      -0.61293352       0.42712632
O        0.00000000       0.00000000       0.00000000      -1.41588331      -1.04131508      -0.51452017
H        0.00000000       0.00000000       0.00000000       0.85920078      -0.16817024      -0.93200916
H        0.00000000       0.00000000       0.00000000       0.08222616       0.53025425       0.12541547
H        0.00000000       0.00000000       0.00000000       0.95262057       0.35767981       1.10134554
7
Lattice="529.1772105638412 0.0 0.0 0.0 529.1772105638412 0.0 0.0 0.0 529.1772105638412" Properties=species:S:1:pos:R:3:forces_component_raw:R:3 ipi_comment="Step:        7860  Bead:       0 forces_component_raw{ase}  cell{ase}" pbc="T T T"
O        0.00000000       0.00000000       0.00000000       1.68530226       0.67889273      -0.46258879
H        0.00000000       0.00000000       0.00000000      -0.73846322       0.12552667      -0.25882107
H        0.00000000       0.00000000       0.00000000      -0.62157792      -0.00921333       0.35776460
O        0.00000000       0.00000000       0.00000000       1.72395993      -2.22646761      -1.88139332
H        0.00000000       0.00000000       0.00000000      -1.10015953       0.16044642       0.43325144
H        0.00000000       0.00000000       0.00000000      -1.04401434       0.38001129       0.71299309
H        0.00000000       0.00000000       0.00000000       0.09495276       0.89080405       1.09879399
7
Lattice="529.1772105638412 0.0 0.0 0.0 529.1772105638412 0.0 0.0 0.0 529.1772105638412" Properties=species:S:1:pos:R:3:forces_component_raw:R:3 ipi_comment="Step:        7880  Bead:       0 forces_component_raw{ase}  cell{ase}" pbc="T T T"
O        0.00000000       0.00000000       0.00000000      -0.78351605       0.98140919      -0.57504428
H        0.00000000       0.00000000       0.00000000      -0.07571793       0.00055335       0.21421120
H        0.00000000       0.00000000       0.00000000       0.16288115      -0.40208382       0.42614752
O        0.00000000       0.00000000       0.00000000      -0.19052291      -1.45358336      -1.23398507
H        0.00000000       0.00000000       0.00000000       0.85312975       0.02042268      -0.73046774
H        0.00000000       0.00000000       0.00000000      -0.71562612       0.83253116       0.66442728
H        0.00000000       0.00000000       0.00000000       0.74937207       0.02075094       1.23471117
7
Lattice="529.1772105638412 0.0 0.0 0.0 529.1772105638412 0.0 0.0 0.0 529.1772105638412" Properties=species:S:1:pos:R:3:forces_component_raw:R:3 ipi_comment="Step:        7900  Bead:       0 forces_component_raw{ase}  cell{ase}" pbc="T T T"
O        0.00000000       0.00000000       0.00000000      -0.35065442      -1.03077674      -0.00458550
H        0.00000000       0.00000000       0.00000000       1.54838407       0.08238271       0.10504472
H        0.00000000       0.00000000       0.00000000      -0.48296735       0.24187456      -0.27512825
O        0.00000000       0.00000000       0.00000000       0.20616293      -0.53343237      -1.71384538
H        0.00000000       0.00000000       0.00000000      -0.77905727       0.69969034       0.69128531
H        0.00000000       0.00000000       0.00000000      -0.38222796       0.44613946       0.50537455
H        0.00000000       0.00000000       0.00000000       0.24036008       0.09412198       0.69185472
7
Lattice="529.1772105638412 0.0 0.0 0.0 529.1772105638412 0.0 0.0 0.0 529.1772105638412" Properties=species:S:1:pos:R:3:forces_component_raw:R:3 ipi_comment="Step:        7920  Bead:       0 forces_component_raw{ase}  cell{ase}" pbc="T T T"
O        0.00000000       0.00000000       0.00000000      -2.52334405       0.39607918      -0.08967435
H        0.00000000       0.00000000       0.00000000       1.90875590      -0.03767997       0.73584330
H        0.00000000       0.00000000       0.00000000       0.40268385      -0.57833505      -0.06759965
O        0.00000000       0.00000000       0.00000000      -0.46881917       1.75584484       1.13305259
H        0.00000000       0.00000000       0.00000000       0.53700233      -0.74701262      -0.75104076
H        0.00000000       0.00000000       0.00000000       0.09019801      -0.53358352      -0.93449795
H        0.00000000       0.00000000       0.00000000       0.05352333      -0.25531268      -0.02608299
7
Lattice="529.1772105638412 0.0 0.0 0.0 529.1772105638412 0.0 0.0 0.0 529.1772105638412" Properties=species:S:1:pos:R:3:forces_component_raw:R:3 ipi_comment="Step:        7940  Bead:       0 forces_component_raw{ase}  cell{ase}" pbc="T T T"
O        0.00000000       0.00000000       0.00000000      -0.27711856      -0.59305978      -0.35245228
H        0.00000000       0.00000000       0.00000000       0.82893050       0.08542547       0.06923944
H        0.00000000       0.00000000       0.00000000      -0.31605762       0.12422921      -0.09327775
O        0.00000000       0.00000000       0.00000000       0.22750461       1.09795046       1.94439733
H        0.00000000       0.00000000       0.00000000      -0.32327020       0.59094787       0.83021677
H        0.00000000       0.00000000       0.00000000       0.01945467      -1.72152067      -1.04812932
H        0.00000000       0.00000000       0.00000000      -0.15944351       0.41602758      -1.34999419
7
Lattice="529.1772105638412 0.0 0.0 0.0 529.1772105638412 0.0 0.0 0.0 529.1772105638412" Properties=species:S:1:pos:R:3:forces_component_raw:R:3 ipi_comment="Step:        7960  Bead:       0 forces_component_raw{ase}  cell{ase}" pbc="T T T"
O        0.00000000       0.00000000       0.00000000       0.71911192       1.10357857      -0.50701666
H        0.00000000       0.00000000       0.00000000      -0.92625416       0.05940700      -0.02658057
H        0.00000000       0.00000000       0.00000000      -0.19574416      -0.65189910       0.59702212
O        0.00000000       0.00000000       0.00000000       0.69395316       1.30628884       3.47700382
H        0.00000000       0.00000000       0.00000000       0.22519493      -0.43858063      -0.83069945
H        0.00000000       0.00000000       0.00000000      -0.73372251      -1.25492895      -0.65022296
H        0.00000000       0.00000000       0.00000000       0.21746051      -0.12386584      -2.05950666
7
Lattice="529.1772105638412 0.0 0.0 0.0 529.1772105638412 0.0 0.0 0.0 529.1772105638412" Properties=species:S:1:pos:R:3:forces_component_raw:R:3 ipi_comment="Step:        7980  Bead:       0 forces_component_raw{ase}  cell{ase}" pbc="T T T"
O        0.00000000       0.00000000       0.00000000       2.28315545       0.19218917       0.58829820
H        0.00000000       0.00000000       0.00000000      -1.40171635       0.66284382      -1.03049636
H        0.00000000       0.00000000       0.00000000      -1.04695213      -0.51571196       0.11377484
O        0.00000000       0.00000000       0.00000000       0.61129987      -0.32474899       0.42109495
H        0.00000000       0.00000000       0.00000000      -0.01695190       0.57168102       0.54205728
H        0.00000000       0.00000000       0.00000000      -0.38579202      -1.25991679      -0.60885739
H        0.00000000       0.00000000       0.00000000      -0.04304284       0.67366362      -0.02587175
7
Lattice="529.1772105638412 0.0 0.0 0.0 529.1772105638412 0.0 0.0 0.0 529.1772105638412" Properties=species:S:1:pos:R:3:forces_component_raw:R:3 ipi_comment="Step:        8000  Bead:       0 forces_component_raw{ase}  cell{ase}" pbc="T T T"
O        0.00000000       0.00000000       0.00000000       1.47141636       1.54023576       0.28163207
H        0.00000000       0.00000000       0.00000000      -1.53498328      -0.99520016      -0.48227257
H        0.00000000       0.00000000       0.00000000       0.27273491       0.14978224       0.32024574
O        0.00000000       0.00000000       0.00000000       0.46548772       0.68672949      -0.44073486
H        0.00000000       0.00000000       0.00000000      -0.34966594      -0.72888732      -0.74860978
H        0.00000000       0.00000000       0.00000000      -0.26557225      -0.27298820       0.15099070
H        0.00000000       0.00000000       0.00000000      -0.05941755      -0.37967169       0.91874898
7
Lattice="529.1772105638412 0.0 0.0 0.0 529.1772105638412 0.0 0.0 0.0 529.1772105638412" Properties=species:S:1:pos:R:3:forces_component_raw:R:3 ipi_comment="Step:        8020  Bead:       0 forces_component_raw{ase}  cell{ase}" pbc="T T T"
O        0.00000000       0.00000000       0.00000000       0.57625210      -1.85032416       1.18385792
H        0.00000000       0.00000000       0.00000000      -0.97775865       0.67879886      -0.99922800
H        0.00000000       0.00000000       0.00000000      -0.01469237       0.67583335      -0.37153971
O        0.00000000       0.00000000       0.00000000      -0.78693098      -1.49580360      -1.70728863
H        0.00000000       0.00000000       0.00000000       0.69473857       1.05281520       0.12581721
H        0.00000000       0.00000000       0.00000000       0.47646254       0.80605442       0.31003866
H        0.00000000       0.00000000       0.00000000       0.03192875       0.13262603       1.45834256
7
Lattice="529.1772105638412 0.0 0.0 0.0 529.1772105638412 0.0 0.0 0.0 529.1772105638412" Properties=species:S:1:pos:R:3:forces_component_raw:R:3 ipi_comment="Step:        8040  Bead:       0 forces_component_raw{ase}  cell{ase}" pbc="T T T"
O        0.00000000       0.00000000       0.00000000      -0.12462264      -0.13357973      -0.29423428
H        0.00000000       0.00000000       0.00000000      -0.38485009      -0.91100669       0.03507435
H        0.00000000       0.00000000       0.00000000       0.98305333       1.17888212       0.51577973
O        0.00000000       0.00000000       0.00000000      -0.22717583      -0.10702026      -0.82189447
H        0.00000000       0.00000000       0.00000000      -0.61344862      -0.84204221      -0.32653487
H        0.00000000       0.00000000       0.00000000       0.27844560       1.14392686       0.35532504
H        0.00000000       0.00000000       0.00000000       0.08859825      -0.32915995       0.53648448
7
Lattice="529.1772105638412 0.0 0.0 0.0 529.1772105638412 0.0 0.0 0.0 529.1772105638412" Properties=species:S:1:pos:R:3:forces_component_raw:R:3 ipi_comment="Step:        8060  Bead:       0 forces_component_raw{ase}  cell{ase}" pbc="T T T"
O        0.00000000       0.00000000       0.00000000      -1.58842707      -2.45817590      -0.17891038
H        0.00000000       0.00000000       0.00000000       0.66680384       0.69476503       0.76871211
H        0.00000000       0.00000000       0.00000000       1.01108396       1.07711172      -0.70018935
O        0.00000000       0.00000000       0.00000000      -0.62390733      -0.44401664      -0.43835169
H        0.00000000       0.00000000       0.00000000       0.29019842       0.26201284       0.91414345
H        0.00000000       0.00000000       0.00000000       0.30327642       0.48578012       0.19308257
H        0.00000000       0.00000000       0.00000000      -0.05902836       0.38252306      -0.55848664
7
Lattice="529.1772105638412 0.0 0.0 0.0 529.1772105638412 0.0 0.0 0.0 529.1772105638412" Properties=species:S:1:pos:R:3:forces_component_raw:R:3 ipi_comment="Step:        8080  Bead:       0 forces_component_raw{ase}  cell{ase}" pbc="T T T"
O        0.00000000       0.00000000       0.00000000      -0.58180225      -0.40420193      -0.59312439
H        0.00000000       0.00000000       0.00000000       0.22586601      -0.94543082       1.04822207
H        0.00000000       0.00000000       0.00000000       0.77999652       0.71679175       0.70153201
O        0.00000000       0.00000000       0.00000000      -0.41496372       0.79583389       1.54422105
H        0.00000000       0.00000000       0.00000000      -0.11637130      -0.05255410      -1.25580991
H        0.00000000       0.00000000       0.00000000      -0.08829090       0.04618347       0.27238634
H        0.00000000       0.00000000       0.00000000       0.19556564      -0.15662202      -1.71742738
7
Lattice="529.1772105638412 0.0 0.0 0.0 529.1772105638412 0.0 0.0 0.0 529.1772105638412" Properties=species:S:1:pos:R:3:forces_component_raw:R:3 ipi_comment="Step:        8100  Bead:       0 forces_component_raw{ase}  cell{ase}" pbc="T T T"
O        0.00000000       0.00000000       0.00000000      -0.14642513      -0.46359545      -0.63646341
H        0.00000000       0.00000000       0.00000000       0.61602581       0.50192839       0.95666397
H        0.00000000       0.00000000       0.00000000      -0.37936318      -0.21750253      -0.56251443
O        0.00000000       0.00000000       0.00000000      -0.55565739       0.08958197       1.39597822
H        0.00000000       0.00000000       0.00000000      -0.07566582       0.10345015       1.12531209
H        0.00000000       0.00000000       0.00000000       0.19588530      -0.78367663      -0.31564996
H        0.00000000       0.00000000       0.00000000       0.34520027       0.76981419      -1.96332634
7
Lattice="529.1772105638412 0.0 0.0 0.0 529.1772105638412 0.0 0.0 0.0 529.1772105638412" Properties=species:S:1:pos:R:3:forces_component_raw:R:3 ipi_comment="Step:        8120  Bead:       0 forces_component_raw{ase}  cell{ase}" pbc="T T T"
O        0.00000000       0.00000000       0.00000000       0.27756131       2.07898760      -0.23519468
H        0.00000000       0.00000000       0.00000000       0.11867040      -0.21844590       0.45417714
H        0.00000000       0.00000000       0.00000000      -0.80372703      -1.31902600      -0.16354854
O        0.00000000       0.00000000       0.00000000      -0.78581143      -0.08659130       3.02820922
H        0.00000000       0.00000000       0.00000000       0.42553312      -0.24603556      -0.92224038
H        0.00000000       0.00000000       0.00000000      -0.10249451      -0.51307798      -0.83288926
H        0.00000000       0.00000000       0.00000000       0.87026841       0.30418915      -1.32851315
7
Lattice="529.1772105638412 0.0 0.0 0.0 529.1772105638412 0.0 0.0 0.0 529.1772105638412" Properties=species:S:1:pos:R:3:forces_component_raw:R:3 ipi_comment="Step:        8140  Bead:       0 forces_component_raw{ase}  cell{ase}" pbc="T T T"
O        0.00000000       0.00000000       0.00000000       0.24655208       0.80967063      -0.24628866
H        0.00000000       0.00000000       0.00000000      -0.10605586       0.36963576      -0.05986035
H        0.00000000       0.00000000       0.00000000      -0.50605524      -0.75971604      -0.25260741
O        0.00000000       0.00000000       0.00000000       0.07465637      -1.01975155       0.75151348
H        0.00000000       0.00000000       0.00000000      -0.10589132       0.43546799       0.52997708
H        0.00000000       0.00000000       0.00000000      -0.11085597      -0.22078699       0.14110404
H        0.00000000       0.00000000       0.00000000       0.50764978       0.38547975      -0.86383838
7
Lattice="529.1772105638412 0.0 0.0 0.0 529.1772105638412 0.0 0.0 0.0 529.1772105638412" Properties=species:S:1:pos:R:3:forces_component_raw:R:3 ipi_comment="Step:        8160  Bead:       0 forces_component_raw{ase}  cell{ase}" pbc="T T T"
O        0.00000000       0.00000000       0.00000000       0.45727795       1.25142050       0.28724426
H        0.00000000       0.00000000       0.00000000      -0.34575906      -0.37371093      -0.30270261
H        0.00000000       0.00000000       0.00000000      -0.13171375      -0.31986469       0.11207861
O        0.00000000       0.00000000       0.00000000       0.14481628      -0.27525055       0.27361399
H        0.00000000       0.00000000       0.00000000       0.07642987      -0.42820001      -0.55684292
H        0.00000000       0.00000000       0.00000000      -0.13515762       0.30962074       0.02645719
H        0.00000000       0.00000000       0.00000000      -0.06589377      -0.16401500       0.16015145
7
Lattice="529.1772105638412 0.0 0.0 0.0 529.1772105638412 0.0 0.0 0.0 529.1772105638412" Properties=species:S:1:pos:R:3:forces_component_raw:R:3 ipi_comment="Step:        8180  Bead:       0 forces_component_raw{ase}  cell{ase}" pbc="T T T"
O        0.00000000       0.00000000       0.00000000       0.84420532      -1.11492622       1.07710719
H        0.00000000       0.00000000       0.00000000      -0.69108415       0.44980171      -0.91223604
H        0.00000000       0.00000000       0.00000000      -0.05706102       0.58423138      -0.30798712
O        0.00000000       0.00000000       0.00000000       0.50252622      -0.30346978      -0.77488828
H        0.00000000       0.00000000       0.00000000      -0.12916079       0.10684139       0.41912758
H        0.00000000       0.00000000       0.00000000      -0.56826478       0.31015462       0.55319357
H        0.00000000       0.00000000       0.00000000       0.09883910      -0.03263325      -0.05431688
7
Lattice="529.1772105638412 0.0 0.0 0.0 529.1772105638412 0.0 0.0 0.0 529.1772105638412" Properties=species:S:1:pos:R:3:forces_component_raw:R:3 ipi_comment="Step:        8200  Bead:       0 forces_component_raw{ase}  cell{ase}" pbc="T T T"
O        0.00000000       0.00000000       0.00000000       0.56119466      -0.27222836       0.85305333
H        0.00000000       0.00000000       0.00000000      -1.48928380      -0.78966838      -0.90925229
H        0.00000000       0.00000000       0.00000000       1.03783000       0.61739057       0.42594016
O        0.00000000       0.00000000       0.00000000       0.37468675       0.48157930      -0.40308526
H        0.00000000       0.00000000       0.00000000       0.22176823       0.14693174      -0.36331546
H        0.00000000       0.00000000       0.00000000      -0.66362792       0.25482476       0.20148599
H        0.00000000       0.00000000       0.00000000      -0.04256797      -0.43882936       0.19517380
7
Lattice="529.1772105638412 0.0 0.0 0.0 529.1772105638412 0.0 0.0 0.0 529.1772105638412" Properties=species:S:1:pos:R:3:forces_component_raw:R:3 ipi_comment="Step:        8220  Bead:       0 forces_component_raw{ase}  cell{ase}" pbc="T T T"
O        0.00000000       0.00000000       0.00000000      -0.03689855      -0.93188846       2.65073920
H        0.00000000       0.00000000       0.00000000      -0.62367356       0.49617583      -1.56759858
H        0.00000000       0.00000000       0.00000000       0.53798062       0.77460998      -1.07316077
O        0.00000000       0.00000000       0.00000000       2.40851522      -0.19358087       0.10675682
H        0.00000000       0.00000000       0.00000000      -0.12105343      -0.22506769      -0.23403072
H        0.00000000       0.00000000       0.00000000      -1.28374577       0.56091637      -0.12685910
H        0.00000000       0.00000000       0.00000000      -0.88112438      -0.48116523       0.24415356
7
Lattice="529.1772105638412 0.0 0.0 0.0 529.1772105638412 0.0 0.0 0.0 529.1772105638412" Properties=species:S:1:pos:R:3:forces_component_raw:R:3 ipi_comment="Step:        8240  Bead:       0 forces_component_raw{ase}  cell{ase}" pbc="T T T"
O        0.00000000       0.00000000       0.00000000      -1.20446849       0.50774503      -0.22093391
H        0.00000000       0.00000000       0.00000000      -1.04230452      -0.31992021      -0.12835753
H        0.00000000       0.00000000       0.00000000       1.81626559       0.45320410      -0.06153607
O        0.00000000       0.00000000       0.00000000       1.30993378       0.09644389       0.19921866
H        0.00000000       0.00000000       0.00000000       0.18347332      -0.24921574       0.28931311
H        0.00000000       0.00000000       0.00000000      -0.62354523       0.05061111      -0.20399231
H        0.00000000       0.00000000       0.00000000      -0.43935424      -0.53886795       0.12628791
7
Lattice="529.1772105638412 0.0 0.0 0.0 529.1772105638412 0.0 0.0 0.0 529.1772105638412" Properties=species:S:1:pos:R:3:forces_component_raw:R:3 ipi_comment="Step:        8260  Bead:       0 forces_component_raw{ase}  cell{ase}" pbc="T T T"
O        0.00000000       0.00000000       0.00000000       0.04363242      -1.62877596       1.36816907
H        0.00000000       0.00000000       0.00000000      -0.02882600       0.16597322      -0.39895606
H        0.00000000       0.00000000       0.00000000       0.48059696       0.60046286      -0.93445814
O        0.00000000       0.00000000       0.00000000      -0.25043428      -0.52455348       0.04846704
H        0.00000000       0.00000000       0.00000000      -0.54388321       1.07488823       0.11934967
H        0.00000000       0.00000000       0.00000000       0.00170332       0.04631540      -0.07323599
H        0.00000000       0.00000000       0.00000000       0.29721069       0.26568979      -0.12933570
7
Lattice="529.1772105638412 0.0 0.0 0.0 529.1772105638412 0.0 0.0 0.0 529.1772105638412" Properties=species:S:1:pos:R:3:forces_component_raw:R:3 ipi_comment="Step:        8280  Bead:       0 forces_component_raw{ase}  cell{ase}" pbc="T T T"
O        0.00000000       0.00000000       0.00000000      -1.12990594       0.89955402      -0.32106805
H        0.00000000       0.00000000       0.00000000       0.10326850      -0.21813338       0.40817446
H        0.00000000       0.00000000       0.00000000       0.70574558      -0.23305973       0.06270611
O        0.00000000       0.00000000       0.00000000      -2.65638066      -1.48267150       0.01920652
H        0.00000000       0.00000000       0.00000000       0.68282551      -0.48217023      -0.20016030
H        0.00000000       0.00000000       0.00000000       0.96847081       0.11094853       0.51178652
H        0.00000000       0.00000000       0.00000000       1.32597602       1.40553260      -0.48064524
7
Lattice="529.1772105638412 0.0 0.0 0.0 529.1772105638412 0.0 0.0 0.0 529.1772105638412" Properties=species:S:1:pos:R:3:forces_component_raw:R:3 ipi_comment="Step:        8300  Bead:       0 forces_component_raw{ase}  cell{ase}" pbc="T T T"
O        0.00000000       0.00000000       0.00000000       0.70967841       0.16182649      -0.13043177
H        0.00000000       0.00000000       0.00000000       1.20691657      -0.01726946      -0.00499249
H        0.00000000       0.00000000       0.00000000      -1.39090979      -0.22130847       0.40530163
O        0.00000000       0.00000000       0.00000000      -1.99229670      -1.47967410       0.08925200
H        0.00000000       0.00000000       0.00000000      -0.86089623      -0.16243450      -0.46897540
H        0.00000000       0.00000000       0.00000000       1.36197138       0.34071550       0.91541082
H        0.00000000       0.00000000       0.00000000       0.96553654       1.37814439      -0.80556482
7
Lattice="529.1772105638412 0.0 0.0 0.0 529.1772105638412 0.0 0.0 0.0 529.1772105638412" Properties=species:S:1:pos:R:3:forces_component_raw:R:3 ipi_comment="Step:        8320  Bead:       0 forces_component_raw{ase}  cell{ase}" pbc="T T T"
O        0.00000000       0.00000000       0.00000000      -0.32662231       1.03761292      -2.09038640
H        0.00000000       0.00000000       0.00000000       1.45993936      -0.49820322       0.70402527
H        0.00000000       0.00000000       0.00000000      -1.07237590      -1.05199194       1.40450621
O        0.00000000       0.00000000       0.00000000      -1.40728474      -0.80299187      -2.24816800
H        0.00000000       0.00000000       0.00000000       0.49665865       0.35212502       0.75469577
H        0.00000000       0.00000000       0.00000000       0.26020938       0.67145479       1.23148632
H        0.00000000       0.00000000       0.00000000       0.58947557       0.29199413       0.24384058
7
Lattice="529.1772105638412 0.0 0.0 0.0 529.1772105638412 0.0 0.0 0.0 529.1772105638412" Properties=species:S:1:pos:R:3:forces_component_raw:R:3 ipi_comment="Step:        8340  Bead:       0 forces_component_raw{ase}  cell{ase}" pbc="T T T"
O        0.00000000       0.00000000       0.00000000       0.78911752       0.91680002      -1.11810351
H        0.00000000       0.00000000       0.00000000       1.08935786      -0.11423636      -0.08774644
H        0.00000000       0.00000000       0.00000000      -1.73471523      -0.99442291       1.47195602
O        0.00000000       0.00000000       0.00000000       0.63726747      -0.03434050       0.35741913
H        0.00000000       0.00000000       0.00000000      -0.60977239      -0.13998798      -0.57515222
H        0.00000000       0.00000000       0.00000000       0.56285143       0.26742485       0.50085759
H        0.00000000       0.00000000       0.00000000      -0.73410672       0.09876287      -0.54923058
7
Lattice="529.1772105638412 0.0 0.0 0.0 529.1772105638412 0.0 0.0 0.0 529.1772105638412" Properties=species:S:1:pos:R:3:forces_component_raw:R:3 ipi_comment="Step:        8360  Bead:       0 forces_component_raw{ase}  cell{ase}" pbc="T T T"
O        0.00000000       0.00000000       0.00000000      -0.53796488       1.54110861      -0.87730181
H        0.00000000       0.00000000       0.00000000       0.54537332      -0.55453932       0.08984607
H        0.00000000       0.00000000       0.00000000      -0.40024453      -0.86366642       0.70735526
O        0.00000000       0.00000000       0.00000000       0.36075890       1.04860568      -0.50915671
H        0.00000000       0.00000000       0.00000000       0.99965990       0.00250855       0.33471665
H        0.00000000       0.00000000       0.00000000      -0.25924447      -0.05967808      -0.15790653
H        0.00000000       0.00000000       0.00000000      -0.70833838      -1.11433888       0.41244722
7
Lattice="529.1772105638412 0.0 0.0 0.0 529.1772105638412 0.0 0.0 0.0 529.1772105638412" Properties=species:S:1:pos:R:3:forces_component_raw:R:3 ipi_comment="Step:        8380  Bead:       0 forces_component_raw{ase}  cell{ase}" pbc="T T T"
O        0.00000000       0.00000000       0.00000000       0.23572290      -0.79008770       0.24507874
H        0.00000000       0.00000000       0.00000000       0.45219672      -0.00973630      -0.18319409
H        0.00000000       0.00000000       0.00000000      -0.15078795       1.04837930      -0.50460607
O        0.00000000       0.00000000       0.00000000       1.04408753      -0.11867636       1.70989561
H        0.00000000       0.00000000       0.00000000      -0.94147217       0.42545176       0.22718406
H        0.00000000       0.00000000       0.00000000       0.03286049       0.22909164      -0.77630145
H        0.00000000       0.00000000       0.00000000      -0.67260766      -0.78442246      -0.71805680
7
Lattice="529.1772105638412 0.0 0.0 0.0 529.1772105638412 0.0 0.0 0.0 529.1772105638412" Properties=species:S:1:pos:R:3:forces_component_raw:R:3 ipi_comment="Step:        8400  Bead:       0 forces_component_raw{ase}  cell{ase}" pbc="T T T"
O        0.00000000       0.00000000       0.00000000      -1.49609876       0.03546309       0.39614809
H        0.00000000       0.00000000       0.00000000      -0.37058655      -0.09773374       0.12624234
H        0.00000000       0.00000000       0.00000000       1.42090977       0.50551939      -0.73747581
O        0.00000000       0.00000000       0.00000000       0.03438005       0.36870444       1.84558523
H        0.00000000       0.00000000       0.00000000       0.62387145      -0.42947146      -0.13303152
H        0.00000000       0.00000000       0.00000000      -0.09155187      -0.00765905      -1.11950064
H        0.00000000       0.00000000       0.00000000      -0.12092409      -0.37482268      -0.37796784
7
Lattice="529.1772105638412 0.0 0.0 0.0 529.1772105638412 0.0 0.0 0.0 529.1772105638412" Properties=species:S:1:pos:R:3:forces_component_raw:R:3 ipi_comment="Step:        8420  Bead:       0 forces_component_raw{ase}  cell{ase}" pbc="T T T"
O        0.00000000       0.00000000       0.00000000      -0.56357539      -2.23069668       0.87119085
H        0.00000000       0.00000000       0.00000000      -0.11843228       0.27230489       0.15234190
H        0.00000000       0.00000000       0.00000000       1.20735002       1.13337863      -0.77690351
O        0.00000000       0.00000000       0.00000000      -0.00967187      -0.72448707      -0.65964514
H        0.00000000       0.00000000       0.00000000      -0.55111587       0.82177651       0.14247099
H        0.00000000       0.00000000       0.00000000       0.01682200       0.08018282      -0.25741035
H        0.00000000       0.00000000       0.00000000       0.01862346       0.64754081       0.52795518
7
Lattice="529.1772105638412 0.0 0.0 0.0 529.1772105638412 0.0 0.0 0.0 529.1772105638412" Properties=species:S:1:pos:R:3:forces_component_raw:R:3 ipi_comment="Step:        8440  Bead:       0 forces_component_raw{ase}  cell{ase}" pbc="T T T"
O        0.00000000       0.00000000       0.00000000      -1.31072200      -0.52184641       0.30798727
H        0.00000000       0.00000000       0.00000000      -0.43443051       0.40837890       0.08841276
H        0.00000000       0.00000000       0.00000000       1.61191631       0.10734844      -0.13946335
O        0.00000000       0.00000000       0.00000000       0.27843368      -1.15372825      -1.05926585
H        0.00000000       0.00000000       0.00000000       0.24050677      -0.66203296      -0.09663638
H        0.00000000       0.00000000       0.00000000       0.00074106       0.15562081       0.21025527
H        0.00000000       0.00000000       0.00000000      -0.38644540       1.66625941       0.68871039
7
Lattice="529.1772105638412 0.0 0.0 0.0 529.1772105638412 0.0 0.0 0.0 529.1772105638412" Properties=species:S:1:pos:R:3:forces_component_raw:R:3 ipi_comment="Step:        8460  Bead:       0 forces_component_raw{ase}  cell{ase}" pbc="T T T"
O        0.00000000       0.00000000       0.00000000      -0.35221005      -0.84800071      -0.06754923
H        0.00000000       0.00000000       0.00000000       0.18314755       0.59355700       0.00328428
H        0.00000000       0.00000000       0.00000000       0.10097361       0.24742341       0.22396138
O        0.00000000       0.00000000       0.00000000       0.36979222      -0.48299503      -0.57526541
H        0.00000000       0.00000000       0.00000000      -0.17368522      -0.03473124       0.09325226
H        0.00000000       0.00000000       0.00000000       0.02083647       0.12398183      -0.09765530
H        0.00000000       0.00000000       0.00000000      -0.14885446       0.40076506       0.41997206
7
Lattice="529.1772105638412 0.0 0.0 0.0 529.1772105638412 0.0 0.0 0.0 529.1772105638412" Properties=species:S:1:pos:R:3:forces_component_raw:R:3 ipi_comment="Step:        8480  Bead:       0 forces_component_raw{ase}  cell{ase}" pbc="T T T"
O        0.00000000       0.00000000       0.00000000       1.33521414       0.48786092       0.16126728
H        0.00000000       0.00000000       0.00000000      -0.45857763      -0.00423914       0.11870885
H        0.00000000       0.00000000       0.00000000      -0.93795896      -0.99792779      -0.00155711
O        0.00000000       0.00000000       0.00000000      -0.12908030       0.48006189      -0.00065878
H        0.00000000       0.00000000       0.00000000       0.00306001       0.48004612      -0.20406875
H        0.00000000       0.00000000       0.00000000       0.03716028      -0.02478689      -0.05923405
H        0.00000000       0.00000000       0.00000000       0.15018252      -0.42101532      -0.01445729
7
Lattice="529.1772105638412 0.0 0.0 0.0 529.1772105638412 0.0 0.0 0.0 529.1772105638412" Properties=species:S:1:pos:R:3:forces_component_raw:R:3 ipi_comment="Step:        8500  Bead:       0 forces_component_raw{ase}  cell{ase}" pbc="T T T"
O        0.00000000       0.00000000       0.00000000       1.67931414       1.02619338      -0.12581468
H        0.00000000       0.00000000       0.00000000       0.17725873       0.01033127       0.17800772
H        0.00000000       0.00000000       0.00000000      -1.55706787      -0.95730341      -0.02750203
O        0.00000000       0.00000000       0.00000000      -0.62784469       0.60714924       0.58984470
H        0.00000000       0.00000000       0.00000000      -0.17700622      -0.37565705      -0.12899430
H        0.00000000       0.00000000       0.00000000      -0.04840398       0.08945125       0.12409902
H        0.00000000       0.00000000       0.00000000       0.55374998      -0.40016461      -0.60964060
7
Lattice="529.1772105638412 0.0 0.0 0.0 529.1772105638412 0.0 0.0 0.0 529.1772105638412" Properties=species:S:1:pos:R:3:forces_component_raw:R:3 ipi_comment="Step:        8520  Bead:       0 forces_component_raw{ase}  cell{ase}" pbc="T T T"
O        0.00000000       0.00000000       0.00000000       0.57083362       0.95099616      -0.40588427
H        0.00000000       0.00000000       0.00000000       0.08604419      -0.03262377       0.02443630
H        0.00000000       0.00000000       0.00000000      -0.85121399      -0.78868079      -0.01432347
O        0.00000000       0.00000000       0.00000000      -0.39992070       0.44801742       0.63470602
H        0.00000000       0.00000000       0.00000000       0.41219926       0.33627349       0.32409179
H        0.00000000       0.00000000       0.00000000      -0.12283790      -0.19568294      -0.03965077
H        0.00000000       0.00000000       0.00000000       0.30489564      -0.71829969      -0.52337551
7
Lattice="529.1772105638412 0.0 0.0 0.0 529.1772105638412 0.0 0.0 0.0 529.1772105638412" Properties=species:S:1:pos:R:3:forces_component_raw:R:3 ipi_comment="Step:        8540  Bead:       0 forces_component_raw{ase}  cell{ase}" pbc="T T T"
O        0.00000000       0.00000000       0.00000000      -0.12024191       0.76944977       0.12224162
H        0.00000000       0.00000000       0.00000000       0.77584028      -0.46898040       0.17538075
H        0.00000000       0.00000000       0.00000000      -0.37054214      -0.18310839      -0.19870895
O        0.00000000       0.00000000       0.00000000       0.55106878      -0.49661285       0.99676573
H        0.00000000       0.00000000       0.00000000      -0.66490436      -0.02386963      -0.51497889
H        0.00000000       0.00000000       0.00000000      -0.12685734       0.28499371      -0.31934848
H        0.00000000       0.00000000       0.00000000      -0.04436332       0.11812776      -0.26135188
7
Lattice="529.1772105638412 0.0 0.0 0.0 529.1772105638412 0.0 0.0 0.0 529.1772105638412" Properties=species:S:1:pos:R:3:forces_component_raw:R:3 ipi_comment="Step:        8560  Bead:       0 forces_component_raw{ase}  cell{ase}" pbc="T T T"
O        0.00000000       0.00000000       0.00000000      -0.97537881      -0.01579511      -0.17823258
H        0.00000000       0.00000000       0.00000000       0.42069781      -0.16775245       0.05369990
H        0.00000000       0.00000000       0.00000000       0.31123224       0.08834064       0.10688230
O        0.00000000       0.00000000       0.00000000      -0.41816700       0.47137606      -0.52737773
H        0.00000000       0.00000000       0.00000000       0.67210430      -0.61160731       0.42170161
H        0.00000000       0.00000000       0.00000000       0.57123363      -0.15007678      -0.13676402
H        0.00000000       0.00000000       0.00000000      -0.58172220       0.38551471       0.26009053
7
Lattice="529.1772105638412 0.0 0.0 0.0 529.1772105638412 0.0 0.0 0.0 529.1772105638412" Properties=species:S:1:pos:R:3:forces_component_raw:R:3 ipi_comment="Step:        8580  Bead:       0 forces_component_raw{ase}  cell{ase}" pbc="T T T"
O        0.00000000       0.00000000       0.00000000       0.04850572      -0.82708943       0.29343283
H        0.00000000       0.00000000       0.00000000      -0.50188255       0.26008976      -0.31997439
H        0.00000000       0.00000000       0.00000000       0.63647795       0.46088892       0.07887626
O        0.00000000       0.00000000       0.00000000       0.56928724      -1.57796693      -0.04093519
H        0.00000000       0.00000000       0.00000000      -0.46938989       0.03619322       0.14970946
H        0.00000000       0.00000000       0.00000000       0.80684859       0.79813510      -0.48635870
H        0.00000000       0.00000000       0.00000000      -1.08984709       0.84974945       0.32524967
7
Lattice="529.1772105638412 0.0 0.0 0.0 529.1772105638412 0.0 0.0 0.0 529.1772105638412" Properties=species:S:1:pos:R:3:forces_component_raw:R:3 ipi_comment="Step:        8600  Bead:       0 forces_component_raw{ase}  cell{ase}" pbc="T T T"
O        0.00000000       0.00000000       0.00000000       0.10055721      -1.51461649       0.87715131
H        0.00000000       0.00000000       0.00000000      -0.63234353       0.34243476      -0.44757557
H        0.00000000       0.00000000       0.00000000       0.48406744       0.54170203       0.09671250
O        0.00000000       0.00000000       0.00000000      -0.07208532      -0.55208278       0.21092258
H        0.00000000       0.00000000       0.00000000       0.30701080       0.23727930      -0.32658389
H        0.00000000       0.00000000       0.00000000       0.96890843       0.46657115      -0.39861730
H        0.00000000       0.00000000       0.00000000      -1.15611518       0.47871173      -0.01200968
7
Lattice="529.1772105638412 0.0 0.0 0.0 529.1772105638412 0.0 0.0 0.0 529.1772105638412" Properties=species:S:1:pos:R:3:forces_component_raw:R:3 ipi_comment="Step:        8620  Bead:       0 forces_component_raw{ase}  cell{ase}" pbc="T T T"
O        0.00000000       0.00000000       0.00000000       0.33843964       0.14145434      -0.33978725
H        0.00000000       0.00000000       0.00000000      -0.56187552      -0.17421567      -0.20866093
H        0.00000000       0.00000000       0.00000000       0.38489878       0.44987077       0.18717760
O        0.00000000       0.00000000       0.00000000      -2.03647042      -0.76747114       0.79057902
H        0.00000000       0.00000000       0.00000000      -0.17724127      -0.20054007       0.27969873
H        0.00000000       0.00000000       0.00000000       1.41410899       0.83462686      -0.94003219
H        0.00000000       0.00000000       0.00000000       0.63813985      -0.28372523       0.23102504
7
Lattice="529.1772105638412 0.0 0.0 0.0 529.1772105638412 0.0 0.0 0.0 529.1772105638412" Properties=species:S:1:pos:R:3:forces_component_raw:R:3 ipi_comment="Step:        8640  Bead:       0 forces_component_raw{ase}  cell{ase}" pbc="T T T"
O        0.00000000       0.00000000       0.00000000       0.14537561       0.10663992      -0.75629443
H        0.00000000       0.00000000       0.00000000      -0.07234001       0.20194164       0.08870804
H        0.00000000       0.00000000       0.00000000      -0.17277180       0.15061784       0.03841031
O        0.00000000       0.00000000       0.00000000      -1.67109836      -0.60069317       0.42396426
H        0.00000000       0.00000000       0.00000000       0.08865845       0.20803469       0.37724942
H        0.00000000       0.00000000       0.00000000       0.48478687       0.22505844      -0.54926092
H        0.00000000       0.00000000       0.00000000       1.19738937      -0.29159963       0.37722343
7
Lattice="529.1772105638412 0.0 0.0 0.0 529.1772105638412 0.0 0.0 0.0 529.1772105638412" Properties=species:S:1:pos:R:3:forces_component_raw:R:3 ipi_comment="Step:        8660  Bead:       0 forces_component_raw{ase}  cell{ase}" pbc="T T T"
O        0.00000000       0.00000000       0.00000000      -0.28101969       1.01883495       0.53850067
H        0.00000000       0.00000000       0.00000000       0.09885478      -0.35268670       0.07186961
H        0.00000000       0.00000000       0.00000000       0.18359125      -0.45660812      -0.26899290
O        0.00000000       0.00000000       0.00000000      -0.49287731       0.41803169      -0.96480966
H        0.00000000       0.00000000       0.00000000       0.00229098      -0.06723338      -0.64120704
H        0.00000000       0.00000000       0.00000000      -0.49499291      -0.12179679       0.52118617
H        0.00000000       0.00000000       0.00000000       0.98415309      -0.43854147       0.74345315
7
Lattice="529.1772105638412 0.0 0.0 0.0 529.1772105638412 0.0 0.0 0.0 529.1772105638412" Properties=species:S:1:pos:R:3:forces_component_raw:R:3 ipi_comment="Step:        8680  Bead:       0 forces_component_raw{ase}  cell{ase}" pbc="T T T"
O        0.00000000       0.00000000       0.00000000       0.09987426       0.23788674       0.59091485
H        0.00000000       0.00000000       0.00000000      -0.19910753       0.34845182       0.02070868
H        0.00000000       0.00000000       0.00000000       0.06942272      -1.04702449      -0.63399017
O        0.00000000       0.00000000       0.00000000       0.80535531       0.29697061      -1.81458772
H        0.00000000       0.00000000       0.00000000      -0.20730054       0.41466811       0.26350623
H        0.00000000       0.00000000       0.00000000      -1.60930181       0.17371017       1.17669893
H        0.00000000       0.00000000       0.00000000       1.04105735      -0.42466289       0.39674890
7
Lattice="529.1772105638412 0.0 0.0 0.0 529.1772105638412 0.0 0.0 0.0 529.1772105638412" Properties=species:S:1:pos:R:3:forces_component_raw:R:3 ipi_comment="Step:        8700  Bead:       0 forces_component_raw{ase}  cell{ase}" pbc="T T T"
O        0.00000000       0.00000000       0.00000000      -0.17282510       0.03176978       0.21604738
H        0.00000000       0.00000000       0.00000000       0.08092016      -0.12536530       0.19863027
H        0.00000000       0.00000000       0.00000000       0.05446059      -0.11455894      -0.07457799
O        0.00000000       0.00000000       0.00000000       1.02947474       1.30973566      -1.71114111
H        0.00000000       0.00000000       0.00000000       0.52335858      -0.73708910       0.06772149
H        0.00000000       0.00000000       0.00000000      -1.26168967      -0.55776018       1.51419223
H        0.00000000       0.00000000       0.00000000      -0.25369948       0.19326794      -0.21087232
7
Lattice="529.1772105638412 0.0 0.0 0.0 529.1772105638412 0.0 0.0 0.0 529.1772105638412" Properties=species:S:1:pos:R:3:forces_component_raw:R:3 ipi_comment="Step:        8720  Bead:       0 forces_component_raw{ase}  cell{ase}" pbc="T T T"
O        0.00000000       0.00000000       0.00000000       0.08310783      -0.71876723      -0.37198967
H        0.00000000       0.00000000       0.00000000       0.14338097       0.12678783       0.37030208
H        0.00000000       0.00000000       0.00000000      -0.06119168       0.71200806      -0.08099534
O        0.00000000       0.00000000       0.00000000       2.98361564      -0.18674660      -1.10715294
H        0.00000000       0.00000000       0.00000000      -0.52991229       0.30833954       0.10753030
H        0.00000000       0.00000000       0.00000000      -0.87849492      -0.33284795       1.48066402
H        0.00000000       0.00000000       0.00000000      -1.74050522       0.09122637      -0.39835870
7
Lattice="529.1772105638412 0.0 0.0 0.0 529.1772105638412 0.0 0.0 0.0 529.1772105638412" Properties=species:S:1:pos:R:3:forces_component_raw:R:3 ipi_comment="Step:        8740  Bead:       0 forces_component_raw{ase}  cell{ase}" pbc="T T T"
O        0.00000000       0.00000000       0.00000000      -0.09027392      -0.21134114      -0.58293033
H        0.00000000       0.00000000       0.00000000       0.14644779      -0.19525647       0.30680353
H        0.00000000       0.00000000       0.00000000      -0.19229686       0.82961190       0.15835661
O        0.00000000       0.00000000       0.00000000       1.11877370      -0.30316466      -0.07472050
H        0.00000000       0.00000000       0.00000000       0.64166689       0.02963293      -0.09630686
H        0.00000000       0.00000000       0.00000000       0.10564807      -0.44305852       0.65019393
H        0.00000000       0.00000000       0.00000000      -1.72996581       0.29357603      -0.36139602
7
Lattice="529.1772105638412 0.0 0.0 0.0 529.1772105638412 0.0 0.0 0.0 529.1772105638412" Properties=species:S:1:pos:R:3:forces_component_raw:R:3 ipi_comment="Step:        8760  Bead:       0 forces_component_raw{ase}  cell{ase}" pbc="T T T"
O        0.00000000       0.00000000       0.00000000       0.58034933      -0.37263057      -1.04569674
H        0.00000000       0.00000000       0.00000000       0.04511553       0.06171066       0.80382228
H        0.00000000       0.00000000       0.00000000      -0.22576439       0.25563854       0.18114823
O        0.00000000       0.00000000       0.00000000       0.98514247       0.04104322       0.53252614
H        0.00000000       0.00000000       0.00000000      -0.88177479      -0.20805007       0.29815033
H        0.00000000       0.00000000       0.00000000       0.10856646       0.25950748      -0.50034899
H        0.00000000       0.00000000       0.00000000      -0.61163485      -0.03721936      -0.26960126
7
Lattice="529.1772105638412 0.0 0.0 0.0 529.1772105638412 0.0 0.0 0.0 529.1772105638412" Properties=species:S:1:pos:R:3:forces_component_raw:R:3 ipi_comment="Step:        8780  Bead:       0 forces_component_raw{ase}  cell{ase}" pbc="T T T"
O        0.00000000       0.00000000       0.00000000      -0.28759301      -0.86032903       0.73110289
H        0.00000000       0.00000000       0.00000000      -0.37280244       0.16555208       0.55948663
H        0.00000000       0.00000000       0.00000000       0.67818022      -0.34112212      -0.44390661
O        0.00000000       0.00000000       0.00000000      -2.27613736       0.71177042       0.83101916
H        0.00000000       0.00000000       0.00000000       0.60762692      -0.22121954      -0.18159036
H        0.00000000       0.00000000       0.00000000       1.12260127       0.41088724      -1.41487086
H        0.00000000       0.00000000       0.00000000       0.52812463       0.13446096      -0.08124071
7
Lattice="529.1772105638412 0.0 0.0 0.0 529.1772105638412 0.0 0.0 0.0 529.1772105638412" Properties=species:S:1:pos:R:3:forces_component_raw:R:3 ipi_comment="Step:        8800  Bead:       0 forces_component_raw{ase}  cell{ase}" pbc="T T T"
O        0.00000000       0.00000000       0.00000000      -0.68993157      -0.18351948      -0.22157860
H        0.00000000       0.00000000       0.00000000       0.32837081      -0.10939270       0.15999329
H        0.00000000       0.00000000       0.00000000       0.75143981      -0.40097821       0.53224063
O        0.00000000       0.00000000       0.00000000      -2.22973681       0.36363745       0.26693702
H        0.00000000       0.00000000       0.00000000      -0.36872071       0.24470404      -0.05619456
H        0.00000000       0.00000000       0.00000000       1.28270817       0.28604353      -1.37499881
H        0.00000000       0.00000000       0.00000000       0.92587060      -0.20049457       0.69360078
7
Lattice="529.1772105638412 0.0 0.0 0.0 529.1772105638412 0.0 0.0 0.0 529.1772105638412" Properties=species:S:1:pos:R:3:forces_component_raw:R:3 ipi_comment="Step:        8820  Bead:       0 forces_component_raw{ase}  cell{ase}" pbc="T T T"
O        0.00000000       0.00000000       0.00000000      -1.09249282       0.43768251       1.31207383
H        0.00000000       0.00000000       0.00000000      -0.08656207      -0.17171450      -0.96504766
H        0.00000000       0.00000000       0.00000000       0.74814654       0.00779733      -0.41580296
O        0.00000000       0.00000000       0.00000000      -1.97336722      -0.16301227       0.87320864
H        0.00000000       0.00000000       0.00000000       0.57178605      -0.08653587       0.14582016
H        0.00000000       0.00000000       0.00000000       0.80367869       0.06015104      -1.25811315
H        0.00000000       0.00000000       0.00000000       1.02881086      -0.08436820       0.30786079
7
Lattice="529.1772105638412 0.0 0.0 0.0 529.1772105638412 0.0 0.0 0.0 529.1772105638412" Properties=species:S:1:pos:R:3:forces_component_raw:R:3 ipi_comment="Step:        8840  Bead:       0 forces_component_raw{ase}  cell{ase}" pbc="T T T"
O        0.00000000       0.00000000       0.00000000      -0.69256246       0.89550019       0.35193396
H        0.00000000       0.00000000       0.00000000       0.98690111       0.10631902      -1.04176176
H        0.00000000       0.00000000       0.00000000      -0.49803114      -0.08396573       0.30743963
O        0.00000000       0.00000000       0.00000000      -0.38835669      -0.12074876       0.46039367
H        0.00000000       0.00000000       0.00000000      -0.39078465      -0.45773941      -0.19444710
H        0.00000000       0.00000000       0.00000000       0.34179419       0.04285148      -0.47118366
H        0.00000000       0.00000000       0.00000000       0.64103973      -0.38221690       0.58762497
7
Lattice="529.1772105638412 0.0 0.0 0.0 529.1772105638412 0.0 0.0 0.0 529.1772105638412" Properties=species:S:1:pos:R:3:forces_component_raw:R:3 ipi_comment="Step:        8860  Bead:       0 forces_component_raw{ase}  cell{ase}" pbc="T T T"
O        0.00000000       0.00000000       0.00000000       0.81346679      -0.50625861       0.98108494
H        0.00000000       0.00000000       0.00000000       0.07751548       0.58019638      -1.14015281
H        0.00000000       0.00000000       0.00000000      -1.21807909       0.29595330      -0.46576274
O        0.00000000       0.00000000       0.00000000       0.34230667      -1.39032662       0.24084866
H        0.00000000       0.00000000       0.00000000       0.59028030       0.65825796       0.14853525
H        0.00000000       0.00000000       0.00000000      -0.47073978       0.03096125       0.60415626
H        0.00000000       0.00000000       0.00000000      -0.13475060       0.33121616      -0.36870933
7
Lattice="529.1772105638412 0.0 0.0 0.0 529.1772105638412 0.0 0.0 0.0 529.1772105638412" Properties=species:S:1:pos:R:3:forces_component_raw:R:3 ipi_comment="Step:        8880  Bead:       0 forces_component_raw{ase}  cell{ase}" pbc="T T T"
O        0.00000000       0.00000000       0.00000000       0.67107415       0.06991754       0.12521291
H        0.00000000       0.00000000       0.00000000       0.57860410       0.52746260      -0.73672176
H        0.00000000       0.00000000       0.00000000      -0.98983813      -0.17946847       0.27492014
O        0.00000000       0.00000000       0.00000000       0.79756010       0.30170584      -1.22292435
H        0.00000000       0.00000000       0.00000000      -0.50577021      -0.45089537       0.05460200
H        0.00000000       0.00000000       0.00000000      -0.11794588      -0.17908795       1.22584975
H        0.00000000       0.00000000       0.00000000      -0.43368417      -0.08963439       0.27906182
7
Lattice="529.1772105638412 0.0 0.0 0.0 529.1772105638412 0.0 0.0 0.0 529.1772105638412" Properties=species:S:1:pos:R:3:forces_component_raw:R:3 ipi_comment="Step:        8900  Bead:       0 forces_component_raw{ase}  cell{ase}" pbc="T T T"
O        0.00000000       0.00000000       0.00000000      -0.29569051      -1.54519296       1.57269001
H        0.00000000       0.00000000       0.00000000      -0.01469034       0.26152220      -0.53063452
H        0.00000000       0.00000000       0.00000000       0.36329675       0.41707012      -0.36095446
O        0.00000000       0.00000000       0.00000000       1.28021479      -0.01230222      -0.31783485
H        0.00000000       0.00000000       0.00000000       0.28077060       0.73135674      -0.71929610
H        0.00000000       0.00000000       0.00000000      -0.93547613      -0.13216463       0.96240998
H        0.00000000       0.00000000       0.00000000      -0.67842531       0.27971071      -0.60638011
7
Lattice="529.1772105638412 0.0 0.0 0.0 529.1772105638412 0.0 0.0 0.0 529.1772105638412" Properties=species:S:1:pos:R:3:forces_component_raw:R:3 ipi_comment="Step:        8920  Bead:       0 forces_component_raw{ase}  cell{ase}" pbc="T T T"
O        0.00000000       0.00000000       0.00000000      -0.20624530      -0.18574525      -0.84159827
H        0.00000000       0.00000000       0.00000000      -0.09687799      -0.22740647       0.54548591
H        0.00000000       0.00000000       0.00000000       0.51213765      -0.01483768       0.38818735
O        0.00000000       0.00000000       0.00000000       0.79303885       0.79850912      -1.87608815
H        0.00000000       0.00000000       0.00000000      -0.30699924      -0.03247210       0.60766906
H        0.00000000       0.00000000       0.00000000      -0.20152563      -0.11082092       0.87631184
H        0.00000000       0.00000000       0.00000000      -0.49352813      -0.22722676       0.30003193
7
Lattice="529.1772105638412 0.0 0.0 0.0 529.1772105638412 0.0 0.0 0.0 529.1772105638412" Properties=species:S:1:pos:R:3:forces_component_raw:R:3 ipi_comment="Step:        8940  Bead:       0 forces_component_raw{ase}  cell{ase}" pbc="T T T"
O        0.00000000       0.00000000       0.00000000      -0.43903726       0.11346865      -0.58308387
H        0.00000000       0.00000000       0.00000000      -0.50740361      -0.36860761       0.51136893
H        0.00000000       0.00000000       0.00000000       0.72530508       0.32818937       0.14975107
O        0.00000000       0.00000000       0.00000000      -1.45414806      -0.27614862       1.36070752
H        0.00000000       0.00000000       0.00000000       0.42271221      -0.05269598      -0.44763675
H        0.00000000       0.00000000       0.00000000       0.09777826      -0.04760127      -0.61791635
H        0.00000000       0.00000000       0.00000000       1.15479327       0.30339557      -0.37319052
7
Lattice="529.1772105638412 0.0 0.0 0.0 529.1772105638412 0.0 0.0 0.0 529.1772105638412" Properties=species:S:1:pos:R:3:forces_component_raw:R:3 ipi_comment="Step:        8960  Bead:       0 forces_component_raw{ase}  cell{ase}" pbc="T T T"
O        0.00000000       0.00000000       0.00000000       0.74908453       1.00159478      -1.79872108
H        0.00000000       0.00000000       0.00000000      -1.04743779      -0.54801202       1.18219996
H        0.00000000       0.00000000       0.00000000       0.44149828       0.01290894       0.21801662
O        0.00000000       0.00000000       0.00000000      -2.26394606      -0.78452397       0.75673646
H        0.00000000       0.00000000       0.00000000      -0.58896661      -0.35672194       0.28972435
H        0.00000000       0.00000000       0.00000000       0.72537607       0.20658742      -1.22142887
H        0.00000000       0.00000000       0.00000000       1.98439134       0.46816668       0.57347232
7
Lattice="529.1772105638412 0.0 0.0 0.0 529.1772105638412 0.0 0.0 0.0 529.1772105638412" Properties=species:S:1:pos:R:3:forces_component_raw:R:3 ipi_comment="Step:        8980  Bead:       0 forces_component_raw{ase}  cell{ase}" pbc="T T T"
O        0.00000000       0.00000000       0.00000000      -0.23470105       0.49945384      -1.33890319
H        0.00000000       0.00000000       0.00000000      -0.67926908      -0.42542982       0.92668772
H        0.00000000       0.00000000       0.00000000       0.48288953       0.22794324       0.05438375
O        0.00000000       0.00000000       0.00000000      -2.69897700      -1.93121434       1.14371729
H        0.00000000       0.00000000       0.00000000       0.51071620       0.35661131       0.00560778
H        0.00000000       0.00000000       0.00000000       0.74191255       0.06938356      -1.13895977
H        0.00000000       0.00000000       0.00000000       1.87742865       1.20325232       0.34746632
7
Lattice="529.1772105638412 0.0 0.0 0.0 529.1772105638412 0.0 0.0 0.0 529.1772105638412" Properties=species:S:1:pos:R:3:forces_component_raw:R:3 ipi_comment="Step:        9000  Bead:       0 forces_component_raw{ase}  cell{ase}" pbc="T T T"
O        0.00000000       0.00000000       0.00000000      -0.47493798       0.43925297      -0.10105753
H        0.00000000       0.00000000       0.00000000      -0.07668158      -0.09817147      -0.01065487
H        0.00000000       0.00000000       0.00000000       0.50638402       0.06115460       0.13406000
O        0.00000000       0.00000000       0.00000000      -2.02373529      -0.55180097      -0.10319197
H        0.00000000       0.00000000       0.00000000      -0.24120641      -0.61382365      -0.10907200
H        0.00000000       0.00000000       0.00000000       0.39085597       0.13295996      -0.70730543
H        0.00000000       0.00000000       0.00000000       1.91932130       0.63042855       0.89722181
7
Lattice="529.1772105638412 0.0 0.0 0.0 529.1772105638412 0.0 0.0 0.0 529.1772105638412" Properties=species:S:1:pos:R:3:forces_component_raw:R:3 ipi_comment="Step:        9020  Bead:       0 forces_component_raw{ase}  cell{ase}" pbc="T T T"
O        0.00000000       0.00000000       0.00000000      -0.50925928      -0.53079361       1.02280748
H        0.00000000       0.00000000       0.00000000       0.37647775       0.10471293      -0.70191223
H        0.00000000       0.00000000       0.00000000       0.26499081       0.11573249       0.00080517
O        0.00000000       0.00000000       0.00000000      -0.71135235      -0.11874139      -1.35766781
H        0.00000000       0.00000000       0.00000000      -0.05884519      -0.01970091       0.20706591
H        0.00000000       0.00000000       0.00000000      -0.81618387      -0.04462695       0.32522798
H        0.00000000       0.00000000       0.00000000       1.45417226       0.49341726       0.50367367
7
Lattice="529.1772105638412 0.0 0.0 0.0 529.1772105638412 0.0 0.0 0.0 529.1772105638412" Properties=species:S:1:pos:R:3:forces_component_raw:R:3 ipi_comment="Step:        9040  Bead:       0 forces_component_raw{ase}  cell{ase}" pbc="T T T"
O        0.00000000       0.00000000       0.00000000      -0.09757155      -0.99778331       2.03342081
H        0.00000000       0.00000000       0.00000000       0.89023239       0.35764968      -1.30269170
H        0.00000000       0.00000000       0.00000000      -0.40250492       0.04357666      -0.04246023
O        0.00000000       0.00000000       0.00000000       0.75227481       1.04031587      -1.83089066
H        0.00000000       0.00000000       0.00000000      -0.10609372       0.29093942      -0.24814963
H        0.00000000       0.00000000       0.00000000      -0.95978415      -0.65461528       1.42321503
H        0.00000000       0.00000000       0.00000000      -0.07655233      -0.08008313      -0.03244329
7
Lattice="529.1772105638412 0.0 0.0 0.0 529.1772105638412 0.0 0.0 0.0 529.1772105638412" Properties=species:S:1:pos:R:3:forces_component_raw:R:3 ipi_comment="Step:        9060  Bead:       0 forces_component_raw{ase}  cell{ase}" pbc="T T T"
O        0.00000000       0.00000000       0.00000000       0.28992152      -0.22522634       1.67175198
H        0.00000000       0.00000000       0.00000000       1.24687124       0.29264760      -1.73617065
H        0.00000000       0.00000000       0.00000000      -1.45323682      -0.03820741       0.06012166
O        0.00000000       0.00000000       0.00000000       1.62817717       2.19665981      -1.74533928
H        0.00000000       0.00000000       0.00000000       0.16368404      -0.37473500       0.29324067
H        0.00000000       0.00000000       0.00000000      -0.60486663      -1.13937128       1.74153781
H        0.00000000       0.00000000       0.00000000      -1.27055049      -0.71176732      -0.28514242
7
Lattice="529.1772105638412 0.0 0.0 0.0 529.1772105638412 0.0 0.0 0.0 529.1772105638412" Properties=species:S:1:pos:R:3:forces_component_raw:R:3 ipi_comment="Step:        9080  Bead:       0 forces_component_raw{ase}  cell{ase}" pbc="T T T"
O        0.00000000       0.00000000       0.00000000       1.01050365       0.33168006       1.67785693
H        0.00000000       0.00000000       0.00000000       0.41852397      -0.03230965      -1.84351635
H        0.00000000       0.00000000       0.00000000      -1.25083399      -0.21364689      -0.24243592
O        0.00000000       0.00000000       0.00000000       1.88517237       1.13120532      -0.06745887
H        0.00000000       0.00000000       0.00000000      -0.28788292       0.11579382       0.13784245
H        0.00000000       0.00000000       0.00000000      -0.75117982      -1.06822384       1.01345515
H        0.00000000       0.00000000       0.00000000      -1.02430332      -0.26449889      -0.67574340
7
Lattice="529.1772105638412 0.0 0.0 0.0 529.1772105638412 0.0 0.0 0.0 529.1772105638412" Properties=species:S:1:pos:R:3:forces_component_raw:R:3 ipi_comment="Step:        9100  Bead:       0 forces_component_raw{ase}  cell{ase}" pbc="T T T"
O        0.00000000       0.00000000       0.00000000       1.13969946       0.82075155      -0.07078582
H        0.00000000       0.00000000       0.00000000       0.37629759      -0.31874782      -0.36804909
H        0.00000000       0.00000000       0.00000000      -1.41883302      -0.17920435       0.23316094
O        0.00000000       0.00000000       0.00000000      -0.45926204       0.25085628      -0.66752750
H        0.00000000       0.00000000       0.00000000      -0.14248174      -0.23347339      -0.00236982
H        0.00000000       0.00000000       0.00000000       0.46681905      -0.11243397       0.53926188
H        0.00000000       0.00000000       0.00000000       0.03776038      -0.22774839       0.33630934
7
Lattice="529.1772105638412 0.0 0.0 0.0 529.1772105638412 0.0 0.0 0.0 529.1772105638412" Properties=species:S:1:pos:R:3:forces_component_raw:R:3 ipi_comment="Step:        9120  Bead:       0 forces_component_raw{ase}  cell{ase}" pbc="T T T"
O        0.00000000       0.00000000       0.00000000       1.17680753       0.20339537      -0.67638374
H        0.00000000       0.00000000       0.00000000      -0.15694737       0.13526624       0.45508224
H        0.00000000       0.00000000       0.00000000      -1.26261115       0.02578041      -0.18117109
O        0.00000000       0.00000000       0.00000000      -0.39001817      -1.04003668       1.38047374
H        0.00000000       0.00000000       0.00000000      -0.06193012      -0.10911237      -0.06402688
H        0.00000000       0.00000000       0.00000000       0.24489918       0.50534839      -0.81628668
H        0.00000000       0.00000000       0.00000000       0.44979996       0.27935851      -0.09768748
7
Lattice="529.1772105638412 0.0 0.0 0.0 529.1772105638412 0.0 0.0 0.0 529.1772105638412" Properties=species:S:1:pos:R:3:forces_component_raw:R:3 ipi_comment="Step:        9140  Bead:       0 forces_component_raw{ase}  cell{ase}" pbc="T T T"
O        0.00000000       0.00000000       0.00000000      -0.01835263      -0.90551079      -1.49567247
H        0.00000000       0.00000000       0.00000000       0.03303935       0.68608678       1.01134515
H        0.00000000       0.00000000       0.00000000      -0.38879085       0.26637363       0.09739877
O        0.00000000       0.00000000       0.00000000      -1.33897019      -0.65724063      -0.36836112
H        0.00000000       0.00000000       0.00000000       0.38817909       0.21950918       0.17261934
H        0.00000000       0.00000000       0.00000000       0.63851601       0.40567774      -0.10486227
H        0.00000000       0.00000000       0.00000000       0.68637926      -0.01489604       0.68753255
7
Lattice="529.1772105638412 0.0 0.0 0.0 529.1772105638412 0.0 0.0 0.0 529.1772105638412" Properties=species:S:1:pos:R:3:forces_component_raw:R:3 ipi_comment="Step:        9160  Bead:       0 forces_component_raw{ase}  cell{ase}" pbc="T T T"
O        0.00000000       0.00000000       0.00000000       0.71667075      -0.33739567       0.22514866
H        0.00000000       0.00000000       0.00000000      -0.49461487       0.64287883       0.55052149
H        0.00000000       0.00000000       0.00000000       0.36066431      -0.57060719      -0.24463905
O        0.00000000       0.00000000       0.00000000      -0.46130300      -0.60770309       0.46207047
H        0.00000000       0.00000000       0.00000000      -0.84632725      -0.22665335      -0.06213284
H        0.00000000       0.00000000       0.00000000       0.12058592       0.83150399      -1.13212705
H        0.00000000       0.00000000       0.00000000       0.60432392       0.26797652       0.20115835
7
Lattice="529.1772105638412 0.0 0.0 0.0 529.1772105638412 0.0 0.0 0.0 529.1772105638412" Properties=species:S:1:pos:R:3:forces_component_raw:R:3 ipi_comment="Step:        9180  Bead:       0 forces_component_raw{ase}  cell{ase}" pbc="T T T"
O        0.00000000       0.00000000       0.00000000      -2.23025442       0.22686857      -0.03396082
H        0.00000000       0.00000000       0.00000000       0.35299143       0.48105985       0.70677853
H        0.00000000       0.00000000       0.00000000       1.73603583      -0.92537165      -0.14821149
O        0.00000000       0.00000000       0.00000000      -1.04166198      -0.57272470      -0.06779975
H        0.00000000       0.00000000       0.00000000       1.13537503       0.24185973       0.29014832
H        0.00000000       0.00000000       0.00000000       0.81576300       0.93479288      -0.46482849
H        0.00000000       0.00000000       0.00000000      -0.76824916      -0.38648486      -0.28212622
7
Lattice="529.1772105638412 0.0 0.0 0.0 529.1772105638412 0.0 0.0 0.0 529.1772105638412" Properties=species:S:1:pos:R:3:forces_component_raw:R:3 ipi_comment="Step:        9200  Bead:       0 forces_component_raw{ase}  cell{ase}" pbc="T T T"
O        0.00000000       0.00000000       0.00000000      -0.29221320       0.25824440       0.33885580
H        0.00000000       0.00000000       0.00000000      -0.00315571       0.76970011       0.67590839
H        0.00000000       0.00000000       0.00000000       0.78406406      -1.03641486      -0.34868810
O        0.00000000       0.00000000       0.00000000       1.56366229       1.00006414       0.90991736
H        0.00000000       0.00000000       0.00000000      -0.70948827      -0.61230767      -0.26468363
H        0.00000000       0.00000000       0.00000000      -0.24764878       0.15864646      -0.70122230
H        0.00000000       0.00000000       0.00000000      -1.09522057      -0.53793275      -0.61008740
7
Lattice="529.1772105638412 0.0 0.0 0.0 529.1772105638412 0.0 0.0 0.0 529.1772105638412" Properties=species:S:1:pos:R:3:forces_component_raw:R:3 ipi_comment="Step:        9220  Bead:       0 forces_component_raw{ase}  cell{ase}" pbc="T T T"
O        0.00000000       0.00000000       0.00000000      -0.89595914      -0.00688720      -0.70797551
H        0.00000000       0.00000000       0.00000000       0.06013864       0.48037586       0.11749449
H        0.00000000       0.00000000       0.00000000       0.68091470      -0.77723003       0.14090672
O        0.00000000       0.00000000       0.00000000       0.56411278       0.38291958       0.02649909
H        0.00000000       0.00000000       0.00000000       0.63463164       0.54317534       0.40673763
H        0.00000000       0.00000000       0.00000000       0.49855971       0.22485042       0.30165017
H        0.00000000       0.00000000       0.00000000      -1.54239822      -0.84720403      -0.28531283
7
Lattice="529.1772105638412 0.0 0.0 0.0 529.1772105638412 0.0 0.0 0.0 529.1772105638412" Properties=species:S:1:pos:R:3:forces_component_raw:R:3 ipi_comment="Step:        9240  Bead:       0 forces_component_raw{ase}  cell{ase}" pbc="T T T"
O        0.00000000       0.00000000       0.00000000       0.48605609       1.03472448       0.29142249
H        0.00000000       0.00000000       0.00000000      -0.42633665      -0.84949589      -0.56184507
H        0.00000000       0.00000000       0.00000000      -0.08153409       0.23808742      -0.05608709
O        0.00000000       0.00000000       0.00000000       0.99720562       0.06793827       1.21161843
H        0.00000000       0.00000000       0.00000000      -0.26264811      -0.51906812      -0.14376387
H        0.00000000       0.00000000       0.00000000      -0.24312460       0.03273314      -0.30273980
H        0.00000000       0.00000000       0.00000000      -0.46961790      -0.00491914      -0.43860486
7
Lattice="529.1772105638412 0.0 0.0 0.0 529.1772105638412 0.0 0.0 0.0 529.1772105638412" Properties=species:S:1:pos:R:3:forces_component_raw:R:3 ipi_comment="Step:        9260  Bead:       0 forces_component_raw{ase}  cell{ase}" pbc="T T T"
O        0.00000000       0.00000000       0.00000000       1.64219284      -0.36822301       1.30819845
H        0.00000000       0.00000000       0.00000000      -0.66382730      -0.68593753      -0.82684481
H        0.00000000       0.00000000       0.00000000      -0.69458014       0.71670890      -0.18788526
O        0.00000000       0.00000000       0.00000000      -0.85017532       0.33355525      -1.33178902
H        0.00000000       0.00000000       0.00000000      -0.61374474       0.37994197      -0.27648625
H        0.00000000       0.00000000       0.00000000       0.30198032      -0.18175584       0.48326743
H        0.00000000       0.00000000       0.00000000       0.87815410      -0.19428967       0.83153957
7
Lattice="529.1772105638412 0.0 0.0 0.0 529.1772105638412 0.0 0.0 0.0 529.1772105638412" Properties=species:S:1:pos:R:3:forces_component_raw:R:3 ipi_comment="Step:        9280  Bead:       0 forces_component_raw{ase}  cell{ase}" pbc="T T T"
O        0.00000000       0.00000000       0.00000000       0.79501617      -0.23386155       0.48392978
H        0.00000000       0.00000000       0.00000000      -0.24143839      -1.09532035      -0.21139628
H        0.00000000       0.00000000       0.00000000      -0.82339245       1.48114419      -0.35582075
O        0.00000000       0.00000000       0.00000000      -1.96040965      -0.14030921      -0.42256236
H        0.00000000       0.00000000       0.00000000       1.10927153      -0.10963422       0.58541966
H        0.00000000       0.00000000       0.00000000      -0.41908634       0.02585065       0.27470917
H        0.00000000       0.00000000       0.00000000       1.54003907       0.07213014      -0.35427925
7
Lattice="529.1772105638412 0.0 0.0 0.0 529.1772105638412 0.0 0.0 0.0 529.1772105638412" Properties=species:S:1:pos:R:3:forces_component_raw:R:3 ipi_comment="Step:        9300  Bead:       0 forces_component_raw{ase}  cell{ase}" pbc="T T T"
O        0.00000000       0.00000000       0.00000000       1.19938088       0.29412028       0.77001113
H        0.00000000       0.00000000       0.00000000      -0.37895745      -0.55919337      -0.11754303
H        0.00000000       0.00000000       0.00000000      -0.81551874       0.75249911      -0.73417097
O        0.00000000       0.00000000       0.00000000      -0.23889557       1.51104629      -1.01814699
H        0.00000000       0.00000000       0.00000000      -0.54191822      -0.56069493       0.10061680
H        0.00000000       0.00000000       0.00000000      -0.18973243      -0.59740734       0.20275945
H        0.00000000       0.00000000       0.00000000       0.96564156      -0.84036994       0.79647350
7
Lattice="529.1772105638412 0.0 0.0 0.0 529.1772105638412 0.0 0.0 0.0 529.1772105638412" Properties=species:S:1:pos:R:3:forces_component_raw:R:3 ipi_comment="Step:        9320  Bead:       0 forces_component_raw{ase}  cell{ase}" pbc="T T T"
O        0.00000000       0.00000000       0.00000000      -0.17684996      -0.30925915       0.33317041
H        0.00000000       0.00000000       0.00000000       0.05318105      -0.65518201      -0.35331282
H        0.00000000       0.00000000       0.00000000       0.18844211       0.28793943       0.47932264
O        0.00000000       0.00000000       0.00000000      -0.77005923      -0.06596482       0.52581602
H        0.00000000       0.00000000       0.00000000       0.31207350       0.80830330      -0.47592768
H        0.00000000       0.00000000       0.00000000      -0.26964307       0.08951473      -0.03520855
H        0.00000000       0.00000000       0.00000000       0.66285575      -0.15535158      -0.47386012
7
Lattice="529.1772105638412 0.0 0.0 0.0 529.1772105638412 0.0 0.0 0.0 529.1772105638412" Properties=species:S:1:pos:R:3:forces_component_raw:R:3 ipi_comment="Step:        9340  Bead:       0 forces_component_raw{ase}  cell{ase}" pbc="T T T"
O        0.00000000       0.00000000       0.00000000      -0.25684345       0.73115945      -0.01995233
H        0.00000000       0.00000000       0.00000000      -0.10768700       0.63857305       0.35739008
H        0.00000000       0.00000000       0.00000000       0.50604850      -1.11430562      -0.12124252
O        0.00000000       0.00000000       0.00000000      -0.14084354       0.85340440      -0.80543077
H        0.00000000       0.00000000       0.00000000      -0.14824747      -0.72101027       0.82627219
H        0.00000000       0.00000000       0.00000000       0.02882063      -0.11734486      -0.34073490
H        0.00000000       0.00000000       0.00000000       0.11875236      -0.27047640       0.10369827
7
Lattice="529.1772105638412 0.0 0.0 0.0 529.1772105638412 0.0 0.0 0.0 529.1772105638412" Properties=species:S:1:pos:R:3:forces_component_raw:R:3 ipi_comment="Step:        9360  Bead:       0 forces_component_raw{ase}  cell{ase}" pbc="T T T"
O        0.00000000       0.00000000       0.00000000      -1.25574851      -0.25516480      -1.54597736
H        0.00000000       0.00000000       0.00000000       0.37089339       1.29728115       1.00353778
H        0.00000000       0.00000000       0.00000000       0.96503771      -1.40151787       0.45202276
O        0.00000000       0.00000000       0.00000000      -0.41253513      -1.00354791       1.61937619
H        0.00000000       0.00000000       0.00000000      -0.15654427       0.46214464      -0.31685096
H        0.00000000       0.00000000       0.00000000       1.15142715       0.80517268      -1.15313030
H        0.00000000       0.00000000       0.00000000      -0.66253036       0.09563220      -0.05897827
7
Lattice="529.1772105638412 0.0 0.0 0.0 529.1772105638412 0.0 0.0 0.0 529.1772105638412" Properties=species:S:1:pos:R:3:forces_component_raw:R:3 ipi_comment="Step:        9380  Bead:       0 forces_component_raw{ase}  cell{ase}" pbc="T T T"
O        0.00000000       0.00000000       0.00000000      -1.12942171      -0.16971605      -1.70115877
H        0.00000000       0.00000000       0.00000000       0.36064068       1.48252929       1.33241558
H        0.00000000       0.00000000       0.00000000       0.50989068      -0.85283226      -0.04814217
O        0.00000000       0.00000000       0.00000000       0.19063222      -0.66921920       1.79809010
H        0.00000000       0.00000000       0.00000000       0.29801828      -0.46416804      -0.31922183
H        0.00000000       0.00000000       0.00000000       0.78517544       0.52687740      -0.78958094
H        0.00000000       0.00000000       0.00000000      -1.01493550       0.14652899      -0.27240172
7
Lattice="529.1772105638412 0.0 0.0 0.0 529.1772105638412 0.0 0.0 0.0 529.1772105638412" Properties=species:S:1:pos:R:3:forces_component_raw:R:3 ipi_comment="Step:        9400  Bead:       0 forces_component_raw{ase}  cell{ase}" pbc="T T T"
O        0.00000000       0.00000000       0.00000000      -0.08997345      -1.46855951      -1.20187831
H        0.00000000       0.00000000       0.00000000       0.28189305       1.01586223       0.72194827
H        0.00000000       0.00000000       0.00000000      -0.11497623       0.33808041      -0.03065908
O        0.00000000       0.00000000       0.00000000       1.09127689      -0.15483928       0.76163483
H        0.00000000       0.00000000       0.00000000      -0.63439906       0.16428319       0.10605592
H        0.00000000       0.00000000       0.00000000      -0.10374838       0.07423839      -0.26464462
H        0.00000000       0.00000000       0.00000000      -0.43007261       0.03093448      -0.09245706
7
Lattice="529.1772105638412 0.0 0.0 0.0 529.1772105638412 0.0 0.0 0.0 529.1772105638412" Properties=species:S:1:pos:R:3:forces_component_raw:R:3 ipi_comment="Step:        9420  Bead:       0 forces_component_raw{ase}  cell{ase}" pbc="T T T"
O        0.00000000       0.00000000       0.00000000       0.20379829      -1.11128176       0.58189166
H        0.00000000       0.00000000       0.00000000       0.07076949       0.07450265       0.21699005
H        0.00000000       0.00000000       0.00000000      -0.50084281       1.16543114      -0.41443056
O        0.00000000       0.00000000       0.00000000      -0.26415181       0.22600986      -0.99704564
H        0.00000000       0.00000000       0.00000000       0.80463714      -0.24756333       0.19962141
H        0.00000000       0.00000000       0.00000000      -0.13598835      -0.10150170       0.45719296
H        0.00000000       0.00000000       0.00000000      -0.17822200      -0.00559679      -0.04422021
7
Lattice="529.1772105638412 0.0 0.0 0.0 529.1772105638412 0.0 0.0 0.0 529.1772105638412" Properties=species:S:1:pos:R:3:forces_component_raw:R:3 ipi_comment="Step:        9440  Bead:       0 forces_component_raw{ase}  cell{ase}" pbc="T T T"
O        0.00000000       0.00000000       0.00000000       0.80669713      -0.55917788       1.91364992
H        0.00000000       0.00000000       0.00000000      -0.42358178      -1.27667034      -0.77392984
H        0.00000000       0.00000000       0.00000000      -0.10781398       1.49168277      -0.21082276
O        0.00000000       0.00000000       0.00000000       0.42279404       0.34325945      -0.59574127
H        0.00000000       0.00000000       0.00000000      -0.50073981       0.11260530      -0.09570819
H        0.00000000       0.00000000       0.00000000      -0.51915193      -0.14960100      -0.22477913
H        0.00000000       0.00000000       0.00000000       0.32179666       0.03790200      -0.01266855
7
Lattice="529.1772105638412 0.0 0.0 0.0 529.1772105638412 0.0 0.0 0.0 529.1772105638412" Properties=species:S:1:pos:R:3:forces_component_raw:R:3 ipi_comment="Step:        9460  Bead:       0 forces_component_raw{ase}  cell{ase}" pbc="T T T"
O        0.00000000       0.00000000       0.00000000       1.45648671      -0.35108900       1.99283147
H        0.00000000       0.00000000       0.00000000      -1.06457794      -0.95641488      -1.06001377
H        0.00000000       0.00000000       0.00000000      -0.28734446       1.08241010      -0.62336081
O        0.00000000       0.00000000       0.00000000      -1.13753236      -0.48266053      -1.90896130
H        0.00000000       0.00000000       0.00000000       0.03276950       0.14715129       0.24338409
H        0.00000000       0.00000000       0.00000000       0.36726314       0.09266207       0.43379027
H        0.00000000       0.00000000       0.00000000       0.63293547       0.46794081       0.92233044
7
Lattice="529.1772105638412 0.0 0.0 0.0 529.1772105638412 0.0 0.0 0.0 529.1772105638412" Properties=species:S:1:pos:R:3:forces_component_raw:R:3 ipi_comment="Step:        9480  Bead:       0 forces_component_raw{ase}  cell{ase}" pbc="T T T"
O        0.00000000       0.00000000       0.00000000       1.21468008       0.55907542       0.57185972
H        0.00000000       0.00000000       0.00000000      -0.89936584      -0.76185745      -0.18964583
H        0.00000000       0.00000000       0.00000000      -0.07558423       0.56355757      -0.30134294
O        0.00000000       0.00000000       0.00000000      -1.37561715      -0.80113983       0.77403295
H        0.00000000       0.00000000       0.00000000      -0.05527270      -0.26626569      -0.14227739
H        0.00000000       0.00000000       0.00000000      -0.11214614      -0.31748343      -0.29417396
H        0.00000000       0.00000000       0.00000000       1.30330634       1.02411342      -0.41845244
7
Lattice="529.1772105638412 0.0 0.0 0.0 529.1772105638412 0.0 0.0 0.0 529.1772105638412" Properties=species:S:1:pos:R:3:forces_component_raw:R:3 ipi_comment="Step:        9500  Bead:       0 forces_component_raw{ase}  cell{ase}" pbc="T T T"
O        0.00000000       0.00000000       0.00000000       0.37687123       0.82400382      -0.35476750
H        0.00000000       0.00000000       0.00000000      -0.43654376      -0.34351391      -0.27319801
H        0.00000000       0.00000000       0.00000000       0.21737695      -0.78309071       0.51916272
O        0.00000000       0.00000000       0.00000000       0.25033402      -1.36476422      -0.98940051
H        0.00000000       0.00000000       0.00000000      -0.27192873       0.46809456       0.11582905
H        0.00000000       0.00000000       0.00000000      -0.13401145       0.52948910       0.52777386
H        0.00000000       0.00000000       0.00000000      -0.00209838       0.66978133       0.45460045
7
Lattice="529.1772105638412 0.0 0.0 0.0 529.1772105638412 0.0 0.0 0.0 529.1772105638412" Properties=species:S:1:pos:R:3:forces_component_raw:R:3 ipi_comment="Step:        9520  Bead:       0 forces_component_raw{ase}  cell{ase}" pbc="T T T"
O        0.00000000       0.00000000       0.00000000      -0.02857447       1.06017781       0.30832332
H        0.00000000       0.00000000       0.00000000      -0.04072768       0.37278181      -0.12588677
H        0.00000000       0.00000000       0.00000000      -0.12058224      -1.27220011       0.00100134
O        0.00000000       0.00000000       0.00000000       0.44689119       0.42272842       0.69747025
H        0.00000000       0.00000000       0.00000000       0.16733629      -0.39692536      -0.39332476
H        0.00000000       0.00000000       0.00000000      -0.59584755      -0.10307512      -0.22957647
H        0.00000000       0.00000000       0.00000000       0.17150438      -0.08348739      -0.25800669
7
Lattice="529.1772105638412 0.0 0.0 0.0 529.1772105638412 0.0 0.0 0.0 529.1772105638412" Properties=species:S:1:pos:R:3:forces_component_raw:R:3 ipi_comment="Step:        9540  Bead:       0 forces_component_raw{ase}  cell{ase}" pbc="T T T"
O        0.00000000       0.00000000       0.00000000      -0.97371805       0.60890627      -1.41436601
H        0.00000000       0.00000000       0.00000000       0.65527350       0.40061164       0.51063728
H        0.00000000       0.00000000       0.00000000       0.12500978      -1.36973334       0.74146515
O        0.00000000       0.00000000       0.00000000       0.99868447       0.13523734      -0.36456138
H        0.00000000       0.00000000       0.00000000      -0.03606872       0.35369617       0.39555883
H        0.00000000       0.00000000       0.00000000       0.07741344       0.09526065       0.12063003
H        0.00000000       0.00000000       0.00000000      -0.84659469      -0.22397876       0.01063597
7
Lattice="529.1772105638412 0.0 0.0 0.0 529.1772105638412 0.0 0.0 0.0 529.1772105638412" Properties=species:S:1:pos:R:3:forces_component_raw:R:3 ipi_comment="Step:        9560  Bead:       0 forces_component_raw{ase}  cell{ase}" pbc="T T T"
O        0.00000000       0.00000000       0.00000000      -0.67625266      -0.23110664       0.16497046
H        0.00000000       0.00000000       0.00000000       0.98335898       1.00307214       0.88872618
H        0.00000000       0.00000000       0.00000000      -0.07004884      -0.39997286      -0.28061068
O        0.00000000       0.00000000       0.00000000       0.38297460       0.07798243       0.87398511
H        0.00000000       0.00000000       0.00000000      -0.43192607      -0.28356260      -0.81778747
H        0.00000000       0.00000000       0.00000000       0.30787391      -0.09204620      -0.53791034
H        0.00000000       0.00000000       0.00000000      -0.49597991      -0.07436654      -0.29137319
7
Lattice="529.1772105638412 0.0 0.0 0.0 529.1772105638412 0.0 0.0 0.0 529.1772105638412" Properties=species:S:1:pos:R:3:forces_component_raw:R:3 ipi_comment="Step:        9580  Bead:       0 forces_component_raw{ase}  cell{ase}" pbc="T T T"
O        0.00000000       0.00000000       0.00000000      -0.67051697      -1.02581275      -0.53580165
H        0.00000000       0.00000000       0.00000000       0.54363793       0.44891858       0.51175416
H        0.00000000       0.00000000       0.00000000       0.07682589       0.49623817      -0.36626366
O        0.00000000       0.00000000       0.00000000      -1.88387812       0.28367174       0.65568894
H        0.00000000       0.00000000       0.00000000       0.25626200       0.38958204       0.27407432
H        0.00000000       0.00000000       0.00000000       0.90161216      -0.60907072      -0.87509108
H        0.00000000       0.00000000       0.00000000       0.77605730       0.01647294       0.33563900
7
Lattice="529.1772105638412 0.0 0.0 0.0 529.1772105638412 0.0 0.0 0.0 529.1772105638412" Properties=species:S:1:pos:R:3:forces_component_raw:R:3 ipi_comment="Step:        9600  Bead:       0 forces_component_raw{ase}  cell{ase}" pbc="T T T"
O        0.00000000       0.00000000       0.00000000       0.16653860      -0.12593758       0.07589009
H        0.00000000       0.00000000       0.00000000      -0.09898549      -0.05621639      -0.16349095
H        0.00000000       0.00000000       0.00000000      -0.02325344       0.04608274      -0.12268308
O        0.00000000       0.00000000       0.00000000      -1.63042379       0.78593254       0.53567118
H        0.00000000       0.00000000       0.00000000       0.03036579       0.21797091       0.35779557
H        0.00000000       0.00000000       0.00000000       0.27544650      -0.51682901      -0.71992779
H        0.00000000       0.00000000       0.00000000       1.28031183      -0.35100311       0.03674504
7
Lattice="529.1772105638412 0.0 0.0 0.0 529.1772105638412 0.0 0.0 0.0 529.1772105638412" Properties=species:S:1:pos:R:3:forces_component_raw:R:3 ipi_comment="Step:        9620  Bead:       0 forces_component_raw{ase}  cell{ase}" pbc="T T T"
O        0.00000000       0.00000000       0.00000000       0.24741471       0.11689401       0.74213898
H        0.00000000       0.00000000       0.00000000      -0.03846776       0.01605415      -0.21873117
H        0.00000000       0.00000000       0.00000000       0.04336290       0.07434726      -0.29805872
O        0.00000000       0.00000000       0.00000000      -0.53282225       0.21766031      -0.32098949
H        0.00000000       0.00000000       0.00000000      -0.51031834      -0.35444468      -0.42025429
H        0.00000000       0.00000000       0.00000000       0.16570953       0.06674457       0.29689914
H        0.00000000       0.00000000       0.00000000       0.62512100      -0.13725564       0.21899560
7
Lattice="529.1772105638412 0.0 0.0 0.0 529.1772105638412 0.0 0.0 0.0 529.1772105638412" Properties=species:S:1:pos:R:3:forces_component_raw:R:3 ipi_comment="Step:        9640  Bead:       0 forces_component_raw{ase}  cell{ase}" pbc="T T T"
O        0.00000000       0.00000000       0.00000000      -0.19655532       0.15561932       0.07144380
H        0.00000000       0.00000000       0.00000000      -0.13869703      -0.28329226      -0.46078736
H        0.00000000       0.00000000       0.00000000       0.08443408      -0.36748213       0.67971295
O        0.00000000       0.00000000       0.00000000      -0.07267547      -0.56503695      -1.17748404
H        0.00000000       0.00000000       0.00000000       0.61089862       0.14233354       0.89204562
H        0.00000000       0.00000000       0.00000000      -0.04321858       0.66885930       0.40178332
H        0.00000000       0.00000000       0.00000000      -0.24418640       0.24899930      -0.40671417
7
Lattice="529.1772105638412 0.0 0.0 0.0 529.1772105638412 0.0 0.0 0.0 529.1772105638412" Properties=species:S:1:pos:R:3:forces_component_raw:R:3 ipi_comment="Step:        9660  Bead:       0 forces_component_raw{ase}  cell{ase}" pbc="T T T"
O        0.00000000       0.00000000       0.00000000       0.40260828       1.17598582       0.86847574
H        0.00000000       0.00000000       0.00000000      -0.19631684      -0.00634912      -0.43845195
H        0.00000000       0.00000000       0.00000000      -0.01676074      -0.71492338      -0.23517561
O        0.00000000       0.00000000       0.00000000       1.06411553      -1.59484017       0.24339959
H        0.00000000       0.00000000       0.00000000      -0.52808184      -0.55452657      -0.45073688
H        0.00000000       0.00000000       0.00000000      -0.04020426       1.12507856       0.35360602
H        0.00000000       0.00000000       0.00000000      -0.68536008       0.56957489      -0.34111700
7
Lattice="529.1772105638412 0.0 0.0 0.0 529.1772105638412 0.0 0.0 0.0 529.1772105638412" Properties=species:S:1:pos:R:3:forces_component_raw:R:3 ipi_comment="Step:        9680  Bead:       0 forces_component_raw{ase}  cell{ase}" pbc="T T T"
O        0.00000000       0.00000000       0.00000000      -1.33248401      -0.14730224      -1.43580568
H        0.00000000       0.00000000       0.00000000       0.85792649       0.58722782       0.90086228
H        0.00000000       0.00000000       0.00000000       0.42731115      -0.48308170       0.54033828
O        0.00000000       0.00000000       0.00000000      -0.10943115      -1.10029328      -0.54700613
H        0.00000000       0.00000000       0.00000000       0.00046472       0.43821028      -0.06583276
H        0.00000000       0.00000000       0.00000000       0.18539181       0.60208136       0.20212856
H        0.00000000       0.00000000       0.00000000      -0.02917898       0.10315770       0.40531537
7
Lattice="529.1772105638412 0.0 0.0 0.0 529.1772105638412 0.0 0.0 0.0 529.1772105638412" Properties=species:S:1:pos:R:3:forces_component_raw:R:3 ipi_comment="Step:        9700  Bead:       0 forces_component_raw{ase}  cell{ase}" pbc="T T T"
O        0.00000000       0.00000000       0.00000000      -0.68940342       0.29310390      -0.65034545
H        0.00000000       0.00000000       0.00000000       0.46885985       1.27321887       0.35713083
H        0.00000000       0.00000000       0.00000000      -0.07882971      -1.11998344      -0.19400945
O        0.00000000       0.00000000       0.00000000      -0.24371839       0.54383123      -0.13034195
H        0.00000000       0.00000000       0.00000000       0.48710927      -0.54346025      -0.11108770
H        0.00000000       0.00000000       0.00000000      -0.04274428       0.31874001       0.45209646
H        0.00000000       0.00000000       0.00000000       0.09872669      -0.76545048       0.27655718
7
Lattice="529.1772105638412 0.0 0.0 0.0 529.1772105638412 0.0 0.0 0.0 529.1772105638412" Properties=species:S:1:pos:R:3:forces_component_raw:R:3 ipi_comment="Step:        9720  Bead:       0 forces_component_raw{ase}  cell{ase}" pbc="T T T"
O        0.00000000       0.00000000       0.00000000      -0.61477411      -1.47181344      -2.05570269
H        0.00000000       0.00000000       0.00000000       0.91447664       0.73057068       0.74482095
H        0.00000000       0.00000000       0.00000000       0.24629504       0.17061693       0.76637256
O        0.00000000       0.00000000       0.00000000       0.09558162       1.14681602      -0.34908152
H        0.00000000       0.00000000       0.00000000      -0.74699843       0.86922634       0.26975477
H        0.00000000       0.00000000       0.00000000       0.02295092       0.12540317       0.22537816
H        0.00000000       0.00000000       0.00000000       0.08246847      -1.57081986       0.39845777
7
Lattice="529.1772105638412 0.0 0.0 0.0 529.1772105638412 0.0 0.0 0.0 529.1772105638412" Properties=species:S:1:pos:R:3:forces_component_raw:R:3 ipi_comment="Step:        9740  Bead:       0 forces_component_raw{ase}  cell{ase}" pbc="T T T"
O        0.00000000       0.00000000       0.00000000       0.05141926      -0.46018475       1.50748945
H        0.00000000       0.00000000       0.00000000      -0.03049761       1.23615790       0.15048395
H        0.00000000       0.00000000       0.00000000      -0.34279329      -0.44196570      -0.76979584
O        0.00000000       0.00000000       0.00000000      -0.07284468       1.67732168      -1.05553627
H        0.00000000       0.00000000       0.00000000       0.43517974      -0.90158975      -0.55798274
H        0.00000000       0.00000000       0.00000000      -0.07330865      -0.14962840       0.50625706
H        0.00000000       0.00000000       0.00000000       0.03284521      -0.96011102       0.21908444
7
Lattice="529.1772105638412 0.0 0.0 0.0 529.1772105638412 0.0 0.0 0.0 529.1772105638412" Properties=species:S:1:pos:R:3:forces_component_raw:R:3 ipi_comment="Step:        9760  Bead:       0 forces_component_raw{ase}  cell{ase}" pbc="T T T"
O        0.00000000       0.00000000       0.00000000      -0.42687726      -0.75882214      -0.98244000
H        0.00000000       0.00000000       0.00000000       0.46013913      -0.75863987       0.27811307
H        0.00000000       0.00000000       0.00000000       0.00288630       0.96780855       0.82474745
O        0.00000000       0.00000000       0.00000000      -0.11068332      -0.95964122      -0.18619359
H        0.00000000       0.00000000       0.00000000       0.14784309       1.14949060       0.41532225
H        0.00000000       0.00000000       0.00000000       0.03834027       0.56615037      -0.35080147
H        0.00000000       0.00000000       0.00000000      -0.11164826      -0.20634621       0.00125223
7
Lattice="529.1772105638412 0.0 0.0 0.0 529.1772105638412 0.0 0.0 0.0 529.1772105638412" Properties=species:S:1:pos:R:3:forces_component_raw:R:3 ipi_comment="Step:        9780  Bead:       0 forces_component_raw{ase}  cell{ase}" pbc="T T T"
O        0.00000000       0.00000000       0.00000000      -0.39141893       1.66329396       2.43321801
H        0.00000000       0.00000000       0.00000000       0.19677118      -1.03452373      -1.44169367
H        0.00000000       0.00000000       0.00000000       0.12761402      -0.22199827      -1.08106303
O        0.00000000       0.00000000       0.00000000      -0.05789897      -1.40692997       1.63696587
H        0.00000000       0.00000000       0.00000000      -0.23393565      -0.79667115      -0.18056108
H        0.00000000       0.00000000       0.00000000       0.09611118       0.16549629       0.30857891
H        0.00000000       0.00000000       0.00000000       0.26275706       1.63133300      -1.67544532
7
Lattice="529.1772105638412 0.0 0.0 0.0 529.1772105638412 0.0 0.0 0.0 529.1772105638412" Properties=species:S:1:pos:R:3:forces_component_raw:R:3 ipi_comment="Step:        9800  Bead:       0 forces_component_raw{ase}  cell{ase}" pbc="T T T"
O        0.00000000       0.00000000       0.00000000      -1.25486076       0.96795911      -0.91461700
H        0.00000000       0.00000000       0.00000000       1.80005587      -1.76362491      -0.13387299
H        0.00000000       0.00000000       0.00000000      -0.39533454       0.64985669       0.29526317
O        0.00000000       0.00000000       0.00000000      -0.96466047      -2.80762768       3.69240285
H        0.00000000       0.00000000       0.00000000      -0.03513843       0.77783632       0.48247507
H        0.00000000       0.00000000       0.00000000       0.06555453       0.27856338      -0.55184770
H        0.00000000       0.00000000       0.00000000       0.78438366       1.89703715      -2.86980343
7
Lattice="529.1772105638412 0.0 0.0 0.0 529.1772105638412 0.0 0.0 0.0 529.1772105638412" Properties=species:S:1:pos:R:3:forces_component_raw:R:3 ipi_comment="Step:        9820  Bead:       0 forces_component_raw{ase}  cell{ase}" pbc="T T T"
O        0.00000000       0.00000000       0.00000000      -0.90961504       1.97840143       1.95839107
H        0.00000000       0.00000000       0.00000000       0.63353849      -1.46307934      -1.02716828
H        0.00000000       0.00000000       0.00000000       0.27115387      -0.45299518      -0.48122409
O        0.00000000       0.00000000       0.00000000      -0.03064638       0.13733593       1.70297099
H        0.00000000       0.00000000       0.00000000      -0.06401968      -0.12041253      -0.48863059
H        0.00000000       0.00000000       0.00000000      -0.84399224      -1.02978420      -0.20496148
H        0.00000000       0.00000000       0.00000000       0.94358087       0.95053387      -1.45937753
7
Lattice="529.1772105638412 0.0 0.0 0.0 529.1772105638412 0.0 0.0 0.0 529.1772105638412" Properties=species:S:1:pos:R:3:forces_component_raw:R:3 ipi_comment="Step:        9840  Bead:       0 forces_component_raw{ase}  cell{ase}" pbc="T T T"
O        0.00000000       0.00000000       0.00000000      -1.63172627       0.11256480      -0.87858629
H        0.00000000       0.00000000       0.00000000       0.99345464      -0.34495771       0.15761848
H        0.00000000       0.00000000       0.00000000       0.41512716       0.46212256       0.40905637
O        0.00000000       0.00000000       0.00000000       1.22402907       0.90062750       1.04205466
H        0.00000000       0.00000000       0.00000000       0.20339991      -0.34302443       0.16414768
H        0.00000000       0.00000000       0.00000000      -1.05343569      -0.69852650      -0.72331977
H        0.00000000       0.00000000       0.00000000      -0.15084899      -0.08880618      -0.17097116
7
Lattice="529.1772105638412 0.0 0.0 0.0 529.1772105638412 0.0 0.0 0.0 529.1772105638412" Properties=species:S:1:pos:R:3:forces_component_raw:R:3 ipi_comment="Step:        9860  Bead:       0 forces_component_raw{ase}  cell{ase}" pbc="T T T"
O        0.00000000       0.00000000       0.00000000      -0.37753397      -1.00283194      -0.45308954
H        0.00000000       0.00000000       0.00000000      -0.99990463       0.05749601       0.18739101
H        0.00000000       0.00000000       0.00000000       1.44156540       0.55001015       0.07267258
O        0.00000000       0.00000000       0.00000000       2.02610732       0.37802744      -0.11814868
H        0.00000000       0.00000000       0.00000000      -0.23105115       0.64094389       0.04958728
H        0.00000000       0.00000000       0.00000000      -1.14572633      -0.28888965      -0.42247450
H        0.00000000       0.00000000       0.00000000      -0.71345651      -0.33475587       0.68406189
7
Lattice="529.1772105638412 0.0 0.0 0.0 529.1772105638412 0.0 0.0 0.0 529.1772105638412" Properties=species:S:1:pos:R:3:forces_component_raw:R:3 ipi_comment="Step:        9880  Bead:       0 forces_component_raw{ase}  cell{ase}" pbc="T T T"
O        0.00000000       0.00000000       0.00000000       0.66251791      -0.59656561      -1.43410039
H        0.00000000       0.00000000       0.00000000      -1.35890413       0.34743178       1.25831819
H        0.00000000       0.00000000       0.00000000       0.51678360       0.64126820       0.43066290
O        0.00000000       0.00000000       0.00000000       1.23077143       0.62204647      -0.47784293
H        0.00000000       0.00000000       0.00000000       0.29518029      -0.66168028      -0.22300424
H        0.00000000       0.00000000       0.00000000       0.00846970       0.08157974      -0.27103049
H        0.00000000       0.00000000       0.00000000      -1.35481894      -0.43407995       0.71699703
7
Lattice="529.1772105638412 0.0 0.0 0.0 529.1772105638412 0.0 0.0 0.0 529.1772105638412" Properties=species:S:1:pos:R:3:forces_component_raw:R:3 ipi_comment="Step:        9900  Bead:       0 forces_component_raw{ase}  cell{ase}" pbc="T T T"
O        0.00000000       0.00000000       0.00000000       2.36380387       0.70884717      -0.99758893
H        0.00000000       0.00000000       0.00000000      -2.58012295      -0.57415795       1.62287486
H        0.00000000       0.00000000       0.00000000       0.30042285       0.02419722      -0.26040965
O        0.00000000       0.00000000       0.00000000      -0.29850763       0.89944804      -2.42186785
H        0.00000000       0.00000000       0.00000000       0.03166248      -0.20885646      -0.19624221
H        0.00000000       0.00000000       0.00000000       1.09416652      -0.49349141       0.82436943
H        0.00000000       0.00000000       0.00000000      -0.91142500      -0.35598654       1.42886436
7
Lattice="529.1772105638412 0.0 0.0 0.0 529.1772105638412 0.0 0.0 0.0 529.1772105638412" Properties=species:S:1:pos:R:3:forces_component_raw:R:3 ipi_comment="Step:        9920  Bead:       0 forces_component_raw{ase}  cell{ase}" pbc="T T T"
O        0.00000000       0.00000000       0.00000000       2.16090847       0.73176164      -1.78338886
H        0.00000000       0.00000000       0.00000000      -1.91545749      -0.81585455       1.94657886
H        0.00000000       0.00000000       0.00000000      -0.14600723      -0.23749793      -0.04439726
O        0.00000000       0.00000000       0.00000000      -0.34496430       0.14963412      -0.68323028
H        0.00000000       0.00000000       0.00000000      -0.26011047       0.60903150      -0.09276597
H        0.00000000       0.00000000       0.00000000       1.88504112      -0.58596951      -0.08729991
H        0.00000000       0.00000000       0.00000000      -1.37941003       0.14889461       0.74450338
7
Lattice="529.1772105638412 0.0 0.0 0.0 529.1772105638412 0.0 0.0 0.0 529.1772105638412" Properties=species:S:1:pos:R:3:forces_component_raw:R:3 ipi_comment="Step:        9940  Bead:       0 forces_component_raw{ase}  cell{ase}" pbc="T T T"
O        0.00000000       0.00000000       0.00000000       0.21598911       0.78048325       0.47879040
H        0.00000000       0.00000000       0.00000000       0.00674248      -0.26308855      -0.46277046
H        0.00000000       0.00000000       0.00000000       0.08371202      -0.32247120      -0.26427698
O        0.00000000       0.00000000       0.00000000      -1.33418751       1.35396409      -2.29263306
H        0.00000000       0.00000000       0.00000000      -0.10312539      -0.36275786       0.04738729
H        0.00000000       0.00000000       0.00000000       1.47752667      -1.12973559       0.90697289
H        0.00000000       0.00000000       0.00000000      -0.34665740      -0.05639410       1.58652997
7
Lattice="529.1772105638412 0.0 0.0 0.0 529.1772105638412 0.0 0.0 0.0 529.1772105638412" Properties=species:S:1:pos:R:3:forces_component_raw:R:3 ipi_comment="Step:        9960  Bead:       0 forces_component_raw{ase}  cell{ase}" pbc="T T T"
O        0.00000000       0.00000000       0.00000000      -0.61193669      -1.39186406       0.56242710
H        0.00000000       0.00000000       0.00000000       0.97030533       1.41149402      -0.47511375
H        0.00000000       0.00000000       0.00000000      -0.39359892      -0.31283319       0.32469118
O        0.00000000       0.00000000       0.00000000      -0.65598166       0.47309673      -0.01826835
H        0.00000000       0.00000000       0.00000000       0.06368352       0.32808608      -0.53067303
H        0.00000000       0.00000000       0.00000000       1.33139968      -0.70735288       0.01281279
H        0.00000000       0.00000000       0.00000000      -0.70387107       0.19937334       0.12412393
7
Lattice="529.1772105638412 0.0 0.0 0.0 529.1772105638412 0.0 0.0 0.0 529.1772105638412" Properties=species:S:1:pos:R:3:forces_component_raw:R:3 ipi_comment="Step:        9980  Bead:       0 forces_component_raw{ase}  cell{ase}" pbc="T T T"
O        0.00000000       0.00000000       0.00000000      -1.03686178      -0.42545965       1.97492814
H        0.00000000       0.00000000       0.00000000       0.89743763       0.44588512      -1.50914491
H        0.00000000       0.00000000       0.00000000       0.23550430       0.21704125      -0.17242366
O        0.00000000       0.00000000       0.00000000      -0.41283923       0.02761960      -0.80797184
H        0.00000000       0.00000000       0.00000000       0.04041663      -0.03693956       0.65666068
H        0.00000000       0.00000000       0.00000000      -0.27401036      -0.04498899       0.03768110
H        0.00000000       0.00000000       0.00000000       0.55035257      -0.18315759      -0.17972919
7
Lattice="529.1772105638412 0.0 0.0 0.0 529.1772105638412 0.0 0.0 0.0 529.1772105638412" Properties=species:S:1:pos:R:3:forces_component_raw:R:3 ipi_comment="Step:       10000  Bead:       0 forces_component_raw{ase}  cell{ase}" pbc="T T T"
O        0.00000000       0.00000000       0.00000000      -0.46825147      -1.18568635       0.81848246
H        0.00000000       0.00000000       0.00000000       0.45080590       1.20838857      -0.87555212
H        0.00000000       0.00000000       0.00000000      -0.10040832      -0.04396200       0.34034035
O        0.00000000       0.00000000       0.00000000      -0.47335327      -0.34145963       1.00276041
H        0.00000000       0.00000000       0.00000000       0.08483914       0.11315689      -0.05761942
H        0.00000000       0.00000000       0.00000000      -0.41615993       0.32379282      -0.46834263
H        0.00000000       0.00000000       0.00000000       0.92252797      -0.07423022      -0.76006937
7
Lattice="529.1772105638412 0.0 0.0 0.0 529.1772105638412 0.0 0.0 0.0 529.1772105638412" Properties=species:S:1:pos:R:3:forces_component_raw:R:3 ipi_comment="Step:       10020  Bead:       0 forces_component_raw{ase}  cell{ase}" pbc="T T T"
O        0.00000000       0.00000000       0.00000000      -0.39563131      -0.32286128       1.28557420
H        0.00000000       0.00000000       0.00000000       0.22142682       0.42061505      -0.88783509
H        0.00000000       0.00000000       0.00000000       0.08400863       0.01440173      -0.25450477
O        0.00000000       0.00000000       0.00000000      -1.20523238      -0.41181040       2.11860419
H        0.00000000       0.00000000       0.00000000       0.16694921      -0.17658544      -0.11784765
H        0.00000000       0.00000000       0.00000000      -1.19345141       0.88553882      -1.00303614
H        0.00000000       0.00000000       0.00000000       2.32193041      -0.40929863      -1.14095438
7
Lattice="529.1772105638412 0.0 0.0 0.0 529.1772105638412 0.0 0.0 0.0 529.1772105638412" Properties=species:S:1:pos:R:3:forces_component_raw:R:3 ipi_comment="Step:       10040  Bead:       0 forces_component_raw{ase}  cell{ase}" pbc="T T T"
O        0.00000000       0.00000000       0.00000000      -0.20013571      -0.33941624       0.44771224
H        0.00000000       0.00000000       0.00000000      -0.14954935       1.00067497      -0.67561752
H        0.00000000       0.00000000       0.00000000       0.27514070      -0.53970075      -0.05486465
O        0.00000000       0.00000000       0.00000000      -0.53201282      -0.54232931       1.49914945
H        0.00000000       0.00000000       0.00000000      -0.09294355       0.11022633       0.83283293
H        0.00000000       0.00000000       0.00000000      -1.17083740       0.95207787      -0.94677150
H        0.00000000       0.00000000       0.00000000       1.87033797      -0.64153242      -1.10244084
7
Lattice="529.1772105638412 0.0 0.0 0.0 529.1772105638412 0.0 0.0 0.0 529.1772105638412" Properties=species:S:1:pos:R:3:forces_component_raw:R:3 ipi_comment="Step:       10060  Bead:       0 forces_component_raw{ase}  cell{ase}" pbc="T T T"
O        0.00000000       0.00000000       0.00000000      -0.35341883      -0.03935784       0.84838104
H        0.00000000       0.00000000       0.00000000      -0.03901109       0.36511779      -0.24326462
H        0.00000000       0.00000000       0.00000000       0.36563432      -0.64308578      -0.84475315
O        0.00000000       0.00000000       0.00000000      -0.47069222       0.11792243       2.13222647
H        0.00000000       0.00000000       0.00000000       0.12959069       0.18243453      -0.22891367
H        0.00000000       0.00000000       0.00000000      -0.61137277       0.43215895      -0.75571352
H        0.00000000       0.00000000       0.00000000       0.97927004      -0.41519016      -0.90796304
7
Lattice="529.1772105638412 0.0 0.0 0.0 529.1772105638412 0.0 0.0 0.0 529.1772105638412" Properties=species:S:1:pos:R:3:forces_component_raw:R:3 ipi_comment="Step:       10080  Bead:       0 forces_component_raw{ase}  cell{ase}" pbc="T T T"
O        0.00000000       0.00000000       0.00000000      -0.63354719       0.96003020      -0.73079032
H        0.00000000       0.00000000       0.00000000       0.01959383      -0.45560509       0.59236968
H        0.00000000       0.00000000       0.00000000       0.58557969      -0.66354686      -0.23968893
O        0.00000000       0.00000000       0.00000000      -0.28914982       0.24105477      -0.21887004
H        0.00000000       0.00000000       0.00000000       0.06680863      -0.03526092      -0.01040623
H        0.00000000       0.00000000       0.00000000      -0.10344625       0.05932921       0.23581034
H        0.00000000       0.00000000       0.00000000       0.35416138      -0.10600108       0.37157548
7
Lattice="529.1772105638412 0.0 0.0 0.0 529.1772105638412 0.0 0.0 0.0 529.1772105638412" Properties=species:S:1:pos:R:3:forces_component_raw:R:3 ipi_comment="Step:       10100  Bead:       0 forces_component_raw{ase}  cell{ase}" pbc="T T T"
O        0.00000000       0.00000000       0.00000000      -0.25796771       0.33450061      -0.62900651
H        0.00000000       0.00000000       0.00000000       0.18936198      -0.49184758       0.21693397
H        0.00000000       0.00000000       0.00000000       0.12385798       0.05291411      -0.12337983
O        0.00000000       0.00000000       0.00000000       0.52408218       0.00524968       0.36074388
H        0.00000000       0.00000000       0.00000000      -0.36335823      -0.17495546      -0.06361924
H        0.00000000       0.00000000       0.00000000       0.50405949      -0.54781699      -0.21141893
H        0.00000000       0.00000000       0.00000000      -0.72003579       0.82195580       0.44974649
7
Lattice="529.1772105638412 0.0 0.0 0.0 529.1772105638412 0.0 0.0 0.0 529.1772105638412" Properties=species:S:1:pos:R:3:forces_component_raw:R:3 ipi_comment="Step:       10120  Bead:       0 forces_component_raw{ase}  cell{ase}" pbc="T T T"
O        0.00000000       0.00000000       0.00000000       0.20969367      -0.86150307      -1.15782964
H        0.00000000       0.00000000       0.00000000       0.06800219       0.05315322      -0.06315047
H        0.00000000       0.00000000       0.00000000      -0.60814560       0.70507759       0.55316836
O        0.00000000       0.00000000       0.00000000       0.82839668      -0.41035032      -2.35638381
H        0.00000000       0.00000000       0.00000000       0.12433650       0.03533692       0.11809121
H        0.00000000       0.00000000       0.00000000       0.30811840      -0.32950467       1.11921001
H        0.00000000       0.00000000       0.00000000      -0.93040204       0.80779040       1.78689456
7
Lattice="529.1772105638412 0.0 0.0 0.0 529.1772105638412 0.0 0.0 0.0 529.1772105638412" Properties=species:S:1:pos:R:3:forces_component_raw:R:3 ipi_comment="Step:       10140  Bead:       0 forces_component_raw{ase}  cell{ase}" pbc="T T T"
O        0.00000000       0.00000000       0.00000000       0.41925716      -1.45225394       0.31155568
H        0.00000000       0.00000000       0.00000000       0.09275019       0.43417293      -0.74503428
H        0.00000000       0.00000000       0.00000000      -0.63633931       0.98235035       0.37252423
O        0.00000000       0.00000000       0.00000000       0.60518330      -0.11397457      -0.25185907
H        0.00000000       0.00000000       0.00000000      -0.16215608       0.19377160      -0.26161370
H        0.00000000       0.00000000       0.00000000       1.25204361      -1.32324910       0.57828081
H        0.00000000       0.00000000       0.00000000      -1.57073868       1.27918268      -0.00385398
7
Lattice="529.1772105638412 0.0 0.0 0.0 529.1772105638412 0.0 0.0 0.0 529.1772105638412" Properties=species:S:1:pos:R:3:forces_component_raw:R:3 ipi_comment="Step:       10160  Bead:       0 forces_component_raw{ase}  cell{ase}" pbc="T T T"
O        0.00000000       0.00000000       0.00000000       0.13017774       0.01681319       0.38745642
H        0.00000000       0.00000000       0.00000000      -0.06680274       0.13998485      -0.12942016
H        0.00000000       0.00000000       0.00000000      -0.01485366       0.13434571       0.20870939
O        0.00000000       0.00000000       0.00000000       0.12736154       0.15286994      -2.90545250
H        0.00000000       0.00000000       0.00000000       0.29975814       0.02059159       0.33101675
H        0.00000000       0.00000000       0.00000000       0.13007200      -0.64279884       1.24227548
H        0.00000000       0.00000000       0.00000000      -0.60571289       0.17819351       0.86541456
7
Lattice="529.1772105638412 0.0 0.0 0.0 529.1772105638412 0.0 0.0 0.0 529.1772105638412" Properties=species:S:1:pos:R:3:forces_component_raw:R:3 ipi_comment="Step:       10180  Bead:       0 forces_component_raw{ase}  cell{ase}" pbc="T T T"
O        0.00000000       0.00000000       0.00000000       0.47307241       0.33424491       1.26943803
H        0.00000000       0.00000000       0.00000000      -0.01779318      -0.00140011       0.09962493
H        0.00000000       0.00000000       0.00000000      -0.03276125      -0.20086992      -0.28042626
O        0.00000000       0.00000000       0.00000000      -0.73894906       0.50562698      -0.35318363
H        0.00000000       0.00000000       0.00000000      -0.34625992       0.12506256      -0.14110333
H        0.00000000       0.00000000       0.00000000       0.42705569      -0.65750891       0.09526163
H        0.00000000       0.00000000       0.00000000       0.23563528      -0.10515550      -0.68961138
7
Lattice="529.1772105638412 0.0 0.0 0.0 529.1772105638412 0.0 0.0 0.0 529.1772105638412" Properties=species:S:1:pos:R:3:forces_component_raw:R:3 ipi_comment="Step:       10200  Bead:       0 forces_component_raw{ase}  cell{ase}" pbc="T T T"
O        0.00000000       0.00000000       0.00000000       0.36631519       1.21138501       0.36924100
H        0.00000000       0.00000000       0.00000000      -0.20261622      -0.50421721       0.45247680
H        0.00000000       0.00000000       0.00000000      -0.05460945      -0.44936949      -0.28718522
O        0.00000000       0.00000000       0.00000000      -0.84071875       0.50819457      -0.05572474
H        0.00000000       0.00000000       0.00000000       0.18462284      -0.39545268      -0.12525044
H        0.00000000       0.00000000       0.00000000      -0.36110121       0.09393972      -0.05777884
H        0.00000000       0.00000000       0.00000000       0.90810758      -0.46448001      -0.29577839
7
Lattice="529.1772105638412 0.0 0.0 0.0 529.1772105638412 0.0 0.0 0.0 529.1772105638412" Properties=species:S:1:pos:R:3:forces_component_raw:R:3 ipi_comment="Step:       10220  Bead:       0 forces_component_raw{ase}  cell{ase}" pbc="T T T"
O        0.00000000       0.00000000       0.00000000       0.21890187       0.34655315      -1.04261363
H        0.00000000       0.00000000       0.00000000      -0.32532653      -0.45832390       0.80325908
H        0.00000000       0.00000000       0.00000000      -0.10463646      -0.20312536      -0.08734363
O        0.00000000       0.00000000       0.00000000       0.20583653      -0.54785490       2.12670088
H        0.00000000       0.00000000       0.00000000      -0.03761715       0.28469503      -0.15992299
H        0.00000000       0.00000000       0.00000000      -0.83365971       0.86490095      -0.85817397
H        0.00000000       0.00000000       0.00000000       0.87650126      -0.28684536      -0.78190553
7
Lattice="529.1772105638412 0.0 0.0 0.0 529.1772105638412 0.0 0.0 0.0 529.1772105638412" Properties=species:S:1:pos:R:3:forces_component_raw:R:3 ipi_comment="Step:       10240  Bead:       0 forces_component_raw{ase}  cell{ase}" pbc="T T T"
O        0.00000000       0.00000000       0.00000000      -0.07935393       0.60461605      -1.38832105
H        0.00000000       0.00000000       0.00000000      -0.39169455      -0.63524240       0.58755362
H        0.00000000       0.00000000       0.00000000       0.18934649       0.00479251       0.02229592
O        0.00000000       0.00000000       0.00000000       0.81180299      -0.47920835       1.47209239
H        0.00000000       0.00000000       0.00000000       0.06088765      -0.21287447       0.18823460
H        0.00000000       0.00000000       0.00000000      -1.09191454       0.95242709      -0.68407530
H        0.00000000       0.00000000       0.00000000       0.50092572      -0.23451048      -0.19778010
7
Lattice="529.1772105638412 0.0 0.0 0.0 529.1772105638412 0.0 0.0 0.0 529.1772105638412" Properties=species:S:1:pos:R:3:forces_component_raw:R:3 ipi_comment="Step:       10260  Bead:       0 forces_component_raw{ase}  cell{ase}" pbc="T T T"
O        0.00000000       0.00000000       0.00000000       0.01808321      -0.56979549      -1.02854133
H        0.00000000       0.00000000       0.00000000      -0.11249506      -0.20392668       0.32592604
H        0.00000000       0.00000000       0.00000000       0.00693196       0.50687194       0.14369652
O        0.00000000       0.00000000       0.00000000       0.94175089      -0.50091672       0.42764181
H        0.00000000       0.00000000       0.00000000      -0.10449070       0.27522463       0.18601945
H        0.00000000       0.00000000       0.00000000      -0.52618402       0.46197176      -0.32512522
H        0.00000000       0.00000000       0.00000000      -0.22359645       0.03057048       0.27038258
7
Lattice="529.1772105638412 0.0 0.0 0.0 529.1772105638412 0.0 0.0 0.0 529.1772105638412" Properties=species:S:1:pos:R:3:forces_component_raw:R:3 ipi_comment="Step:       10280  Bead:       0 forces_component_raw{ase}  cell{ase}" pbc="T T T"
O        0.00000000       0.00000000       0.00000000       0.20519066      -0.67897618       0.03248519
H        0.00000000       0.00000000       0.00000000      -0.11800820      -0.29430473       0.11188364
H        0.00000000       0.00000000       0.00000000       0.01890978       0.91935045       0.12650132
O        0.00000000       0.00000000       0.00000000       0.14586288       0.34422326      -0.55244184
H        0.00000000       0.00000000       0.00000000       0.20967801      -0.05159354      -0.39974839
H        0.00000000       0.00000000       0.00000000       0.08481163      -0.23715633      -0.28900153
H        0.00000000       0.00000000       0.00000000      -0.54644466      -0.00154313       0.97032154
7
Lattice="529.1772105638412 0.0 0.0 0.0 529.1772105638412 0.0 0.0 0.0 529.1772105638412" Properties=species:S:1:pos:R:3:forces_component_raw:R:3 ipi_comment="Step:       10300  Bead:       0 forces_component_raw{ase}  cell{ase}" pbc="T T T"
O        0.00000000       0.00000000       0.00000000       0.31999260      -0.44258067      -0.39361382
H        0.00000000       0.00000000       0.00000000      -0.03460628       0.13997743       0.15431076
H        0.00000000       0.00000000       0.00000000      -0.09663913       0.39169657       0.46524567
O        0.00000000       0.00000000       0.00000000      -0.21157706       0.09334266      -1.93009592
H        0.00000000       0.00000000       0.00000000      -0.19800624       0.22764450       0.75884199
H        0.00000000       0.00000000       0.00000000       0.60901278      -0.29574037       0.41429341
H        0.00000000       0.00000000       0.00000000      -0.38817656      -0.11434025       0.53101832
7
Lattice="529.1772105638412 0.0 0.0 0.0 529.1772105638412 0.0 0.0 0.0 529.1772105638412" Properties=species:S:1:pos:R:3:forces_component_raw:R:3 ipi_comment="Step:       10320  Bead:       0 forces_component_raw{ase}  cell{ase}" pbc="T T T"
O        0.00000000       0.00000000       0.00000000      -0.25321090      -0.07907623       1.32725120
H        0.00000000       0.00000000       0.00000000       0.14970988      -0.13482559      -0.51306892
H        0.00000000       0.00000000       0.00000000       0.07115224       0.11089450      -0.52621931
O        0.00000000       0.00000000       0.00000000      -0.65441615       0.04053235      -0.03307283
H        0.00000000       0.00000000       0.00000000       0.32586867       0.14624700      -0.39663389
H        0.00000000       0.00000000       0.00000000       0.78510249      -0.09331977       0.07367855
H        0.00000000       0.00000000       0.00000000      -0.42420632       0.00954771       0.06806529
7
Lattice="529.1772105638412 0.0 0.0 0.0 529.1772105638412 0.0 0.0 0.0 529.1772105638412" Properties=species:S:1:pos:R:3:forces_component_raw:R:3 ipi_comment="Step:       10340  Bead:       0 forces_component_raw{ase}  cell{ase}" pbc="T T T"
O        0.00000000       0.00000000       0.00000000       0.02080250      -0.55350065      -0.80309278
H        0.00000000       0.00000000       0.00000000       0.05339021       0.78018683       0.05269039
H        0.00000000       0.00000000       0.00000000      -0.24375266      -0.23948944       0.35127524
O        0.00000000       0.00000000       0.00000000      -0.42033765       0.19550741      -0.20738834
H        0.00000000       0.00000000       0.00000000       0.09252572      -0.11091298      -0.00019450
H        0.00000000       0.00000000       0.00000000       0.12077314      -0.08828428       0.64144921
H        0.00000000       0.00000000       0.00000000       0.37659896       0.01649296      -0.03473926
7
Lattice="529.1772105638412 0.0 0.0 0.0 529.1772105638412 0.0 0.0 0.0 529.1772105638412" Properties=species:S:1:pos:R:3:forces_component_raw:R:3 ipi_comment="Step:       10360  Bead:       0 forces_component_raw{ase}  cell{ase}" pbc="T T T"
O        0.00000000       0.00000000       0.00000000      -0.46115685      -0.09968539       1.28974843
H        0.00000000       0.00000000       0.00000000       0.31368312       0.38140106      -0.63796854
H        0.00000000       0.00000000       0.00000000       0.17803583      -0.54293013      -1.03230417
O        0.00000000       0.00000000       0.00000000      -0.33668673      -0.28278691       0.85256052
H        0.00000000       0.00000000       0.00000000      -0.15066206       0.18896256      -0.18867904
H        0.00000000       0.00000000       0.00000000       0.18312800       0.15529063       0.15890265
H        0.00000000       0.00000000       0.00000000       0.27365857       0.19974810      -0.44225979
7
Lattice="529.1772105638412 0.0 0.0 0.0 529.1772105638412 0.0 0.0 0.0 529.1772105638412" Properties=species:S:1:pos:R:3:forces_component_raw:R:3 ipi_comment="Step:       10380  Bead:       0 forces_component_raw{ase}  cell{ase}" pbc="T T T"
O        0.00000000       0.00000000       0.00000000      -0.40675616       0.63265520       0.25520855
H        0.00000000       0.00000000       0.00000000       0.13928181       0.68225295      -0.24724841
H        0.00000000       0.00000000       0.00000000       0.18990803      -1.09021974      -0.22993165
O        0.00000000       0.00000000       0.00000000      -1.15136981      -0.72165066       0.81249809
H        0.00000000       0.00000000       0.00000000       0.39941093      -0.13396412       0.53570497
H        0.00000000       0.00000000       0.00000000      -0.40467990      -0.10174176      -0.35299948
H        0.00000000       0.00000000       0.00000000       1.23420525       0.73266816      -0.77323198
7
Lattice="529.1772105638412 0.0 0.0 0.0 529.1772105638412 0.0 0.0 0.0 529.1772105638412" Properties=species:S:1:pos:R:3:forces_component_raw:R:3 ipi_comment="Step:       10400  Bead:       0 forces_component_raw{ase}  cell{ase}" pbc="T T T"
O        0.00000000       0.00000000       0.00000000      -0.36233723       0.41540650       1.49192870
H        0.00000000       0.00000000       0.00000000       0.26684946       0.42278987      -0.33370566
H        0.00000000       0.00000000       0.00000000       0.38605088      -0.82847250      -0.55921489
O        0.00000000       0.00000000       0.00000000       0.00426289      -0.08339854       1.15762842
H        0.00000000       0.00000000       0.00000000      -0.41997105       0.02532538      -0.38125819
H        0.00000000       0.00000000       0.00000000      -0.85910446      -0.37595761      -0.56503886
H        0.00000000       0.00000000       0.00000000       0.98424983       0.42430690      -0.81033957
7
Lattice="529.1772105638412 0.0 0.0 0.0 529.1772105638412 0.0 0.0 0.0 529.1772105638412" Properties=species:S:1:pos:R:3:forces_component_raw:R:3 ipi_comment="Step:       10420  Bead:       0 forces_component_raw{ase}  cell{ase}" pbc="T T T"
O        0.00000000       0.00000000       0.00000000      -0.21735311       0.42934659      -0.26883984
H        0.00000000       0.00000000       0.00000000       0.06153536       0.23709101       0.07174287
H        0.00000000       0.00000000       0.00000000       0.17466682      -0.57758254       0.12738375
O        0.00000000       0.00000000       0.00000000      -0.70134974      -0.30459157       0.65774375
H        0.00000000       0.00000000       0.00000000       0.18496639       0.04227047       0.13121629
H        0.00000000       0.00000000       0.00000000      -0.34525085      -0.15216821      -0.34545708
H        0.00000000       0.00000000       0.00000000       0.84278518       0.32563415      -0.37378985
7
Lattice="529.1772105638412 0.0 0.0 0.0 529.1772105638412 0.0 0.0 0.0 529.1772105638412" Properties=species:S:1:pos:R:3:forces_component_raw:R:3 ipi_comment="Step:       10440  Bead:       0 forces_component_raw{ase}  cell{ase}" pbc="T T T"
O        0.00000000       0.00000000       0.00000000       0.07337201       0.54756224      -0.50987476
H        0.00000000       0.00000000       0.00000000      -0.10962725      -0.43353722       0.09683072
H        0.00000000       0.00000000       0.00000000       0.20076817      -0.07772219       0.02498196
O        0.00000000       0.00000000       0.00000000       0.85750103       0.25979674       0.26132894
H        0.00000000       0.00000000       0.00000000      -0.31975463       0.00289649       0.10746527
H        0.00000000       0.00000000       0.00000000      -0.02542424      -0.05453172      -0.20551950
H        0.00000000       0.00000000       0.00000000      -0.67683488      -0.24446440       0.22478741
7
Lattice="529.1772105638412 0.0 0.0 0.0 529.1772105638412 0.0 0.0 0.0 529.1772105638412" Properties=species:S:1:pos:R:3:forces_component_raw:R:3 ipi_comment="Step:       10460  Bead:       0 forces_component_raw{ase}  cell{ase}" pbc="T T T"
O        0.00000000       0.00000000       0.00000000      -0.10502839      -0.34355646      -0.88455969
H        0.00000000       0.00000000       0.00000000       0.00251573      -0.15632585       0.10097370
H        0.00000000       0.00000000       0.00000000      -0.11933130       0.46357572       0.27870828
O        0.00000000       0.00000000       0.00000000       0.90179992       0.18079120      -0.26805151
H        0.00000000       0.00000000       0.00000000       0.30092311       0.09571385       0.21717927
H        0.00000000       0.00000000       0.00000000       0.30351311       0.02050045       0.37886775
H        0.00000000       0.00000000       0.00000000      -1.28439212      -0.26069877       0.17688209
7
Lattice="529.1772105638412 0.0 0.0 0.0 529.1772105638412 0.0 0.0 0.0 529.1772105638412" Properties=species:S:1:pos:R:3:forces_component_raw:R:3 ipi_comment="Step:       10480  Bead:       0 forces_component_raw{ase}  cell{ase}" pbc="T T T"
O        0.00000000       0.00000000       0.00000000      -0.19205201      -0.74398649       0.87413919
H        0.00000000       0.00000000       0.00000000       0.17758709      -0.01299852      -0.35297093
H        0.00000000       0.00000000       0.00000000      -0.11513621       0.80417347       0.23865092
O        0.00000000       0.00000000       0.00000000       1.35700488       0.04305851      -1.52014602
H        0.00000000       0.00000000       0.00000000       0.09254915      -0.08555268      -0.69662154
H        0.00000000       0.00000000       0.00000000       0.08441344       0.08184487       1.08641088
H        0.00000000       0.00000000       0.00000000      -1.40436602      -0.08653919       0.37053752
7
Lattice="529.1772105638412 0.0 0.0 0.0 529.1772105638412 0.0 0.0 0.0 529.1772105638412" Properties=species:S:1:pos:R:3:forces_component_raw:R:3 ipi_comment="Step:       10500  Bead:       0 forces_component_raw{ase}  cell{ase}" pbc="T T T"
O        0.00000000       0.00000000       0.00000000       0.04963112      -1.07364178      -0.41754130
H        0.00000000       0.00000000       0.00000000       0.22265089       0.90984059       0.00461519
H        0.00000000       0.00000000       0.00000000      -0.34612736       0.00620532       0.44141957
O        0.00000000       0.00000000       0.00000000       0.39141506       0.03098726      -0.52081287
H        0.00000000       0.00000000       0.00000000      -0.28928021       0.15275800       0.11469184
H        0.00000000       0.00000000       0.00000000       0.52805042       0.01844275       0.84006381
H        0.00000000       0.00000000       0.00000000      -0.55634028      -0.04459220      -0.46243626
7
Lattice="529.1772105638412 0.0 0.0 0.0 529.1772105638412 0.0 0.0 0.0 529.1772105638412" Properties=species:S:1:pos:R:3:forces_component_raw:R:3 ipi_comment="Step:       10520  Bead:       0 forces_component_raw{ase}  cell{ase}" pbc="T T T"
O        0.00000000       0.00000000       0.00000000      -1.12678504      -0.58875430       1.61989522
H        0.00000000       0.00000000       0.00000000       0.80032814       0.53091359      -0.99790681
H        0.00000000       0.00000000       0.00000000       0.26350066      -0.01369315      -0.52941895
O        0.00000000       0.00000000       0.00000000      -0.88604337       0.16875911      -0.39041072
H        0.00000000       0.00000000       0.00000000       0.46155274       0.05100733       0.39164919
H        0.00000000       0.00000000       0.00000000      -0.07703847      -0.01434135      -0.21495736
H        0.00000000       0.00000000       0.00000000       0.56448549      -0.13389093       0.12114957
7
Lattice="529.1772105638412 0.0 0.0 0.0 529.1772105638412 0.0 0.0 0.0 529.1772105638412" Properties=species:S:1:pos:R:3:forces_component_raw:R:3 ipi_comment="Step:       10540  Bead:       0 forces_component_raw{ase}  cell{ase}" pbc="T T T"
O        0.00000000       0.00000000       0.00000000       0.38518787      -0.04382718      -0.26673907
H        0.00000000       0.00000000       0.00000000       0.53409565       1.15990865       0.28094134
H        0.00000000       0.00000000       0.00000000      -0.58966261      -0.87709898       0.14568803
O        0.00000000       0.00000000       0.00000000       0.41750217       0.14974451       1.25666929
H        0.00000000       0.00000000       0.00000000      -0.68227756      -0.04236421      -0.32890436
H        0.00000000       0.00000000       0.00000000      -0.55850691      -0.29992354      -0.64676917
H        0.00000000       0.00000000       0.00000000       0.49366158      -0.04643911      -0.44088626
7
Lattice="529.1772105638412 0.0 0.0 0.0 529.1772105638412 0.0 0.0 0.0 529.1772105638412" Properties=species:S:1:pos:R:3:forces_component_raw:R:3 ipi_comment="Step:       10560  Bead:       0 forces_component_raw{ase}  cell{ase}" pbc="T T T"
O        0.00000000       0.00000000       0.00000000      -1.64637971       0.27678561      -0.05235735
H        0.00000000       0.00000000       0.00000000       0.77371377      -0.24219874       0.13265047
H        0.00000000       0.00000000       0.00000000       0.71597350      -0.07109964      -0.35760856
O        0.00000000       0.00000000       0.00000000       0.15516362       0.30145764       1.17889977
H        0.00000000       0.00000000       0.00000000       0.21021646       0.10296746       0.05205862
H        0.00000000       0.00000000       0.00000000      -1.15198994      -0.05939555      -0.78285152
H        0.00000000       0.00000000       0.00000000       0.94330198      -0.30851644      -0.17079140
7
Lattice="529.1772105638412 0.0 0.0 0.0 529.1772105638412 0.0 0.0 0.0 529.1772105638412" Properties=species:S:1:pos:R:3:forces_component_raw:R:3 ipi_comment="Step:       10580  Bead:       0 forces_component_raw{ase}  cell{ase}" pbc="T T T"
O        0.00000000       0.00000000       0.00000000       0.03047645       0.65598554      -0.56865764
H        0.00000000       0.00000000       0.00000000       0.34493685       0.23605648       0.52159172
H        0.00000000       0.00000000       0.00000000      -0.30445835      -0.44524407      -0.14044982
O        0.00000000       0.00000000       0.00000000       1.31502390       0.30068272       0.73974103
H        0.00000000       0.00000000       0.00000000      -0.48264307      -0.79385954       0.45403817
H        0.00000000       0.00000000       0.00000000      -0.78310168       0.06756282      -0.79334182
H        0.00000000       0.00000000       0.00000000      -0.12023413      -0.02118397      -0.21292138
7
Lattice="529.1772105638412 0.0 0.0 0.0 529.1772105638412 0.0 0.0 0.0 529.1772105638412" Properties=species:S:1:pos:R:3:forces_component_raw:R:3 ipi_comment="Step:       10600  Bead:       0 forces_component_raw{ase}  cell{ase}" pbc="T T T"
O        0.00000000       0.00000000       0.00000000      -0.68365628      -0.64851719       1.89044011
H        0.00000000       0.00000000       0.00000000      -0.17797917      -0.23862526      -0.32653582
H        0.00000000       0.00000000       0.00000000       0.41380799       0.22303367      -0.78707206
O        0.00000000       0.00000000       0.00000000       0.75330186      -0.72049058      -0.07954681
H        0.00000000       0.00000000       0.00000000       0.41113207       0.79998148      -0.79142660
H        0.00000000       0.00000000       0.00000000      -0.47567612       0.34380782      -0.19653595
H        0.00000000       0.00000000       0.00000000      -0.24093050       0.24081022       0.29067755
7
Lattice="529.1772105638412 0.0 0.0 0.0 529.1772105638412 0.0 0.0 0.0 529.1772105638412" Properties=species:S:1:pos:R:3:forces_component_raw:R:3 ipi_comment="Step:       10620  Bead:       0 forces_component_raw{ase}  cell{ase}" pbc="T T T"
O        0.00000000       0.00000000       0.00000000       0.61518842       0.50863725      -2.39067126
H        0.00000000       0.00000000       0.00000000      -0.30277884      -0.06689662       0.67656130
H        0.00000000       0.00000000       0.00000000      -0.03038865      -0.04514360       1.19329477
O        0.00000000       0.00000000       0.00000000       0.16176701      -0.03328004      -0.42550683
H        0.00000000       0.00000000       0.00000000      -0.02100456      -0.31857243       0.11305091
H        0.00000000       0.00000000       0.00000000       0.12513030      -0.53092498       0.43068928
H        0.00000000       0.00000000       0.00000000      -0.54791349       0.48618043       0.40258181
7
Lattice="529.1772105638412 0.0 0.0 0.0 529.1772105638412 0.0 0.0 0.0 529.1772105638412" Properties=species:S:1:pos:R:3:forces_component_raw:R:3 ipi_comment="Step:       10640  Bead:       0 forces_component_raw{ase}  cell{ase}" pbc="T T T"
O        0.00000000       0.00000000       0.00000000       0.87929928       0.39921635      -0.40704781
H        0.00000000       0.00000000       0.00000000      -1.87990427      -0.74464607       0.30930930
H        0.00000000       0.00000000       0.00000000       1.13511491       0.45678055      -0.00968921
O        0.00000000       0.00000000       0.00000000      -0.17877406       1.15778113      -0.98222006
H        0.00000000       0.00000000       0.00000000       0.00230122      -0.16333288       0.09851205
H        0.00000000       0.00000000       0.00000000       0.54543758      -1.61275709       0.68163181
H        0.00000000       0.00000000       0.00000000      -0.50347459       0.50695765       0.30950391
7
Lattice="529.1772105638412 0.0 0.0 0.0 529.1772105638412 0.0 0.0 0.0 529.1772105638412" Properties=species:S:1:pos:R:3:forces_component_raw:R:3 ipi_comment="Step:       10660  Bead:       0 forces_component_raw{ase}  cell{ase}" pbc="T T T"
O        0.00000000       0.00000000       0.00000000      -0.71572310       0.59526837      -2.17372680
H        0.00000000       0.00000000       0.00000000       0.11003631      -0.22668850       0.49743915
H        0.00000000       0.00000000       0.00000000       0.59434778      -0.29912910       1.11952663
O        0.00000000       0.00000000       0.00000000      -0.48150599       0.94225717      -0.83884758
H        0.00000000       0.00000000       0.00000000       0.23202276       0.24701914       0.35082662
H        0.00000000       0.00000000       0.00000000       0.53113890      -1.57276941       0.76400602
H        0.00000000       0.00000000       0.00000000      -0.27031657       0.31404221       0.28077591
7
Lattice="529.1772105638412 0.0 0.0 0.0 529.1772105638412 0.0 0.0 0.0 529.1772105638412" Properties=species:S:1:pos:R:3:forces_component_raw:R:3 ipi_comment="Step:       10680  Bead:       0 forces_component_raw{ase}  cell{ase}" pbc="T T T"
O        0.00000000       0.00000000       0.00000000      -1.30226708      -0.28993803       0.66915232
H        0.00000000       0.00000000       0.00000000       0.67319065       0.34204951      -0.30359715
H        0.00000000       0.00000000       0.00000000       0.47806174      -0.07984188       0.16655225
O        0.00000000       0.00000000       0.00000000      -0.51183057       1.02274871      -1.16820193
H        0.00000000       0.00000000       0.00000000       0.13510147      -0.11128199      -0.65990114
H        0.00000000       0.00000000       0.00000000       0.53383970      -0.86089802       0.74509752
H        0.00000000       0.00000000       0.00000000      -0.00609580      -0.02283800       0.55089796
7
Lattice="529.1772105638412 0.0 0.0 0.0 529.1772105638412 0.0 0.0 0.0 529.1772105638412" Properties=species:S:1:pos:R:3:forces_component_raw:R:3 ipi_comment="Step:       10700  Bead:       0 forces_component_raw{ase}  cell{ase}" pbc="T T T"
O        0.00000000       0.00000000       0.00000000      -0.34478158      -0.89415896       0.16822225
H        0.00000000       0.00000000       0.00000000       0.69817585       0.19397223       0.44004586
H        0.00000000       0.00000000       0.00000000      -0.49261916       0.73783583      -0.90649885
O        0.00000000       0.00000000       0.00000000       0.57009947      -0.60265076       0.64859045
H        0.00000000       0.00000000       0.00000000      -0.10171014       0.25469020       0.30409533
H        0.00000000       0.00000000       0.00000000      -0.13641727      -0.06180990      -0.27621621
H        0.00000000       0.00000000       0.00000000      -0.19274706       0.37212116      -0.37823862
7
Lattice="529.1772105638412 0.0 0.0 0.0 529.1772105638412 0.0 0.0 0.0 529.1772105638412" Properties=species:S:1:pos:R:3:forces_component_raw:R:3 ipi_comment="Step:       10720  Bead:       0 forces_component_raw{ase}  cell{ase}" pbc="T T T"
O        0.00000000       0.00000000       0.00000000       0.43187949      -1.57730997       0.23843303
H        0.00000000       0.00000000       0.00000000       0.28749180       0.07137615       0.39303362
H        0.00000000       0.00000000       0.00000000      -0.73028225       1.59291244      -0.90134329
O        0.00000000       0.00000000       0.00000000       0.18589187      -0.74562192      -0.25975639
H        0.00000000       0.00000000       0.00000000      -0.02936944      -0.36648640       0.18748251
H        0.00000000       0.00000000       0.00000000      -0.69274366       1.34322143       0.14663264
H        0.00000000       0.00000000       0.00000000       0.54713202      -0.31809187       0.19551784
7
Lattice="529.1772105638412 0.0 0.0 0.0 529.1772105638412 0.0 0.0 0.0 529.1772105638412" Properties=species:S:1:pos:R:3:forces_component_raw:R:3 ipi_comment="Step:       10740  Bead:       0 forces_component_raw{ase}  cell{ase}" pbc="T T T"
O        0.00000000       0.00000000       0.00000000       1.27365148      -1.53514099       0.34605539
H        0.00000000       0.00000000       0.00000000       0.23098731      -0.05962533      -0.02821347
H        0.00000000       0.00000000       0.00000000      -1.15428984       1.41333068      -0.32441557
O        0.00000000       0.00000000       0.00000000       1.47366309      -2.02081252       0.99304283
H        0.00000000       0.00000000       0.00000000      -0.29840162       0.36835298      -0.14326736
H        0.00000000       0.00000000       0.00000000      -1.35768557       1.60891700      -0.43762356
H        0.00000000       0.00000000       0.00000000      -0.16792452       0.22497818      -0.40557826
7
Lattice="529.1772105638412 0.0 0.0 0.0 529.1772105638412 0.0 0.0 0.0 529.1772105638412" Properties=species:S:1:pos:R:3:forces_component_raw:R:3 ipi_comment="Step:       10760  Bead:       0 forces_component_raw{ase}  cell{ase}" pbc="T T T"
O        0.00000000       0.00000000       0.00000000       1.11399675      -1.28370667       0.29214096
H        0.00000000       0.00000000       0.00000000      -0.03745055      -0.11165151       0.03700793
H        0.00000000       0.00000000       0.00000000      -1.32861150       1.52047408      -0.36736581
O        0.00000000       0.00000000       0.00000000       0.18434823      -1.07754088      -0.18274128
H        0.00000000       0.00000000       0.00000000       0.45217121      -0.16796970       0.18098307
H        0.00000000       0.00000000       0.00000000      -0.61611313       1.91059268       0.26766330
H        0.00000000       0.00000000       0.00000000       0.23165894      -0.79019767      -0.22768825
7
Lattice="529.1772105638412 0.0 0.0 0.0 529.1772105638412 0.0 0.0 0.0 529.1772105638412" Properties=species:S:1:pos:R:3:forces_component_raw:R:3 ipi_comment="Step:       10780  Bead:       0 forces_component_raw{ase}  cell{ase}" pbc="T T T"
O        0.00000000       0.00000000       0.00000000       1.44939375      -1.20906198      -0.16785127
H        0.00000000       0.00000000       0.00000000       0.25751031      -0.12421818      -0.17212546
H        0.00000000       0.00000000       0.00000000      -1.61541021       1.33394325       0.33750290
O        0.00000000       0.00000000       0.00000000       0.20403713      -0.41769874       1.69554317
H        0.00000000       0.00000000       0.00000000       0.02638915      -0.05463690       0.04454242
H        0.00000000       0.00000000       0.00000000      -0.12114315       0.47891992      -0.56467712
H        0.00000000       0.00000000       0.00000000      -0.20077688      -0.00724757      -1.17293453
7
Lattice="529.1772105638412 0.0 0.0 0.0 529.1772105638412 0.0 0.0 0.0 529.1772105638412" Properties=species:S:1:pos:R:3:forces_component_raw:R:3 ipi_comment="Step:       10800  Bead:       0 forces_component_raw{ase}  cell{ase}" pbc="T T T"
O        0.00000000       0.00000000       0.00000000       0.62701792      -0.98135925       0.99803341
H        0.00000000       0.00000000       0.00000000       0.36397070       0.14687976      -0.77733529
H        0.00000000       0.00000000       0.00000000      -0.85987616       0.89800728      -0.33027622
O        0.00000000       0.00000000       0.00000000       0.48948738       1.14001584      -0.64087117
H        0.00000000       0.00000000       0.00000000      -0.25276685      -0.40488982       0.41551828
H        0.00000000       0.00000000       0.00000000       0.09813249       0.13244855       0.72276247
H        0.00000000       0.00000000       0.00000000      -0.46596536      -0.93110258      -0.38783157
7
Lattice="529.1772105638412 0.0 0.0 0.0 529.1772105638412 0.0 0.0 0.0 529.1772105638412" Properties=species:S:1:pos:R:3:forces_component_raw:R:3 ipi_comment="Step:       10820  Bead:       0 forces_component_raw{ase}  cell{ase}" pbc="T T T"
O        0.00000000       0.00000000       0.00000000      -0.53455293      -0.35516840       1.52107358
H        0.00000000       0.00000000       0.00000000      -0.01780722      -0.27167803      -0.11164516
H        0.00000000       0.00000000       0.00000000       0.10806465      -0.04942055      -0.15288475
O        0.00000000       0.00000000       0.00000000      -0.23550129      -0.89192951       1.37851930
H        0.00000000       0.00000000       0.00000000       0.52562797       0.67575789      -1.12980998
H        0.00000000       0.00000000       0.00000000      -0.08163005       0.27636194      -0.83317971
H        0.00000000       0.00000000       0.00000000       0.23579887       0.61607647      -0.67207343
7
Lattice="529.1772105638412 0.0 0.0 0.0 529.1772105638412 0.0 0.0 0.0 529.1772105638412" Properties=species:S:1:pos:R:3:forces_component_raw:R:3 ipi_comment="Step:       10840  Bead:       0 forces_component_raw{ase}  cell{ase}" pbc="T T T"
O        0.00000000       0.00000000       0.00000000       0.40417945       0.77558363      -0.99584961
H        0.00000000       0.00000000       0.00000000      -0.40836644       0.08541238       0.54418510
H        0.00000000       0.00000000       0.00000000       0.35362679      -0.58891261       0.21709088
O        0.00000000       0.00000000       0.00000000       0.64513576       0.81299490      -0.67760503
H        0.00000000       0.00000000       0.00000000      -0.49376935      -0.24601364       0.51981515
H        0.00000000       0.00000000       0.00000000       0.42022979      -0.29855865       0.59193343
H        0.00000000       0.00000000       0.00000000      -0.92103601      -0.54050601      -0.19956994
7
Lattice="529.1772105638412 0.0 0.0 0.0 529.1772105638412 0.0 0.0 0.0 529.1772105638412" Properties=species:S:1:pos:R:3:forces_component_raw:R:3 ipi_comment="Step:       10860  Bead:       0 forces_component_raw{ase}  cell{ase}" pbc="T T T"
O        0.00000000       0.00000000       0.00000000      -1.14405740       0.28824651      -0.28187382
H        0.00000000       0.00000000       0.00000000       0.03992042       0.06277293       0.61796153
H        0.00000000       0.00000000       0.00000000       0.91809339      -0.80554569       0.38785803
O        0.00000000       0.00000000       0.00000000       0.23736005      -1.16917134       0.92020261
H        0.00000000       0.00000000       0.00000000       0.43892533       0.53426439      -0.56072205
H        0.00000000       0.00000000       0.00000000      -0.64341939       0.32390338      -0.41746202
H        0.00000000       0.00000000       0.00000000       0.15317774       0.76552975      -0.66596460
7
Lattice="529.1772105638412 0.0 0.0 0.0 529.1772105638412 0.0 0.0 0.0 529.1772105638412" Properties=species:S:1:pos:R:3:forces_component_raw:R:3 ipi_comment="Step:       10880  Bead:       0 forces_component_raw{ase}  cell{ase}" pbc="T T T"
O        0.00000000       0.00000000       0.00000000      -0.27886427       0.81008989       0.22220892
H        0.00000000       0.00000000       0.00000000      -0.16932963       0.34015337       0.05551499
H        0.00000000       0.00000000       0.00000000       0.53886473      -0.99131620      -0.31871608
O        0.00000000       0.00000000       0.00000000       0.25422466       1.44633794      -1.24299228
H        0.00000000       0.00000000       0.00000000      -0.19845301      -0.24716783       0.35952681
H        0.00000000       0.00000000       0.00000000       0.44353664      -0.72854370       0.45888430
H        0.00000000       0.00000000       0.00000000      -0.58997929      -0.62955344       0.46557328
7
Lattice="529.1772105638412 0.0 0.0 0.0 529.1772105638412 0.0 0.0 0.0 529.1772105638412" Properties=species:S:1:pos:R:3:forces_component_raw:R:3 ipi_comment="Step:       10900  Bead:       0 forces_component_raw{ase}  cell{ase}" pbc="T T T"
O        0.00000000       0.00000000       0.00000000      -0.14227283       0.67108202       0.39808226
H        0.00000000       0.00000000       0.00000000       0.07511526      -0.01690079      -0.22971511
H        0.00000000       0.00000000       0.00000000       0.15534326      -0.74628699       0.00490845
O        0.00000000       0.00000000       0.00000000       0.20513079      -0.36210013       0.71063447
H        0.00000000       0.00000000       0.00000000      -0.11533761      -0.49021995      -0.19165555
H        0.00000000       0.00000000       0.00000000      -0.63140834       0.43742776      -0.13419524
H        0.00000000       0.00000000       0.00000000       0.45342931       0.50699782      -0.55805928
7
Lattice="529.1772105638412 0.0 0.0 0.0 529.1772105638412 0.0 0.0 0.0 529.1772105638412" Properties=species:S:1:pos:R:3:forces_component_raw:R:3 ipi_comment="Step:       10920  Bead:       0 forces_component_raw{ase}  cell{ase}" pbc="T T T"
O        0.00000000       0.00000000       0.00000000      -0.18116403      -0.87353343       0.80148369
H        0.00000000       0.00000000       0.00000000       0.02368924       0.17264096      -0.60942954
H        0.00000000       0.00000000       0.00000000      -0.03950757      -0.18524116       0.15675660
O        0.00000000       0.00000000       0.00000000      -0.64375043       1.27466810      -0.19722962
H        0.00000000       0.00000000       0.00000000       0.34511888       0.47688428       0.21923137
H        0.00000000       0.00000000       0.00000000       1.15840149      -0.36789602      -0.16991854
H        0.00000000       0.00000000       0.00000000      -0.66278792      -0.49752271      -0.20089388
7
Lattice="529.1772105638412 0.0 0.0 0.0 529.1772105638412 0.0 0.0 0.0 529.1772105638412" Properties=species:S:1:pos:R:3:forces_component_raw:R:3 ipi_comment="Step:       10940  Bead:       0 forces_component_raw{ase}  cell{ase}" pbc="T T T"
O        0.00000000       0.00000000       0.00000000       0.17817992       0.02819145       0.59167546
H        0.00000000       0.00000000       0.00000000      -0.25280652      -0.53838301      -0.05213499
H        0.00000000       0.00000000       0.00000000       0.29147232       0.69743467      -0.07071421
O        0.00000000       0.00000000       0.00000000      -0.41571742      -1.29272425       0.30128038
H        0.00000000       0.00000000       0.00000000      -0.51757091      -0.64127922      -0.18955825
H        0.00000000       0.00000000       0.00000000       1.09293068       0.98502672      -0.44607011
H        0.00000000       0.00000000       0.00000000      -0.37648797       0.76173347      -0.13447830
7
Lattice="529.1772105638412 0.0 0.0 0.0 529.1772105638412 0.0 0.0 0.0 529.1772105638412" Properties=species:S:1:pos:R:3:forces_component_raw:R:3 ipi_comment="Step:       10960  Bead:       0 forces_component_raw{ase}  cell{ase}" pbc="T T T"
O        0.00000000       0.00000000       0.00000000      -0.87480891      -1.51088119      -0.05612236
H        0.00000000       0.00000000       0.00000000      -0.02556401       0.13956392      -0.27782613
H        0.00000000       0.00000000       0.00000000       0.61259872       1.39123059      -0.50384927
O        0.00000000       0.00000000       0.00000000      -0.88889706      -0.92162836       0.24904880
H        0.00000000       0.00000000       0.00000000       0.76935846       0.73596537       0.68225455
H        0.00000000       0.00000000       0.00000000       0.86012525       0.00918281      -0.05875082
H        0.00000000       0.00000000       0.00000000      -0.45281243       0.15656698      -0.03475526
7
Lattice="529.1772105638412 0.0 0.0 0.0 529.1772105638412 0.0 0.0 0.0 529.1772105638412" Properties=species:S:1:pos:R:3:forces_component_raw:R:3 ipi_comment="Step:       10980  Bead:       0 forces_component_raw{ase}  cell{ase}" pbc="T T T"
O        0.00000000       0.00000000       0.00000000       0.63888270      -0.04160875       1.32025063
H        0.00000000       0.00000000       0.00000000      -0.81313682      -0.89634174      -0.36167842
H        0.00000000       0.00000000       0.00000000       0.78566075       1.33238840      -0.41809511
O        0.00000000       0.00000000       0.00000000       0.37762362      -0.11246717       0.17556265
H        0.00000000       0.00000000       0.00000000      -0.75887048      -0.23933256      -0.85156882
H        0.00000000       0.00000000       0.00000000      -0.29436082      -0.02007848       0.02510497
H        0.00000000       0.00000000       0.00000000       0.06420094      -0.02255958       0.11042430
7
Lattice="529.1772105638412 0.0 0.0 0.0 529.1772105638412 0.0 0.0 0.0 529.1772105638412" Properties=species:S:1:pos:R:3:forces_component_raw:R:3 ipi_comment="Step:       11000  Bead:       0 forces_component_raw{ase}  cell{ase}" pbc="T T T"
O        0.00000000       0.00000000       0.00000000      -0.00778687      -0.82835376       1.41198480
H        0.00000000       0.00000000       0.00000000      -0.55840469       0.23581825      -1.31271541
H        0.00000000       0.00000000       0.00000000       0.14657122       0.06670433      -0.03204998
O        0.00000000       0.00000000       0.00000000       0.15230243       0.26370645      -0.56723303
H        0.00000000       0.00000000       0.00000000       0.81575215       0.41597176       0.19981897
H        0.00000000       0.00000000       0.00000000      -0.68946123      -0.23520529       0.38538256
H        0.00000000       0.00000000       0.00000000       0.14102697       0.08135837      -0.08518791
7
Lattice="529.1772105638412 0.0 0.0 0.0 529.1772105638412 0.0 0.0 0.0 529.1772105638412" Properties=species:S:1:pos:R:3:forces_component_raw:R:3 ipi_comment="Step:       11020  Bead:       0 forces_component_raw{ase}  cell{ase}" pbc="T T T"
O        0.00000000       0.00000000       0.00000000       0.93138790       0.42256945       0.08372378
H        0.00000000       0.00000000       0.00000000      -0.34140146      -0.05385021      -0.39152801
H        0.00000000       0.00000000       0.00000000      -0.28818280      -0.19959366       0.17724967
O        0.00000000       0.00000000       0.00000000       0.97538370       0.01195526      -0.59398294
H        0.00000000       0.00000000       0.00000000      -0.88252932      -0.12020814       0.26690310
H        0.00000000       0.00000000       0.00000000      -0.66728646       0.11750984       0.19907838
H        0.00000000       0.00000000       0.00000000       0.27262849      -0.17838264       0.25855586
7
Lattice="529.1772105638412 0.0 0.0 0.0 529.1772105638412 0.0 0.0 0.0 529.1772105638412" Properties=species:S:1:pos:R:3:forces_component_raw:R:3 ipi_comment="Step:       11040  Bead:       0 forces_component_raw{ase}  cell{ase}" pbc="T T T"
O        0.00000000       0.00000000       0.00000000       0.39751160       0.37764889      -0.00185752
H        0.00000000       0.00000000       0.00000000       0.31089443       0.35884217      -0.03956676
H        0.00000000       0.00000000       0.00000000      -0.98645723      -0.55394405      -0.09607118
O        0.00000000       0.00000000       0.00000000      -0.86980748       0.95361287       0.17850678
H        0.00000000       0.00000000       0.00000000       0.56236446      -0.24748939      -0.36592937
H        0.00000000       0.00000000       0.00000000      -0.18225837      -0.09519988       0.40598226
H        0.00000000       0.00000000       0.00000000       0.76775259      -0.79347050      -0.08106442
7
Lattice="529.1772105638412 0.0 0.0 0.0 529.1772105638412 0.0 0.0 0.0 529.1772105638412" Properties=species:S:1:pos:R:3:forces_component_raw:R:3 ipi_comment="Step:       11060  Bead:       0 forces_component_raw{ase}  cell{ase}" pbc="T T T"
O        0.00000000       0.00000000       0.00000000       1.22076154       0.61879569      -1.57814098
H        0.00000000       0.00000000       0.00000000       0.03072400       0.08180335       0.71732795
H        0.00000000       0.00000000       0.00000000      -0.75150287      -0.20153241       0.24539763
O        0.00000000       0.00000000       0.00000000      -0.29801989       0.93070537       0.03687673
H        0.00000000       0.00000000       0.00000000      -0.95587373       0.04506290       0.37571284
H        0.00000000       0.00000000       0.00000000       0.12546849      -0.04971197      -0.11046904
H        0.00000000       0.00000000       0.00000000       0.62844271      -1.42512298       0.31329465
7
Lattice="529.1772105638412 0.0 0.0 0.0 529.1772105638412 0.0 0.0 0.0 529.1772105638412" Properties=species:S:1:pos:R:3:forces_component_raw:R:3 ipi_comment="Step:       11080  Bead:       0 forces_component_raw{ase}  cell{ase}" pbc="T T T"
O        0.00000000       0.00000000       0.00000000      -1.20281196       0.16845405      -0.45194835
H        0.00000000       0.00000000       0.00000000       0.64433259       0.27182716       0.61156356
H        0.00000000       0.00000000       0.00000000       0.38298035      -0.17406400      -0.37290156
O        0.00000000       0.00000000       0.00000000      -1.16908193       0.98772431       0.77508408
H        0.00000000       0.00000000       0.00000000       0.46873286      -0.43635431       0.15032828
H        0.00000000       0.00000000       0.00000000       0.59807801      -0.17383394      -0.40438819
H        0.00000000       0.00000000       0.00000000       0.27777004      -0.64375317      -0.30773753
7
Lattice="529.1772105638412 0.0 0.0 0.0 529.1772105638412 0.0 0.0 0.0 529.1772105638412" Properties=species:S:1:pos:R:3:forces_component_raw:R:3 ipi_comment="Step:       11100  Bead:       0 forces_component_raw{ase}  cell{ase}" pbc="T T T"
O        0.00000000       0.00000000       0.00000000      -0.48487091      -0.59119046      -0.10273147
H        0.00000000       0.00000000       0.00000000      -0.07527260      -0.09599853       0.43596667
H        0.00000000       0.00000000       0.00000000       0.53485561       0.31694043       0.06257638
O        0.00000000       0.00000000       0.00000000      -0.10286880      -0.36690927      -0.15054700
H        0.00000000       0.00000000       0.00000000      -0.02194211       0.28779286      -0.03335029
H        0.00000000       0.00000000       0.00000000       0.23487347      -0.05028707      -0.34115374
H        0.00000000       0.00000000       0.00000000      -0.08477467       0.49965209       0.12923944
7
Lattice="529.1772105638412 0.0 0.0 0.0 529.1772105638412 0.0 0.0 0.0 529.1772105638412" Properties=species:S:1:pos:R:3:forces_component_raw:R:3 ipi_comment="Step:       11120  Bead:       0 forces_component_raw{ase}  cell{ase}" pbc="T T T"
O        0.00000000       0.00000000       0.00000000       0.25148541      -0.35820642       1.27440548
H        0.00000000       0.00000000       0.00000000      -0.55864775      -0.16541855      -0.84544534
H        0.00000000       0.00000000       0.00000000       0.17694205       0.19364750       0.00271401
O        0.00000000       0.00000000       0.00000000       0.23081112      -0.67326760      -0.61280584
H        0.00000000       0.00000000       0.00000000       0.16875577      -0.04403406      -0.02150485
H        0.00000000       0.00000000       0.00000000      -0.12640792      -0.14552730      -0.06066775
H        0.00000000       0.00000000       0.00000000      -0.14293847       1.19280625       0.26330447
7
Lattice="529.1772105638412 0.0 0.0 0.0 529.1772105638412 0.0 0.0 0.0 529.1772105638412" Properties=species:S:1:pos:R:3:forces_component_raw:R:3 ipi_comment="Step:       11140  Bead:       0 forces_component_raw{ase}  cell{ase}" pbc="T T T"
O        0.00000000       0.00000000       0.00000000       0.03444552      -0.30718511       1.16522503
H        0.00000000       0.00000000       0.00000000      -0.40355539       0.10214625      -0.94795335
H        0.00000000       0.00000000       0.00000000       0.32740587       0.28341979      -0.09752423
O        0.00000000       0.00000000       0.00000000      -0.16513574      -2.66983414      -0.45624885
H        0.00000000       0.00000000       0.00000000      -0.01739517      -0.51867735       0.19060770
H        0.00000000       0.00000000       0.00000000      -0.14735127       0.40183342       0.07983160
H        0.00000000       0.00000000       0.00000000       0.37158623       2.70829726       0.06606236
7
Lattice="529.1772105638412 0.0 0.0 0.0 529.1772105638412 0.0 0.0 0.0 529.1772105638412" Properties=species:S:1:pos:R:3:forces_component_raw:R:3 ipi_comment="Step:       11160  Bead:       0 forces_component_raw{ase}  cell{ase}" pbc="T T T"
O        0.00000000       0.00000000       0.00000000      -0.25647569       0.00918216      -0.14826977
H        0.00000000       0.00000000       0.00000000      -0.29343596       0.08680777      -0.35412884
H        0.00000000       0.00000000       0.00000000       0.69244498       0.32358638       0.24159008
O        0.00000000       0.00000000       0.00000000       0.91080094      -1.76439500      -0.44410294
H        0.00000000       0.00000000       0.00000000      -0.27594009      -0.25457871      -0.22075179
H        0.00000000       0.00000000       0.00000000      -0.80640519      -0.15478584       0.42200205
H        0.00000000       0.00000000       0.00000000       0.02901095       1.75418330       0.50366128
7
Lattice="529.1772105638412 0.0 0.0 0.0 529.1772105638412 0.0 0.0 0.0 529.1772105638412" Properties=species:S:1:pos:R:3:forces_component_raw:R:3 ipi_comment="Step:       11180  Bead:       0 forces_component_raw{ase}  cell{ase}" pbc="T T T"
O        0.00000000       0.00000000       0.00000000      -0.73856807      -0.24912134      -0.50310993
H        0.00000000       0.00000000       0.00000000       0.35687748       0.18136887       0.19920218
H        0.00000000       0.00000000       0.00000000       0.25448918       0.04431602       0.03035139
O        0.00000000       0.00000000       0.00000000      -0.22630298      -1.01558614      -0.05903544
H        0.00000000       0.00000000       0.00000000       0.03599381       0.19385240       0.20988189
H        0.00000000       0.00000000       0.00000000      -0.01204759       0.37125769       0.17459524
H        0.00000000       0.00000000       0.00000000       0.32955813       0.47391230      -0.05188513
7
Lattice="529.1772105638412 0.0 0.0 0.0 529.1772105638412 0.0 0.0 0.0 529.1772105638412" Properties=species:S:1:pos:R:3:forces_component_raw:R:3 ipi_comment="Step:       11200  Bead:       0 forces_component_raw{ase}  cell{ase}" pbc="T T T"
O        0.00000000       0.00000000       0.00000000      -1.22778678      -0.36499304      -0.99289727
H        0.00000000       0.00000000       0.00000000       0.91981608      -0.01616172       1.33488488
H        0.00000000       0.00000000       0.00000000       0.47575045       0.19401771      -0.26226682
O        0.00000000       0.00000000       0.00000000       0.18116391       1.05832052       0.63311499
H        0.00000000       0.00000000       0.00000000      -0.32498086       0.01725499      -0.07882257
H        0.00000000       0.00000000       0.00000000       0.22596586      -0.14339894      -0.22828972
H        0.00000000       0.00000000       0.00000000      -0.24992871      -0.74503946      -0.40572336
7
Lattice="529.1772105638412 0.0 0.0 0.0 529.1772105638412 0.0 0.0 0.0 529.1772105638412" Properties=species:S:1:pos:R:3:forces_component_raw:R:3 ipi_comment="Step:       11220  Bead:       0 forces_component_raw{ase}  cell{ase}" pbc="T T T"
O        0.00000000       0.00000000       0.00000000      -0.62819666      -0.49445874      -1.16917515
H        0.00000000       0.00000000       0.00000000       0.36898923       0.05827370       1.02005053
H        0.00000000       0.00000000       0.00000000       0.04084444      -0.01355353       0.39134437
O        0.00000000       0.00000000       0.00000000       0.71203327       1.17115033      -0.19216716
H        0.00000000       0.00000000       0.00000000       0.23727287       0.32497108       0.11318183
H        0.00000000       0.00000000       0.00000000      -0.10512179      -0.27858430      -0.09685105
H        0.00000000       0.00000000       0.00000000      -0.62582129      -0.76779866      -0.06638309
7
Lattice="529.1772105638412 0.0 0.0 0.0 529.1772105638412 0.0 0.0 0.0 529.1772105638412" Properties=species:S:1:pos:R:3:forces_component_raw:R:3 ipi_comment="Step:       11240  Bead:       0 forces_component_raw{ase}  cell{ase}" pbc="T T T"
O        0.00000000       0.00000000       0.00000000      -0.27379736       0.33305955      -0.18072784
H        0.00000000       0.00000000       0.00000000       0.83004040      -0.18829504       0.47844383
H        0.00000000       0.00000000       0.00000000      -0.53600073      -0.09256095      -0.29188785
O        0.00000000       0.00000000       0.00000000       0.05865419       0.40093327       0.76933634
H        0.00000000       0.00000000       0.00000000       0.06579767      -0.11258927       0.02973956
H        0.00000000       0.00000000       0.00000000       0.31966621       0.11930198      -0.02623057
H        0.00000000       0.00000000       0.00000000      -0.46436024      -0.45984945      -0.77867353
7
Lattice="529.1772105638412 0.0 0.0 0.0 529.1772105638412 0.0 0.0 0.0 529.1772105638412" Properties=species:S:1:pos:R:3:forces_component_raw:R:3 ipi_comment="Step:       11260  Bead:       0 forces_component_raw{ase}  cell{ase}" pbc="T T T"
O        0.00000000       0.00000000       0.00000000       0.44449741       0.34623659      -0.47042966
H        0.00000000       0.00000000       0.00000000      -0.35387570      -0.14667305       0.08363682
H        0.00000000       0.00000000       0.00000000      -0.03988332       0.01725197       0.11489940
O        0.00000000       0.00000000       0.00000000       0.52350915      -0.38978851      -0.52280712
H        0.00000000       0.00000000       0.00000000       0.21587127       0.04405469       0.22672442
H        0.00000000       0.00000000       0.00000000      -0.48096147       0.01978475       0.15125108
H        0.00000000       0.00000000       0.00000000      -0.30915713       0.10913357       0.41672489
7
Lattice="529.1772105638412 0.0 0.0 0.0 529.1772105638412 0.0 0.0 0.0 529.1772105638412" Properties=species:S:1:pos:R:3:forces_component_raw:R:3 ipi_comment="Step:       11280  Bead:       0 forces_component_raw{ase}  cell{ase}" pbc="T T T"
O        0.00000000       0.00000000       0.00000000       1.38510156      -1.09595132       1.04442001
H        0.00000000       0.00000000       0.00000000      -0.66579878       0.45937234      -1.15250123
H        0.00000000       0.00000000       0.00000000      -0.83264363       0.38916952       0.26085311
O        0.00000000       0.00000000       0.00000000       0.44973838      -0.32745814       1.32512594
H        0.00000000       0.00000000       0.00000000       0.04002708       0.58248067      -0.22231357
H        0.00000000       0.00000000       0.00000000       0.20582324       0.00228792      -0.77749443
H        0.00000000       0.00000000       0.00000000      -0.58224797      -0.00990111      -0.47808996
7
Lattice="529.1772105638412 0.0 0.0 0.0 529.1772105638412 0.0 0.0 0.0 529.1772105638412" Properties=species:S:1:pos:R:3:forces_component_raw:R:3 ipi_comment="Step:       11300  Bead:       0 forces_component_raw{ase}  cell{ase}" pbc="T T T"
O        0.00000000       0.00000000       0.00000000       1.51162339      -1.51529646       0.98432756
H        0.00000000       0.00000000       0.00000000      -1.13504792       1.65117991      -1.43843627
H        0.00000000       0.00000000       0.00000000      -0.72183573      -0.03254804       0.77264881
O        0.00000000       0.00000000       0.00000000       0.87720812       1.51478625      -1.27612675
H        0.00000000       0.00000000       0.00000000       0.07793015      -1.34169913       0.83431030
H        0.00000000       0.00000000       0.00000000      -0.67253763      -0.24771071      -0.40204990
H        0.00000000       0.00000000       0.00000000       0.06265938      -0.02871209       0.52532667
7
Lattice="529.1772105638412 0.0 0.0 0.0 529.1772105638412 0.0 0.0 0.0 529.1772105638412" Properties=species:S:1:pos:R:3:forces_component_raw:R:3 ipi_comment="Step:       11320  Bead:       0 forces_component_raw{ase}  cell{ase}" pbc="T T T"
O        0.00000000       0.00000000       0.00000000       1.19038379      -3.68028165       1.95324517
H        0.00000000       0.00000000       0.00000000      -0.93360293       2.00830055      -1.29198635
H        0.00000000       0.00000000       0.00000000      -0.53556478       0.60693824       0.19646859
O        0.00000000       0.00000000       0.00000000      -0.35215932      -0.23028576       0.35164201
H        0.00000000       0.00000000       0.00000000       0.00148457       1.06183052      -0.73617459
H        0.00000000       0.00000000       0.00000000      -0.10085335       0.09410650      -0.21477294
H        0.00000000       0.00000000       0.00000000       0.73031205       0.13939172      -0.25842184
7
Lattice="529.1772105638412 0.0 0.0 0.0 529.1772105638412 0.0 0.0 0.0 529.1772105638412" Properties=species:S:1:pos:R:3:forces_component_raw:R:3 ipi_comment="Step:       11340  Bead:       0 forces_component_raw{ase}  cell{ase}" pbc="T T T"
O        0.00000000       0.00000000       0.00000000       0.84478432      -0.88714612       0.00884104
H        0.00000000       0.00000000       0.00000000      -1.14764214       1.19449020      -0.21973765
H        0.00000000       0.00000000       0.00000000       0.19371003      -0.37739784       0.28513491
O        0.00000000       0.00000000       0.00000000      -2.49352933       1.50573230      -1.02181268
H        0.00000000       0.00000000       0.00000000       0.12158990      -1.08445418       1.00951481
H        0.00000000       0.00000000       0.00000000       0.97381854      -0.04801650       0.51222456
H        0.00000000       0.00000000       0.00000000       1.50726819      -0.30320787      -0.57416505
7
Lattice="529.1772105638412 0.0 0.0 0.0 529.1772105638412 0.0 0.0 0.0 529.1772105638412" Properties=species:S:1:pos:R:3:forces_component_raw:R:3 ipi_comment="Step:       11360  Bead:       0 forces_component_raw{ase}  cell{ase}" pbc="T T T"
O        0.00000000       0.00000000       0.00000000       0.23175094      -1.11183787       0.71139437
H        0.00000000       0.00000000       0.00000000      -0.27545530       0.78304869      -0.53238464
H        0.00000000       0.00000000       0.00000000       0.37401044       0.36318064      -0.48767477
O        0.00000000       0.00000000       0.00000000      -1.30930662       0.05676872       0.88690019
H        0.00000000       0.00000000       0.00000000      -0.36714071       0.46397492      -0.14318824
H        0.00000000       0.00000000       0.00000000       0.27303845      -0.42770702       0.27674842
H        0.00000000       0.00000000       0.00000000       1.07310295      -0.12742806      -0.71179509
7
Lattice="529.1772105638412 0.0 0.0 0.0 529.1772105638412 0.0 0.0 0.0 529.1772105638412" Properties=species:S:1:pos:R:3:forces_component_raw:R:3 ipi_comment="Step:       11380  Bead:       0 forces_component_raw{ase}  cell{ase}" pbc="T T T"
O        0.00000000       0.00000000       0.00000000      -1.82392610       1.39272499      -0.61013168
H        0.00000000       0.00000000       0.00000000       0.36267704      -0.43031800       0.61179960
H        0.00000000       0.00000000       0.00000000       0.98841471      -0.71559656      -0.01953322
O        0.00000000       0.00000000       0.00000000      -0.33757490       0.32080373       0.04443955
H        0.00000000       0.00000000       0.00000000       0.61802560       0.14110367      -0.27617410
H        0.00000000       0.00000000       0.00000000      -0.03340572      -0.63575614       0.45657641
H        0.00000000       0.00000000       0.00000000       0.22578961      -0.07296154      -0.20697683
7
Lattice="529.1772105638412 0.0 0.0 0.0 529.1772105638412 0.0 0.0 0.0 529.1772105638412" Properties=species:S:1:pos:R:3:forces_component_raw:R:3 ipi_comment="Step:       11400  Bead:       0 forces_component_raw{ase}  cell{ase}" pbc="T T T"
O        0.00000000       0.00000000       0.00000000      -1.86800671       1.59761858      -0.66271889
H        0.00000000       0.00000000       0.00000000       1.92011774      -1.42133391       0.92353833
H        0.00000000       0.00000000       0.00000000       0.37636226       0.41357225      -0.78317011
O        0.00000000       0.00000000       0.00000000       0.39385781      -0.87148047      -0.31040648
H        0.00000000       0.00000000       0.00000000      -0.15486035       0.07088441      -0.07641029
H        0.00000000       0.00000000       0.00000000      -0.05012457      -0.44820595       0.16563587
H        0.00000000       0.00000000       0.00000000      -0.61734635       0.65894485       0.74353159
7
Lattice="529.1772105638412 0.0 0.0 0.0 529.1772105638412 0.0 0.0 0.0 529.1772105638412" Properties=species:S:1:pos:R:3:forces_component_raw:R:3 ipi_comment="Step:       11420  Bead:       0 forces_component_raw{ase}  cell{ase}" pbc="T T T"
O        0.00000000       0.00000000       0.00000000      -0.98608673       1.01078940      -0.91216815
H        0.00000000       0.00000000       0.00000000       1.20759833      -0.97572863       0.92160893
H        0.00000000       0.00000000       0.00000000      -0.05999637       0.07526407       0.02037072
O        0.00000000       0.00000000       0.00000000       0.26152229      -0.44257128      -0.92581547
H        0.00000000       0.00000000       0.00000000      -0.16043144      -0.53261072      -0.04537871
H        0.00000000       0.00000000       0.00000000       0.19815287       0.45312321      -0.12630907
H        0.00000000       0.00000000       0.00000000      -0.46075922       0.41173396       1.06769169
7
Lattice="529.1772105638412 0.0 0.0 0.0 529.1772105638412 0.0 0.0 0.0 529.1772105638412" Properties=species:S:1:pos:R:3:forces_component_raw:R:3 ipi_comment="Step:       11440  Bead:       0 forces_component_raw{ase}  cell{ase}" pbc="T T T"
O        0.00000000       0.00000000       0.00000000      -0.82954210      -0.29584712      -0.27818155
H        0.00000000       0.00000000       0.00000000       0.50742978      -0.35659361       0.47511733
H        0.00000000       0.00000000       0.00000000      -0.11037856      -0.00086594       0.17081946
O        0.00000000       0.00000000       0.00000000       0.00759751      -0.21216029      -1.32468891
H        0.00000000       0.00000000       0.00000000       0.37636036       0.29869384       0.26785576
H        0.00000000       0.00000000       0.00000000       0.25280458       0.68908250       0.49416423
H        0.00000000       0.00000000       0.00000000      -0.20427170      -0.12230942       0.19491380
7
Lattice="529.1772105638412 0.0 0.0 0.0 529.1772105638412 0.0 0.0 0.0 529.1772105638412" Properties=species:S:1:pos:R:3:forces_component_raw:R:3 ipi_comment="Step:       11460  Bead:       0 forces_component_raw{ase}  cell{ase}" pbc="T T T"
O        0.00000000       0.00000000       0.00000000       1.12146652      -0.43246836       0.95600152
H        0.00000000       0.00000000       0.00000000      -0.68263430       0.06604842      -0.75976980
H        0.00000000       0.00000000       0.00000000      -0.61982775       0.10362327       0.18426812
O        0.00000000       0.00000000       0.00000000       0.14292586       0.30006096       1.38535226
H        0.00000000       0.00000000       0.00000000      -0.04947052      -0.18387638      -0.23499575
H        0.00000000       0.00000000       0.00000000      -0.02622187       0.03528094      -0.56475932
H        0.00000000       0.00000000       0.00000000       0.11376213       0.11133119      -0.96609682
7
Lattice="529.1772105638412 0.0 0.0 0.0 529.1772105638412 0.0 0.0 0.0 529.1772105638412" Properties=species:S:1:pos:R:3:forces_component_raw:R:3 ipi_comment="Step:       11480  Bead:       0 forces_component_raw{ase}  cell{ase}" pbc="T T T"
O        0.00000000       0.00000000       0.00000000       1.85850263      -0.81920904      -0.06962430
H        0.00000000       0.00000000       0.00000000      -1.39582026       0.86132497      -0.82500124
H        0.00000000       0.00000000       0.00000000      -0.25765795       0.03765994       0.55073273
O        0.00000000       0.00000000       0.00000000       1.28167749       0.88258732       1.55162752
H        0.00000000       0.00000000       0.00000000      -0.21776474       0.04055232       0.56631184
H        0.00000000       0.00000000       0.00000000      -0.90586627      -1.00045324      -0.20285186
H        0.00000000       0.00000000       0.00000000      -0.36307085      -0.00246219      -1.57119418
7
Lattice="529.1772105638412 0.0 0.0 0.0 529.1772105638412 0.0 0.0 0.0 529.1772105638412" Properties=species:S:1:pos:R:3:forces_component_raw:R:3 ipi_comment="Step:       11500  Bead:       0 forces_component_raw{ase}  cell{ase}" pbc="T T T"
O        0.00000000       0.00000000       0.00000000       0.26667762      -2.01045776       2.11154891
H        0.00000000       0.00000000       0.00000000      -0.36822414       1.36899269      -1.59191442
H        0.00000000       0.00000000       0.00000000      -0.33307469       0.35212603      -0.21827519
O        0.00000000       0.00000000       0.00000000       0.93312341       0.29979855       1.24159503
H        0.00000000       0.00000000       0.00000000       0.31131497       0.31925958      -0.61981213
H        0.00000000       0.00000000       0.00000000      -0.82495177      -0.40703923      -0.45328015
H        0.00000000       0.00000000       0.00000000       0.01513460       0.07732043      -0.46986210
7
Lattice="529.1772105638412 0.0 0.0 0.0 529.1772105638412 0.0 0.0 0.0 529.1772105638412" Properties=species:S:1:pos:R:3:forces_component_raw:R:3 ipi_comment="Step:       11520  Bead:       0 forces_component_raw{ase}  cell{ase}" pbc="T T T"
O        0.00000000       0.00000000       0.00000000       1.34022510      -0.90247256       0.07878935
H        0.00000000       0.00000000       0.00000000      -1.80661881       1.46564925      -0.21229988
H        0.00000000       0.00000000       0.00000000       0.65968287      -0.55361295       0.08075976
O        0.00000000       0.00000000       0.00000000       0.42736191       1.00690758      -0.95423782
H        0.00000000       0.00000000       0.00000000      -0.19975770      -0.47185731       0.55052894
H        0.00000000       0.00000000       0.00000000      -0.77229607      -0.59788036       0.09715198
H        0.00000000       0.00000000       0.00000000       0.35140264       0.05326638       0.35930717
7
Lattice="529.1772105638412 0.0 0.0 0.0 529.1772105638412 0.0 0.0 0.0 529.1772105638412" Properties=species:S:1:pos:R:3:forces_component_raw:R:3 ipi_comment="Step:       11540  Bead:       0 forces_component_raw{ase}  cell{ase}" pbc="T T T"
O        0.00000000       0.00000000       0.00000000      -0.32922369      -1.60874153       1.73826743
H        0.00000000       0.00000000       0.00000000      -0.29159278       0.52498651      -0.51154161
H        0.00000000       0.00000000       0.00000000       0.40480715       0.33921439      -0.93246693
O        0.00000000       0.00000000       0.00000000       0.18610358       0.11864132      -0.95573867
H        0.00000000       0.00000000       0.00000000       0.21604812       0.61218268      -0.13237421
H        0.00000000       0.00000000       0.00000000      -0.29999530      -0.07374163       0.30904999
H        0.00000000       0.00000000       0.00000000       0.11385304       0.08745824       0.48480368
7
Lattice="529.1772105638412 0.0 0.0 0.0 529.1772105638412 0.0 0.0 0.0 529.1772105638412" Properties=species:S:1:pos:R:3:forces_component_raw:R:3 ipi_comment="Step:       11560  Bead:       0 forces_component_raw{ase}  cell{ase}" pbc="T T T"
O        0.00000000       0.00000000       0.00000000      -0.44190210       1.31641507       0.09178281
H        0.00000000       0.00000000       0.00000000      -0.00227296      -0.10966074       0.43669307
H        0.00000000       0.00000000       0.00000000       0.44314444      -0.78661132      -0.31747055
O        0.00000000       0.00000000       0.00000000      -0.88107836      -0.11459637      -0.00864482
H        0.00000000       0.00000000       0.00000000      -0.16481069      -0.24519673      -0.53356546
H        0.00000000       0.00000000       0.00000000       0.56279302       0.14665461      -0.38620696
H        0.00000000       0.00000000       0.00000000       0.48412669      -0.20700461       0.71741200
7
Lattice="529.1772105638412 0.0 0.0 0.0 529.1772105638412 0.0 0.0 0.0 529.1772105638412" Properties=species:S:1:pos:R:3:forces_component_raw:R:3 ipi_comment="Step:       11580  Bead:       0 forces_component_raw{ase}  cell{ase}" pbc="T T T"
O        0.00000000       0.00000000       0.00000000      -0.92491311       1.23070610       0.26607591
H        0.00000000       0.00000000       0.00000000       0.65375471      -1.38262701      -0.06478179
H        0.00000000       0.00000000       0.00000000       0.20594727       0.15149751      -0.65892100
O        0.00000000       0.00000000       0.00000000      -2.03763962      -0.13835180      -1.10052181
H        0.00000000       0.00000000       0.00000000       0.22186631       0.43197870       0.94935698
H        0.00000000       0.00000000       0.00000000       1.35714269      -0.16858470      -0.39270443
H        0.00000000       0.00000000       0.00000000       0.52384192      -0.12461871       1.00149620
7
Lattice="529.1772105638412 0.0 0.0 0.0 529.1772105638412 0.0 0.0 0.0 529.1772105638412" Properties=species:S:1:pos:R:3:forces_component_raw:R:3 ipi_comment="Step:       11600  Bead:       0 forces_component_raw{ase}  cell{ase}" pbc="T T T"
O        0.00000000       0.00000000       0.00000000      -0.42958254       1.63673103       0.08577997
H        0.00000000       0.00000000       0.00000000       0.39018124      -1.14033056      -0.17582220
H        0.00000000       0.00000000       0.00000000      -0.06632639      -0.09714910       0.22026080
O        0.00000000       0.00000000       0.00000000      -1.75847090       0.90617836       0.51256871
H        0.00000000       0.00000000       0.00000000       0.07564831      -0.32904273      -0.40509147
H        0.00000000       0.00000000       0.00000000       1.44484794      -0.41272581      -0.80119455
H        0.00000000       0.00000000       0.00000000       0.34370220      -0.56366140       0.56349874
7
Lattice="529.1772105638412 0.0 0.0 0.0 529.1772105638412 0.0 0.0 0.0 529.1772105638412" Properties=species:S:1:pos:R:3:forces_component_raw:R:3 ipi_comment="Step:       11620  Bead:       0 forces_component_raw{ase}  cell{ase}" pbc="T T T"
O        0.00000000       0.00000000       0.00000000       0.15584266      -1.12659085      -1.04809356
H        0.00000000       0.00000000       0.00000000      -0.16585344       0.43006468       0.23986611
H        0.00000000       0.00000000       0.00000000      -0.00938520       0.29975599       0.62155819
O        0.00000000       0.00000000       0.00000000       0.46642941      -0.07805516       0.00230038
H        0.00000000       0.00000000       0.00000000      -0.14235479       0.48333413       0.14648637
H        0.00000000       0.00000000       0.00000000      -0.00198144      -0.04351202       0.05959106
H        0.00000000       0.00000000       0.00000000      -0.30269718       0.03500330      -0.02170873
7
Lattice="529.1772105638412 0.0 0.0 0.0 529.1772105638412 0.0 0.0 0.0 529.1772105638412" Properties=species:S:1:pos:R:3:forces_component_raw:R:3 ipi_comment="Step:       11640  Bead:       0 forces_component_raw{ase}  cell{ase}" pbc="T T T"
O        0.00000000       0.00000000       0.00000000       0.27064329      -1.64629388      -1.70755601
H        0.00000000       0.00000000       0.00000000      -0.34457362       1.36361456       0.59402216
H        0.00000000       0.00000000       0.00000000       0.03994986       0.08959384       0.88365835
O        0.00000000       0.00000000       0.00000000       0.27449796      -0.14933288       0.23385549
H        0.00000000       0.00000000       0.00000000       0.17867616      -0.43579707       0.60336054
H        0.00000000       0.00000000       0.00000000       0.01980734      -0.11403619      -0.04144198
H        0.00000000       0.00000000       0.00000000      -0.43900085       0.89225143      -0.56589824
7
Lattice="529.1772105638412 0.0 0.0 0.0 529.1772105638412 0.0 0.0 0.0 529.1772105638412" Properties=species:S:1:pos:R:3:forces_component_raw:R:3 ipi_comment="Step:       11660  Bead:       0 forces_component_raw{ase}  cell{ase}" pbc="T T T"
O        0.00000000       0.00000000       0.00000000       0.78989124      -1.32606221      -0.09084207
H        0.00000000       0.00000000       0.00000000      -0.19781709       1.46028185      -0.06724346
H        0.00000000       0.00000000       0.00000000      -0.16286820       0.05943344       0.45287526
O        0.00000000       0.00000000       0.00000000       1.00235605      -0.15901578      -0.05914664
H        0.00000000       0.00000000       0.00000000      -0.54701245      -0.12096739      -0.49500135
H        0.00000000       0.00000000       0.00000000      -0.29292369      -0.33717737       0.39822662
H        0.00000000       0.00000000       0.00000000      -0.59162587       0.42350751      -0.13886839
7
Lattice="529.1772105638412 0.0 0.0 0.0 529.1772105638412 0.0 0.0 0.0 529.1772105638412" Properties=species:S:1:pos:R:3:forces_component_raw:R:3 ipi_comment="Step:       11680  Bead:       0 forces_component_raw{ase}  cell{ase}" pbc="T T T"
O        0.00000000       0.00000000       0.00000000      -0.00570500      -1.44076276       0.35004580
H        0.00000000       0.00000000       0.00000000      -0.17137906       1.27377987       0.19929740
H        0.00000000       0.00000000       0.00000000      -0.00910455      -0.28065303      -0.41909415
O        0.00000000       0.00000000       0.00000000       0.19610754       0.04030126      -0.23446775
H        0.00000000       0.00000000       0.00000000       0.37081575       0.56961018      -0.10203161
H        0.00000000       0.00000000       0.00000000      -0.81758255      -0.10869314       0.36581314
H        0.00000000       0.00000000       0.00000000       0.43684778      -0.05358249      -0.15956259
7
Lattice="529.1772105638412 0.0 0.0 0.0 529.1772105638412 0.0 0.0 0.0 529.1772105638412" Properties=species:S:1:pos:R:3:forces_component_raw:R:3 ipi_comment="Step:       11700  Bead:       0 forces_component_raw{ase}  cell{ase}" pbc="T T T"
O        0.00000000       0.00000000       0.00000000       0.26186991       0.39980871       0.19099063
H        0.00000000       0.00000000       0.00000000       0.04857716       0.32901722      -0.02199660
H        0.00000000       0.00000000       0.00000000      -0.13918355      -0.41869396      -0.38862473
O        0.00000000       0.00000000       0.00000000       0.34208965       0.60731024      -1.03219676
H        0.00000000       0.00000000       0.00000000      -0.24798796      -0.25929272       0.24761772
H        0.00000000       0.00000000       0.00000000      -0.66291773       0.03106987       0.50885499
H        0.00000000       0.00000000       0.00000000       0.39755249      -0.68921936       0.49535442
7
Lattice="529.1772105638412 0.0 0.0 0.0 529.1772105638412 0.0 0.0 0.0 529.1772105638412" Properties=species:S:1:pos:R:3:forces_component_raw:R:3 ipi_comment="Step:       11720  Bead:       0 forces_component_raw{ase}  cell{ase}" pbc="T T T"
O        0.00000000       0.00000000       0.00000000      -0.43982580      -0.47454107       1.64279783
H        0.00000000       0.00000000       0.00000000       0.14666241       0.30563402      -0.58743537
H        0.00000000       0.00000000       0.00000000       0.03661929       0.20271599      -0.77124608
O        0.00000000       0.00000000       0.00000000      -0.76665038      -0.13216865      -0.31282532
H        0.00000000       0.00000000       0.00000000       0.33039108       0.26496005      -0.30291209
H        0.00000000       0.00000000       0.00000000       0.09635353       0.26619899      -0.16476738
H        0.00000000       0.00000000       0.00000000       0.59644997      -0.43279961       0.49638814
7
Lattice="529.1772105638412 0.0 0.0 0.0 529.1772105638412 0.0 0.0 0.0 529.1772105638412" Properties=species:S:1:pos:R:3:forces_component_raw:R:3 ipi_comment="Step:       11740  Bead:       0 forces_component_raw{ase}  cell{ase}" pbc="T T T"
O        0.00000000       0.00000000       0.00000000       0.22792889       1.33224154       0.40466005
H        0.00000000       0.00000000       0.00000000      -0.29507768      -0.87006444       0.29850963
H        0.00000000       0.00000000       0.00000000      -0.09524729      -0.61489642      -0.38028872
O        0.00000000       0.00000000       0.00000000      -0.89466596       0.25659800      -0.88664091
H        0.00000000       0.00000000       0.00000000       0.03501932      -0.06033546      -0.03104353
H        0.00000000       0.00000000       0.00000000       0.28140408       0.16754001      -0.07740688
H        0.00000000       0.00000000       0.00000000       0.74063862      -0.21108297       0.67221058
7
Lattice="529.1772105638412 0.0 0.0 0.0 529.1772105638412 0.0 0.0 0.0 529.1772105638412" Properties=species:S:1:pos:R:3:forces_component_raw:R:3 ipi_comment="Step:       11760  Bead:       0 forces_component_raw{ase}  cell{ase}" pbc="T T T"
O        0.00000000       0.00000000       0.00000000       0.07550555      -0.00158274       0.67871422
H        0.00000000       0.00000000       0.00000000      -0.42197386      -1.09031391      -0.98323763
H        0.00000000       0.00000000       0.00000000       0.20240270       0.65567005       0.60199040
O        0.00000000       0.00000000       0.00000000      -0.00058675       0.73340631      -0.45336318
H        0.00000000       0.00000000       0.00000000      -0.14160162      -0.15184361       0.07786572
H        0.00000000       0.00000000       0.00000000      -0.18607718       0.15331614      -0.00496137
H        0.00000000       0.00000000       0.00000000       0.47233129      -0.29865244       0.08299172
7
Lattice="529.1772105638412 0.0 0.0 0.0 529.1772105638412 0.0 0.0 0.0 529.1772105638412" Properties=species:S:1:pos:R:3:forces_component_raw:R:3 ipi_comment="Step:       11780  Bead:       0 forces_component_raw{ase}  cell{ase}" pbc="T T T"
O        0.00000000       0.00000000       0.00000000       1.50905586       1.00928760      -0.91571081
H        0.00000000       0.00000000       0.00000000      -1.12293089      -1.25480402      -0.32436043
H        0.00000000       0.00000000       0.00000000      -0.35946742       0.15952003       0.91445482
O        0.00000000       0.00000000       0.00000000       0.65222454      -0.36451346       0.09561420
H        0.00000000       0.00000000       0.00000000      -0.10267943       0.09527017       0.23164587
H        0.00000000       0.00000000       0.00000000      -0.12126666      -0.05060950       0.17252398
H        0.00000000       0.00000000       0.00000000      -0.45493609       0.40584934      -0.17416754
7
Lattice="529.1772105638412 0.0 0.0 0.0 529.1772105638412 0.0 0.0 0.0 529.1772105638412" Properties=species:S:1:pos:R:3:forces_component_raw:R:3 ipi_comment="Step:       11800  Bead:       0 forces_component_raw{ase}  cell{ase}" pbc="T T T"
O        0.00000000       0.00000000       0.00000000       0.54606354       0.10754168      -0.21226668
H        0.00000000       0.00000000       0.00000000      -0.49541736      -0.34171775      -0.22596100
H        0.00000000       0.00000000       0.00000000      -0.08855531       0.15968198       0.72026718
O        0.00000000       0.00000000       0.00000000       0.57641536      -0.94867814       0.53266847
H        0.00000000       0.00000000       0.00000000       0.02615184       0.20063230      -0.52514184
H        0.00000000       0.00000000       0.00000000       0.05608845      -0.02554902       0.01541436
H        0.00000000       0.00000000       0.00000000      -0.62074655       0.84808898      -0.30498049
7
Lattice="529.1772105638412 0.0 0.0 0.0 529.1772105638412 0.0 0.0 0.0 529.1772105638412" Properties=species:S:1:pos:R:3:forces_component_raw:R:3 ipi_comment="Step:       11820  Bead:       0 forces_component_raw{ase}  cell{ase}" pbc="T T T"
O        0.00000000       0.00000000       0.00000000      -0.05730426       0.54867000      -1.31169582
H        0.00000000       0.00000000       0.00000000      -0.17223489      -0.28329647      -0.22986171
H        0.00000000       0.00000000       0.00000000       0.20063546       0.38530657       0.96758509
O        0.00000000       0.00000000       0.00000000       0.25621128      -1.49155248       0.89851654
H        0.00000000       0.00000000       0.00000000       0.26185161      -0.10960567       0.14778891
H        0.00000000       0.00000000       0.00000000      -0.08643854       0.17074496      -0.10269120
H        0.00000000       0.00000000       0.00000000      -0.40272129       0.77973271      -0.36964190
7
Lattice="529.1772105638412 0.0 0.0 0.0 529.1772105638412 0.0 0.0 0.0 529.1772105638412" Properties=species:S:1:pos:R:3:forces_component_raw:R:3 ipi_comment="Step:       11840  Bead:       0 forces_component_raw{ase}  cell{ase}" pbc="T T T"
O        0.00000000       0.00000000       0.00000000      -0.21931851      -0.09592372      -0.40818507
H        0.00000000       0.00000000       0.00000000       0.47701591       0.40724212      -0.19420147
H        0.00000000       0.00000000       0.00000000      -0.03104662      -0.03530294       0.34148866
O        0.00000000       0.00000000       0.00000000       0.70933050      -0.30454385      -0.03832936
H        0.00000000       0.00000000       0.00000000      -0.39009973       0.02553896       0.29385230
H        0.00000000       0.00000000       0.00000000      -0.04999113      -0.11345333       0.00035593
H        0.00000000       0.00000000       0.00000000      -0.49589014       0.11644310       0.00501910
7
Lattice="529.1772105638412 0.0 0.0 0.0 529.1772105638412 0.0 0.0 0.0 529.1772105638412" Properties=species:S:1:pos:R:3:forces_component_raw:R:3 ipi_comment="Step:       11860  Bead:       0 forces_component_raw{ase}  cell{ase}" pbc="T T T"
O        0.00000000       0.00000000       0.00000000      -0.82697785      -0.39927411       0.97215665
H        0.00000000       0.00000000       0.00000000       0.96472866       0.56094492       0.04064500
H        0.00000000       0.00000000       0.00000000      -0.52305400      -0.48860607      -0.57411474
O        0.00000000       0.00000000       0.00000000      -1.16394019       0.79982704      -0.74178362
H        0.00000000       0.00000000       0.00000000       0.80003423      -0.23852992       0.12792745
H        0.00000000       0.00000000       0.00000000       0.23929912       0.01578909       0.08946975
H        0.00000000       0.00000000       0.00000000       0.50991017      -0.25015104       0.08569923
7
Lattice="529.1772105638412 0.0 0.0 0.0 529.1772105638412 0.0 0.0 0.0 529.1772105638412" Properties=species:S:1:pos:R:3:forces_component_raw:R:3 ipi_comment="Step:       11880  Bead:       0 forces_component_raw{ase}  cell{ase}" pbc="T T T"
O        0.00000000       0.00000000       0.00000000      -0.04529178      -0.74472070       2.30502415
H        0.00000000       0.00000000       0.00000000       0.67552281       0.31552053      -0.30418810
H        0.00000000       0.00000000       0.00000000      -0.52098930      -0.30717042      -1.28677798
O        0.00000000       0.00000000       0.00000000       0.41585025       1.36038685      -0.64975590
H        0.00000000       0.00000000       0.00000000      -0.74189633       0.09800389      -0.07647073
H        0.00000000       0.00000000       0.00000000      -0.39601237       0.01255155      -0.31450397
H        0.00000000       0.00000000       0.00000000       0.61281639      -0.73457146       0.32667267
7
Lattice="529.1772105638412 0.0 0.0 0.0 529.1772105638412 0.0 0.0 0.0 529.1772105638412" Properties=species:S:1:pos:R:3:forces_component_raw:R:3 ipi_comment="Step:       11900  Bead:       0 forces_component_raw{ase}  cell{ase}" pbc="T T T"
O        0.00000000       0.00000000       0.00000000      -0.33783418      -0.08959383       0.65311384
H        0.00000000       0.00000000       0.00000000       0.61120999      -0.18218939       0.37262946
H        0.00000000       0.00000000       0.00000000      -0.68888700       0.18218765      -1.32849038
O        0.00000000       0.00000000       0.00000000      -0.10666600       1.18923128       0.49223018
H        0.00000000       0.00000000       0.00000000       0.73935843       0.12037188       0.35478938
H        0.00000000       0.00000000       0.00000000      -0.80231524      -0.78508592      -0.30572045
H        0.00000000       0.00000000       0.00000000       0.58513427      -0.43492168      -0.23855168
7
Lattice="529.1772105638412 0.0 0.0 0.0 529.1772105638412 0.0 0.0 0.0 529.1772105638412" Properties=species:S:1:pos:R:3:forces_component_raw:R:3 ipi_comment="Step:       11920  Bead:       0 forces_component_raw{ase}  cell{ase}" pbc="T T T"
O        0.00000000       0.00000000       0.00000000       1.63762296       0.48128596       0.75647628
H        0.00000000       0.00000000       0.00000000      -0.83994127      -0.09856319      -0.18901359
H        0.00000000       0.00000000       0.00000000      -0.21102609       0.10928167      -0.76732505
O        0.00000000       0.00000000       0.00000000       1.40479541       0.06396890       1.30842412
H        0.00000000       0.00000000       0.00000000      -1.00223911      -0.02681327      -0.61940074
H        0.00000000       0.00000000       0.00000000      -1.03228224      -0.58634377      -0.48504967
H        0.00000000       0.00000000       0.00000000       0.04307020       0.05718350      -0.00411162
7
Lattice="529.1772105638412 0.0 0.0 0.0 529.1772105638412 0.0 0.0 0.0 529.1772105638412" Properties=species:S:1:pos:R:3:forces_component_raw:R:3 ipi_comment="Step:       11940  Bead:       0 forces_component_raw{ase}  cell{ase}" pbc="T T T"
O        0.00000000       0.00000000       0.00000000       0.48407775       0.87319887      -0.92733354
H        0.00000000       0.00000000       0.00000000      -0.76689142      -0.64146716       0.29215097
H        0.00000000       0.00000000       0.00000000       0.03406933      -0.05879749       0.33130634
O        0.00000000       0.00000000       0.00000000       0.21204299       0.86318720      -0.68321115
H        0.00000000       0.00000000       0.00000000       0.92393071      -0.37788332       0.83159507
H        0.00000000       0.00000000       0.00000000      -0.79463172      -1.00367332       0.38125306
H        0.00000000       0.00000000       0.00000000      -0.09259790       0.34543544      -0.22576100
7
Lattice="529.1772105638412 0.0 0.0 0.0 529.1772105638412 0.0 0.0 0.0 529.1772105638412" Properties=species:S:1:pos:R:3:forces_component_raw:R:3 ipi_comment="Step:       11960  Bead:       0 forces_component_raw{ase}  cell{ase}" pbc="T T T"
O        0.00000000       0.00000000       0.00000000       0.34235054       0.17386773       0.07967573
H        0.00000000       0.00000000       0.00000000      -0.92766428      -0.53215104      -0.46698657
H        0.00000000       0.00000000       0.00000000       0.96627009      -0.24539737       1.22378886
O        0.00000000       0.00000000       0.00000000       0.50378543       0.53463614      -0.21231128
H        0.00000000       0.00000000       0.00000000      -0.73779857       0.44760960      -0.83855832
H        0.00000000       0.00000000       0.00000000      -0.48529333      -0.17742604      -0.09565868
H        0.00000000       0.00000000       0.00000000       0.33835012      -0.20113921       0.31005031
7
Lattice="529.1772105638412 0.0 0.0 0.0 529.1772105638412 0.0 0.0 0.0 529.1772105638412" Properties=species:S:1:pos:R:3:forces_component_raw:R:3 ipi_comment="Step:       11980  Bead:       0 forces_component_raw{ase}  cell{ase}" pbc="T T T"
O        0.00000000       0.00000000       0.00000000      -1.94645918       0.12247342      -1.53724993
H        0.00000000       0.00000000       0.00000000       0.03128219      -0.27939522       0.14851329
H        0.00000000       0.00000000       0.00000000       1.40386701      -0.30656850       1.32592130
O        0.00000000       0.00000000       0.00000000      -1.52539969       0.14281571      -0.95407236
H        0.00000000       0.00000000       0.00000000       0.89984149       0.21498840       0.43834329
H        0.00000000       0.00000000       0.00000000       0.57382405       0.23345485       0.00215483
H        0.00000000       0.00000000       0.00000000       0.56304419      -0.12776849       0.57638961
7
Lattice="529.1772105638412 0.0 0.0 0.0 529.1772105638412 0.0 0.0 0.0 529.1772105638412" Properties=species:S:1:pos:R:3:forces_component_raw:R:3 ipi_comment="Step:       12000  Bead:       0 forces_component_raw{ase}  cell{ase}" pbc="T T T"
O        0.00000000       0.00000000       0.00000000      -0.62552810       0.01632071      -1.27756167
H        0.00000000       0.00000000       0.00000000       0.04320443       0.50820643       0.28564575
H        0.00000000       0.00000000       0.00000000       0.88645935      -0.32450378       1.07105696
O        0.00000000       0.00000000       0.00000000      -0.99302864      -0.22172791      -1.00615657
H        0.00000000       0.00000000       0.00000000      -0.76143712      -0.41377413      -0.29702869
H        0.00000000       0.00000000       0.00000000       1.18716097       0.74885059      -0.05437028
H        0.00000000       0.00000000       0.00000000       0.26316935      -0.31337187       1.27841449
7
Lattice="529.1772105638412 0.0 0.0 0.0 529.1772105638412 0.0 0.0 0.0 529.1772105638412" Properties=species:S:1:pos:R:3:forces_component_raw:R:3 ipi_comment="Step:       12020  Bead:       0 forces_component_raw{ase}  cell{ase}" pbc="T T T"
O        0.00000000       0.00000000       0.00000000       0.37898159       0.46030012      -0.15271771
H        0.00000000       0.00000000       0.00000000      -0.15593439      -0.19903451      -0.19067359
H        0.00000000       0.00000000       0.00000000      -0.19229847       0.12056489       0.09615171
O        0.00000000       0.00000000       0.00000000      -0.66454184      -1.32103658      -0.19773388
H        0.00000000       0.00000000       0.00000000       0.23720545       0.23074612       0.32833240
H        0.00000000       0.00000000       0.00000000       0.11789525       0.01513055      -0.12132379
H        0.00000000       0.00000000       0.00000000       0.27869237       0.69332957       0.23796475
7
Lattice="529.1772105638412 0.0 0.0 0.0 529.1772105638412 0.0 0.0 0.0 529.1772105638412" Properties=species:S:1:pos:R:3:forces_component_raw:R:3 ipi_comment="Step:       12040  Bead:       0 forces_component_raw{ase}  cell{ase}" pbc="T T T"
O        0.00000000       0.00000000       0.00000000       0.34272766       0.91804767       1.17420602
H        0.00000000       0.00000000       0.00000000       0.13077056      -0.07479471      -0.13315290
H        0.00000000       0.00000000       0.00000000      -0.47961909      -0.31866562      -0.70662820
O        0.00000000       0.00000000       0.00000000       0.43536913       0.69517422       0.17474872
H        0.00000000       0.00000000       0.00000000       0.24149823      -0.56412804      -0.59446907
H        0.00000000       0.00000000       0.00000000      -0.25479400      -0.40441895       0.45157769
H        0.00000000       0.00000000       0.00000000      -0.41595274      -0.25121468      -0.36628199
7
Lattice="529.1772105638412 0.0 0.0 0.0 529.1772105638412 0.0 0.0 0.0 529.1772105638412" Properties=species:S:1:pos:R:3:forces_component_raw:R:3 ipi_comment="Step:       12060  Bead:       0 forces_component_raw{ase}  cell{ase}" pbc="T T T"
O        0.00000000       0.00000000       0.00000000       0.44474471      -1.18671477       0.97798991
H        0.00000000       0.00000000       0.00000000      -0.05655444      -0.16718662       0.08353063
H        0.00000000       0.00000000       0.00000000      -0.18310225       0.66967476      -1.46539474
O        0.00000000       0.00000000       0.00000000       0.98185289       0.13320340       0.37286699
H        0.00000000       0.00000000       0.00000000      -0.50356150       0.74895156       0.69076574
H        0.00000000       0.00000000       0.00000000      -0.72340089      -0.46271968      -0.35360855
H        0.00000000       0.00000000       0.00000000       0.04002133       0.26479137      -0.30614984
7
Lattice="529.1772105638412 0.0 0.0 0.0 529.1772105638412 0.0 0.0 0.0 529.1772105638412" Properties=species:S:1:pos:R:3:forces_component_raw:R:3 ipi_comment="Step:       12080  Bead:       0 forces_component_raw{ase}  cell{ase}" pbc="T T T"
O        0.00000000       0.00000000       0.00000000      -0.04340109      -0.98317605       1.07251454
H        0.00000000       0.00000000       0.00000000      -0.37678531       0.91997457       0.57485175
H        0.00000000       0.00000000       0.00000000       0.29530028      -0.38916895      -0.85285199
O        0.00000000       0.00000000       0.00000000       0.71370089       2.20702172       0.17387986
H        0.00000000       0.00000000       0.00000000       0.20338853      -0.72036076      -0.70465207
H        0.00000000       0.00000000       0.00000000      -0.40906191      -0.57567680       0.16695535
H        0.00000000       0.00000000       0.00000000      -0.38314122      -0.45861393      -0.43069744
7
Lattice="529.1772105638412 0.0 0.0 0.0 529.1772105638412 0.0 0.0 0.0 529.1772105638412" Properties=species:S:1:pos:R:3:forces_component_raw:R:3 ipi_comment="Step:       12100  Bead:       0 forces_component_raw{ase}  cell{ase}" pbc="T T T"
O        0.00000000       0.00000000       0.00000000       1.20615816      -1.42315817      -1.08382929
H        0.00000000       0.00000000       0.00000000      -0.39124027       1.07678938       0.10578758
H        0.00000000       0.00000000       0.00000000      -0.77475280      -0.03374369       0.95439369
O        0.00000000       0.00000000       0.00000000      -0.53256679      -1.27045191       0.38054180
H        0.00000000       0.00000000       0.00000000       0.14227067       0.58054209       0.51515687
H        0.00000000       0.00000000       0.00000000       0.37537801       0.44251597      -0.18151435
H        0.00000000       0.00000000       0.00000000      -0.02524689       0.62750626      -0.69053614
7
Lattice="529.1772105638412 0.0 0.0 0.0 529.1772105638412 0.0 0.0 0.0 529.1772105638412" Properties=species:S:1:pos:R:3:forces_component_raw:R:3 ipi_comment="Step:       12120  Bead:       0 forces_component_raw{ase}  cell{ase}" pbc="T T T"
O        0.00000000       0.00000000       0.00000000       1.75188613       0.38610202      -1.34462810
H        0.00000000       0.00000000       0.00000000      -0.36679086       0.70349485       0.13856319
H        0.00000000       0.00000000       0.00000000      -1.41409469      -0.62029445       1.13038278
O        0.00000000       0.00000000       0.00000000      -1.34495044      -0.76033527      -0.98301608
H        0.00000000       0.00000000       0.00000000      -0.37567830      -0.72413236      -0.25623423
H        0.00000000       0.00000000       0.00000000       1.69796479       1.93350387       1.09007287
H        0.00000000       0.00000000       0.00000000       0.05166328      -0.91833902       0.22485948
7
Lattice="529.1772105638412 0.0 0.0 0.0 529.1772105638412 0.0 0.0 0.0 529.1772105638412" Properties=species:S:1:pos:R:3:forces_component_raw:R:3 ipi_comment="Step:       12140  Bead:       0 forces_component_raw{ase}  cell{ase}" pbc="T T T"
O        0.00000000       0.00000000       0.00000000       0.42317861       0.85802722      -0.79224092
H        0.00000000       0.00000000       0.00000000       0.36045039      -0.12158793      -0.37774900
H        0.00000000       0.00000000       0.00000000      -1.17527581      -0.49916071       0.81940401
O        0.00000000       0.00000000       0.00000000      -1.89986992      -3.28755379      -1.22251058
H        0.00000000       0.00000000       0.00000000       0.34858894       0.44532532       0.60553730
H        0.00000000       0.00000000       0.00000000       1.59857893       2.20275093       0.67931771
H        0.00000000       0.00000000       0.00000000       0.34434885       0.40219915       0.28824163
7
Lattice="529.1772105638412 0.0 0.0 0.0 529.1772105638412 0.0 0.0 0.0 529.1772105638412" Properties=species:S:1:pos:R:3:forces_component_raw:R:3 ipi_comment="Step:       12160  Bead:       0 forces_component_raw{ase}  cell{ase}" pbc="T T T"
O        0.00000000       0.00000000       0.00000000       0.92018235       0.31068659      -0.15201432
H        0.00000000       0.00000000       0.00000000       0.27096412      -0.24872321      -0.13774443
H        0.00000000       0.00000000       0.00000000      -0.74786395      -0.32361782       0.30072564
O        0.00000000       0.00000000       0.00000000      -0.03712690      -0.01875585       0.28225166
H        0.00000000       0.00000000       0.00000000      -0.58221263      -0.08954483      -0.08941621
H        0.00000000       0.00000000       0.00000000       0.56782669       0.73323786       0.60210896
H        0.00000000       0.00000000       0.00000000      -0.39176986      -0.36328280      -0.80591142
7
Lattice="529.1772105638412 0.0 0.0 0.0 529.1772105638412 0.0 0.0 0.0 529.1772105638412" Properties=species:S:1:pos:R:3:forces_component_raw:R:3 ipi_comment="Step:       12180  Bead:       0 forces_component_raw{ase}  cell{ase}" pbc="T T T"
O        0.00000000       0.00000000       0.00000000      -1.00241912       0.17011011       0.95921058
H        0.00000000       0.00000000       0.00000000       1.09427262      -0.51856816      -0.74093342
H        0.00000000       0.00000000       0.00000000      -0.12664670      -0.24083549       0.08768035
O        0.00000000       0.00000000       0.00000000      -0.03709537       0.54965544       0.81581116
H        0.00000000       0.00000000       0.00000000       0.58457607       0.10892078      -0.10055091
H        0.00000000       0.00000000       0.00000000      -0.34444994      -0.43873298      -0.39078996
H        0.00000000       0.00000000       0.00000000      -0.16823737       0.36945045      -0.63042784
7
Lattice="529.1772105638412 0.0 0.0 0.0 529.1772105638412 0.0 0.0 0.0 529.1772105638412" Properties=species:S:1:pos:R:3:forces_component_raw:R:3 ipi_comment="Step:       12200  Bead:       0 forces_component_raw{ase}  cell{ase}" pbc="T T T"
O        0.00000000       0.00000000       0.00000000       0.45483470      -1.46501017       0.23142994
H        0.00000000       0.00000000       0.00000000       0.52105546       0.13874026      -0.06625050
H        0.00000000       0.00000000       0.00000000      -0.37611711       0.90051645       0.11217778
O        0.00000000       0.00000000       0.00000000       0.49936319       1.72424782       1.64576579
H        0.00000000       0.00000000       0.00000000      -0.26697120      -0.21634509      -0.14591321
H        0.00000000       0.00000000       0.00000000      -0.64421809      -1.27971602      -0.57669139
H        0.00000000       0.00000000       0.00000000      -0.18794686       0.19756648      -1.20051837
7
Lattice="529.1772105638412 0.0 0.0 0.0 529.1772105638412 0.0 0.0 0.0 529.1772105638412" Properties=species:S:1:pos:R:3:forces_component_raw:R:3 ipi_comment="Step:       12220  Bead:       0 forces_component_raw{ase}  cell{ase}" pbc="T T T"
O        0.00000000       0.00000000       0.00000000      -0.68438471       0.57359481      -0.16053784
H        0.00000000       0.00000000       0.00000000      -0.56187403      -0.53059083       0.09111607
H        0.00000000       0.00000000       0.00000000       0.92255515       0.20712012      -0.11245966
O        0.00000000       0.00000000       0.00000000       0.50450194       1.50799585       0.45736659
H        0.00000000       0.00000000       0.00000000       0.37015385       0.17450887       0.22605127
H        0.00000000       0.00000000       0.00000000      -0.38682830      -1.82572925      -0.10970160
H        0.00000000       0.00000000       0.00000000      -0.16412391      -0.10689965      -0.39183492
7
Lattice="529.1772105638412 0.0 0.0 0.0 529.1772105638412 0.0 0.0 0.0 529.1772105638412" Properties=species:S:1:pos:R:3:forces_component_raw:R:3 ipi_comment="Step:       12240  Bead:       0 forces_component_raw{ase}  cell{ase}" pbc="T T T"
O        0.00000000       0.00000000       0.00000000       0.64007867      -0.32274231      -0.66571784
H        0.00000000       0.00000000       0.00000000      -0.74954420       0.91229499       0.23608422
H        0.00000000       0.00000000       0.00000000      -0.32964555       0.15249020       0.19066471
O        0.00000000       0.00000000       0.00000000       0.82206071       0.26814568       0.31742752
H        0.00000000       0.00000000       0.00000000      -0.19723883      -0.05327508      -0.13184625
H        0.00000000       0.00000000       0.00000000      -0.35174754      -1.07643056      -0.86330432
H        0.00000000       0.00000000       0.00000000       0.16603676       0.11951685       0.91669166
7
Lattice="529.1772105638412 0.0 0.0 0.0 529.1772105638412 0.0 0.0 0.0 529.1772105638412" Properties=species:S:1:pos:R:3:forces_component_raw:R:3 ipi_comment="Step:       12260  Bead:       0 forces_component_raw{ase}  cell{ase}" pbc="T T T"
O        0.00000000       0.00000000       0.00000000      -0.12240034      -0.30308825      -0.15330970
H        0.00000000       0.00000000       0.00000000      -0.22723800      -0.21758947      -0.03744721
H        0.00000000       0.00000000       0.00000000       0.45787692      -0.31527519       0.25683206
O        0.00000000       0.00000000       0.00000000       0.57468337       1.50227523      -0.90485245
H        0.00000000       0.00000000       0.00000000      -0.57014197       1.19223988      -0.26484835
H        0.00000000       0.00000000       0.00000000      -0.18656126      -0.81300700      -0.02967072
H        0.00000000       0.00000000       0.00000000       0.07378110      -1.04555524       1.13329625
7
Lattice="529.1772105638412 0.0 0.0 0.0 529.1772105638412 0.0 0.0 0.0 529.1772105638412" Properties=species:S:1:pos:R:3:forces_component_raw:R:3 ipi_comment="Step:       12280  Bead:       0 forces_component_raw{ase}  cell{ase}" pbc="T T T"
O        0.00000000       0.00000000       0.00000000      -0.17989260      -0.25095314      -0.54858434
H        0.00000000       0.00000000       0.00000000      -0.21405280       0.68788487      -0.02755210
H        0.00000000       0.00000000       0.00000000      -0.17172253       0.62317288       0.14390412
O        0.00000000       0.00000000       0.00000000       1.00568938      -1.20848012      -1.47444189
H        0.00000000       0.00000000       0.00000000      -0.30368990      -0.14747216      -0.14177376
H        0.00000000       0.00000000       0.00000000      -0.13045061       0.83174062       0.31431812
H        0.00000000       0.00000000       0.00000000      -0.00588095      -0.53589225       1.73412991
7
Lattice="529.1772105638412 0.0 0.0 0.0 529.1772105638412 0.0 0.0 0.0 529.1772105638412" Properties=species:S:1:pos:R:3:forces_component_raw:R:3 ipi_comment="Step:       12300  Bead:       0 forces_component_raw{ase}  cell{ase}" pbc="T T T"
O        0.00000000       0.00000000       0.00000000      -1.33125329       0.76684010      -0.09758329
H        0.00000000       0.00000000       0.00000000       0.85444564      -0.40483233       0.02158731
H        0.00000000       0.00000000       0.00000000       0.35898024      -0.17500603       0.02151594
O        0.00000000       0.00000000       0.00000000       0.05421340       0.26274812      -2.81703735
H        0.00000000       0.00000000       0.00000000       0.91584599      -1.11642862       0.61295480
H        0.00000000       0.00000000       0.00000000      -0.60953373       1.13427115       1.24799109
H        0.00000000       0.00000000       0.00000000      -0.24269837      -0.46759239       1.01057136
7
Lattice="529.1772105638412 0.0 0.0 0.0 529.1772105638412 0.0 0.0 0.0 529.1772105638412" Properties=species:S:1:pos:R:3:forces_component_raw:R:3 ipi_comment="Step:       12320  Bead:       0 forces_component_raw{ase}  cell{ase}" pbc="T T T"
O        0.00000000       0.00000000       0.00000000       0.80933827      -1.16495562       0.96218121
H        0.00000000       0.00000000       0.00000000       0.98920369       0.28508857       0.10395587
H        0.00000000       0.00000000       0.00000000      -0.55621159      -0.43193102      -0.20083576
O        0.00000000       0.00000000       0.00000000       0.73370141      -1.16814423      -0.49632704
H        0.00000000       0.00000000       0.00000000      -1.02040982       1.01149035      -0.81814075
H        0.00000000       0.00000000       0.00000000      -0.90111393       1.10841215       0.69017607
H        0.00000000       0.00000000       0.00000000      -0.05450779       0.36003983      -0.24100965
7
Lattice="529.1772105638412 0.0 0.0 0.0 529.1772105638412 0.0 0.0 0.0 529.1772105638412" Properties=species:S:1:pos:R:3:forces_component_raw:R:3 ipi_comment="Step:       12340  Bead:       0 forces_component_raw{ase}  cell{ase}" pbc="T T T"
O        0.00000000       0.00000000       0.00000000      -0.60152966       0.62785661       0.13591647
H        0.00000000       0.00000000       0.00000000       0.60636175      -0.02991227       0.01843157
H        0.00000000       0.00000000       0.00000000      -0.03377011      -0.96288640      -0.16536137
O        0.00000000       0.00000000       0.00000000      -1.20111323      -0.43469483       0.71421886
H        0.00000000       0.00000000       0.00000000       0.53443670      -0.06435221       0.51578724
H        0.00000000       0.00000000       0.00000000      -0.01485759      -0.14149761       0.20969605
H        0.00000000       0.00000000       0.00000000       0.71047205       1.00548673      -1.42868865
7
Lattice="529.1772105638412 0.0 0.0 0.0 529.1772105638412 0.0 0.0 0.0 529.1772105638412" Properties=species:S:1:pos:R:3:forces_component_raw:R:3 ipi_comment="Step:       12360  Bead:       0 forces_component_raw{ase}  cell{ase}" pbc="T T T"
O        0.00000000       0.00000000       0.00000000       0.62967074       0.61332607       0.09150243
H        0.00000000       0.00000000       0.00000000      -0.09322852       0.08199646       0.13891500
H        0.00000000       0.00000000       0.00000000      -0.48535159      -0.31195736      -0.25152001
O        0.00000000       0.00000000       0.00000000      -0.64274001      -1.63599730       1.37168229
H        0.00000000       0.00000000       0.00000000      -0.13683143      -0.12739864      -0.14829242
H        0.00000000       0.00000000       0.00000000      -0.11898038       0.07008863       0.10243511
H        0.00000000       0.00000000       0.00000000       0.84746123       1.30994225      -1.30472243
7
Lattice="529.1772105638412 0.0 0.0 0.0 529.1772105638412 0.0 0.0 0.0 529.1772105638412" Properties=species:S:1:pos:R:3:forces_component_raw:R:3 ipi_comment="Step:       12380  Bead:       0 forces_component_raw{ase}  cell{ase}" pbc="T T T"
O        0.00000000       0.00000000       0.00000000       0.19841206       1.18478775       0.14789283
H        0.00000000       0.00000000       0.00000000      -0.24007285      -0.21716362      -0.03870961
H        0.00000000       0.00000000       0.00000000      -0.04201283      -0.58656562      -0.29526347
O        0.00000000       0.00000000       0.00000000      -0.16702145      -1.16179490       1.08160937
H        0.00000000       0.00000000       0.00000000      -0.17878723      -0.12371312      -0.02930367
H        0.00000000       0.00000000       0.00000000       0.05317181       0.08035707      -0.33069825
H        0.00000000       0.00000000       0.00000000       0.37631050       0.82409245      -0.53552723
7
Lattice="529.1772105638412 0.0 0.0 0.0 529.1772105638412 0.0 0.0 0.0 529.1772105638412" Properties=species:S:1:pos:R:3:forces_component_raw:R:3 ipi_comment="Step:       12400  Bead:       0 forces_component_raw{ase}  cell{ase}" pbc="T T T"
O        0.00000000       0.00000000       0.00000000      -0.07601321      -0.95377541      -0.73325980
H        0.00000000       0.00000000       0.00000000      -0.10247755       0.36138332       0.02121384
H        0.00000000       0.00000000       0.00000000       0.04727906       0.32762140       0.51594657
O        0.00000000       0.00000000       0.00000000       0.31733847       0.22976065       0.18436223
H        0.00000000       0.00000000       0.00000000       0.05377346       0.24758440       0.08562836
H        0.00000000       0.00000000       0.00000000      -0.06018040       0.04919636      -0.30102950
H        0.00000000       0.00000000       0.00000000      -0.17971969      -0.26177043       0.22713849
7
Lattice="529.1772105638412 0.0 0.0 0.0 529.1772105638412 0.0 0.0 0.0 529.1772105638412" Properties=species:S:1:pos:R:3:forces_component_raw:R:3 ipi_comment="Step:       12420  Bead:       0 forces_component_raw{ase}  cell{ase}" pbc="T T T"
O        0.00000000       0.00000000       0.00000000       0.83073747      -1.08346355      -0.48095632
H        0.00000000       0.00000000       0.00000000      -0.56668735      -0.09031315      -0.15136367
H        0.00000000       0.00000000       0.00000000       0.16336745       0.93452424       0.80049509
O        0.00000000       0.00000000       0.00000000       0.06147581       1.99674619      -0.53438985
H        0.00000000       0.00000000       0.00000000      -0.21232301      -0.34296262      -0.06491718
H        0.00000000       0.00000000       0.00000000       0.26844460      -0.29091245      -0.62603283
H        0.00000000       0.00000000       0.00000000      -0.54501474      -1.12361884       1.05716467
7
Lattice="529.1772105638412 0.0 0.0 0.0 529.1772105638412 0.0 0.0 0.0 529.1772105638412" Properties=species:S:1:pos:R:3:forces_component_raw:R:3 ipi_comment="Step:       12440  Bead:       0 forces_component_raw{ase}  cell{ase}" pbc="T T T"
O        0.00000000       0.00000000       0.00000000       0.06464696      -0.95162142      -0.35025519
H        0.00000000       0.00000000       0.00000000      -0.45823801      -0.29949176      -0.32314602
H        0.00000000       0.00000000       0.00000000       0.40774560       0.87821430       0.69535947
O        0.00000000       0.00000000       0.00000000      -0.89693135       2.20573187      -1.19140864
H        0.00000000       0.00000000       0.00000000       0.36101723       0.13011372       0.21844420
H        0.00000000       0.00000000       0.00000000       0.94023156      -0.64399344      -0.63244391
H        0.00000000       0.00000000       0.00000000      -0.41847199      -1.31895340       1.58344996
7
Lattice="529.1772105638412 0.0 0.0 0.0 529.1772105638412 0.0 0.0 0.0 529.1772105638412" Properties=species:S:1:pos:R:3:forces_component_raw:R:3 ipi_comment="Step:       12460  Bead:       0 forces_component_raw{ase}  cell{ase}" pbc="T T T"
O        0.00000000       0.00000000       0.00000000       0.53532809      -1.39115405      -0.41844952
H        0.00000000       0.00000000       0.00000000      -0.26852846       0.27421269       0.05293652
H        0.00000000       0.00000000       0.00000000      -0.64491522       1.35149312       0.47404873
O        0.00000000       0.00000000       0.00000000       0.07821137       1.00208569      -1.09625340
H        0.00000000       0.00000000       0.00000000      -0.01285142       0.17751151      -0.11779168
H        0.00000000       0.00000000       0.00000000       1.10960305      -0.40486431      -0.55594528
H        0.00000000       0.00000000       0.00000000      -0.79684711      -1.00928474       1.66145432
7
Lattice="529.1772105638412 0.0 0.0 0.0 529.1772105638412 0.0 0.0 0.0 529.1772105638412" Properties=species:S:1:pos:R:3:forces_component_raw:R:3 ipi_comment="Step:       12480  Bead:       0 forces_component_raw{ase}  cell{ase}" pbc="T T T"
O        0.00000000       0.00000000       0.00000000      -0.98122967       0.45708561      -0.15972221
H        0.00000000       0.00000000       0.00000000       0.06614113      -0.58011353      -0.17130454
H        0.00000000       0.00000000       0.00000000       0.22133066       0.89993823       0.27081752
O        0.00000000       0.00000000       0.00000000       0.19846249       0.57087880      -0.94019193
H        0.00000000       0.00000000       0.00000000       0.14179713      -0.23357064      -0.15433732
H        0.00000000       0.00000000       0.00000000       0.67601907      -0.11804934      -0.22611052
H        0.00000000       0.00000000       0.00000000      -0.32252103      -0.99616897       1.38084913
7
Lattice="529.1772105638412 0.0 0.0 0.0 529.1772105638412 0.0 0.0 0.0 529.1772105638412" Properties=species:S:1:pos:R:3:forces_component_raw:R:3 ipi_comment="Step:       12500  Bead:       0 forces_component_raw{ase}  cell{ase}" pbc="T T T"
O        0.00000000       0.00000000       0.00000000       0.30091608       0.16271310      -0.56905234
H        0.00000000       0.00000000       0.00000000      -0.09678626       0.38749722       0.40489715
H        0.00000000       0.00000000       0.00000000      -0.32069382      -0.62133128      -0.09716189
O        0.00000000       0.00000000       0.00000000       0.05013245      -0.54057145      -0.14170587
H        0.00000000       0.00000000       0.00000000      -0.11755976       0.55582452       0.20428115
H        0.00000000       0.00000000       0.00000000      -0.02999049       0.07795966       0.15372562
H        0.00000000       0.00000000       0.00000000       0.21398208      -0.02209160       0.04501605
7
Lattice="529.1772105638412 0.0 0.0 0.0 529.1772105638412 0.0 0.0 0.0 529.1772105638412" Properties=species:S:1:pos:R:3:forces_component_raw:R:3 ipi_comment="Step:       12520  Bead:       0 forces_component_raw{ase}  cell{ase}" pbc="T T T"
O        0.00000000       0.00000000       0.00000000      -1.12963414       2.20362115       1.09877908
H        0.00000000       0.00000000       0.00000000       0.94765926      -0.18470207      -0.02255154
H        0.00000000       0.00000000       0.00000000       0.37665391      -1.45108092      -1.20792508
O        0.00000000       0.00000000       0.00000000       1.04999173      -0.71360052       1.63412905
H        0.00000000       0.00000000       0.00000000      -0.16765118      -0.35206539      -0.12827617
H        0.00000000       0.00000000       0.00000000      -0.93929649      -0.18126947       0.24994686
H        0.00000000       0.00000000       0.00000000      -0.13772324       0.67909742      -1.62410212
7
Lattice="529.1772105638412 0.0 0.0 0.0 529.1772105638412 0.0 0.0 0.0 529.1772105638412" Properties=species:S:1:pos:R:3:forces_component_raw:R:3 ipi_comment="Step:       12540  Bead:       0 forces_component_raw{ase}  cell{ase}" pbc="T T T"
O        0.00000000       0.00000000       0.00000000       0.34099841       1.38207364       1.00389779
H        0.00000000       0.00000000       0.00000000       0.58226222       0.75880027       0.42507428
H        0.00000000       0.00000000       0.00000000      -0.56226623      -2.21789146      -1.37816644
O        0.00000000       0.00000000       0.00000000       0.68224895      -0.24653459       1.37958873
H        0.00000000       0.00000000       0.00000000      -0.05001664      -0.21064030       0.12835676
H        0.00000000       0.00000000       0.00000000      -0.59850884      -0.06968349       0.15886641
H        0.00000000       0.00000000       0.00000000      -0.39471766       0.60387617      -1.71761752
7
Lattice="529.1772105638412 0.0 0.0 0.0 529.1772105638412 0.0 0.0 0.0 529.1772105638412" Properties=species:S:1:pos:R:3:forces_component_raw:R:3 ipi_comment="Step:       12560  Bead:       0 forces_component_raw{ase}  cell{ase}" pbc="T T T"
O        0.00000000       0.00000000       0.00000000      -1.37728978       1.02411747       0.30068240
H        0.00000000       0.00000000       0.00000000       0.78795070       0.07363191       0.10540146
H        0.00000000       0.00000000       0.00000000       0.49152410      -1.36157239      -0.54327679
O        0.00000000       0.00000000       0.00000000      -0.38865358      -0.19915152       0.72279310
H        0.00000000       0.00000000       0.00000000       0.00920743       0.05739873       0.31058192
H        0.00000000       0.00000000       0.00000000       0.54675961       0.00290096       0.14274696
H        0.00000000       0.00000000       0.00000000      -0.06949836       0.40267497      -1.03892923
7
Lattice="529.1772105638412 0.0 0.0 0.0 529.1772105638412 0.0 0.0 0.0 529.1772105638412" Properties=species:S:1:pos:R:3:forces_component_raw:R:3 ipi_comment="Step:       12580  Bead:       0 forces_component_raw{ase}  cell{ase}" pbc="T T T"
O        0.00000000       0.00000000       0.00000000       0.96735043      -0.48403043       0.26854444
H        0.00000000       0.00000000       0.00000000      -0.38384271       0.21294521      -0.03659779
H        0.00000000       0.00000000       0.00000000      -0.55171973       0.38799810       0.04157700
O        0.00000000       0.00000000       0.00000000      -0.22199047      -0.23539352       1.52403832
H        0.00000000       0.00000000       0.00000000      -0.25757313       0.06640440      -0.65879643
H        0.00000000       0.00000000       0.00000000       0.82735545      -0.03747030      -1.00926042
H        0.00000000       0.00000000       0.00000000      -0.37958002       0.08954659      -0.12950516
7
Lattice="529.1772105638412 0.0 0.0 0.0 529.1772105638412 0.0 0.0 0.0 529.1772105638412" Properties=species:S:1:pos:R:3:forces_component_raw:R:3 ipi_comment="Step:       12600  Bead:       0 forces_component_raw{ase}  cell{ase}" pbc="T T T"
O        0.00000000       0.00000000       0.00000000       0.03895807      -0.01929927       0.32777131
H        0.00000000       0.00000000       0.00000000      -0.33454636      -0.75443638      -0.73133648
H        0.00000000       0.00000000       0.00000000      -0.02506259       0.75349724       0.36078599
O        0.00000000       0.00000000       0.00000000      -2.18452335       1.83688689      -0.36772269
H        0.00000000       0.00000000       0.00000000       0.86323047      -0.33454380       0.50838542
H        0.00000000       0.00000000       0.00000000       1.43325949      -1.04883027      -0.94157315
H        0.00000000       0.00000000       0.00000000       0.20868392      -0.43327451       0.84368968
7
Lattice="529.1772105638412 0.0 0.0 0.0 529.1772105638412 0.0 0.0 0.0 529.1772105638412" Properties=species:S:1:pos:R:3:forces_component_raw:R:3 ipi_comment="Step:       12620  Bead:       0 forces_component_raw{ase}  cell{ase}" pbc="T T T"
O        0.00000000       0.00000000       0.00000000       2.09401608      -0.99462688       2.22438479
H        0.00000000       0.00000000       0.00000000      -0.27231559      -0.17850679      -1.43289125
H        0.00000000       0.00000000       0.00000000      -0.66056377       0.90868765      -0.44025901
O        0.00000000       0.00000000       0.00000000      -1.32569337       1.00793946       0.33083057
H        0.00000000       0.00000000       0.00000000      -1.13244283       0.44099325      -0.40013290
H        0.00000000       0.00000000       0.00000000       0.90296996      -0.45628885      -1.98945833
H        0.00000000       0.00000000       0.00000000       0.39402935      -0.72819793       1.70752657
7
Lattice="529.1772105638412 0.0 0.0 0.0 529.1772105638412 0.0 0.0 0.0 529.1772105638412" Properties=species:S:1:pos:R:3:forces_component_raw:R:3 ipi_comment="Step:       12640  Bead:       0 forces_component_raw{ase}  cell{ase}" pbc="T T T"
O        0.00000000       0.00000000       0.00000000      -1.28235495       0.15522665       0.27443755
H        0.00000000       0.00000000       0.00000000      -0.41266251      -1.00411344      -1.17366565
H        0.00000000       0.00000000       0.00000000       0.75491679       0.90032870       0.56149596
O        0.00000000       0.00000000       0.00000000      -1.58435095       1.35636008      -0.51166618
H        0.00000000       0.00000000       0.00000000       0.88145518       0.32624528       0.48625118
H        0.00000000       0.00000000       0.00000000       0.50859618      -0.44616658      -0.70442557
H        0.00000000       0.00000000       0.00000000       1.13440037      -1.28788066       1.06757236
7
Lattice="529.1772105638412 0.0 0.0 0.0 529.1772105638412 0.0 0.0 0.0 529.1772105638412" Properties=species:S:1:pos:R:3:forces_component_raw:R:3 ipi_comment="Step:       12660  Bead:       0 forces_component_raw{ase}  cell{ase}" pbc="T T T"
O        0.00000000       0.00000000       0.00000000       0.00549787       0.07412770       1.65695978
H        0.00000000       0.00000000       0.00000000      -0.05549905       0.15970081      -1.02232528
H        0.00000000       0.00000000       0.00000000      -0.07735908       0.74475229      -0.62908131
O        0.00000000       0.00000000       0.00000000       0.62160432      -0.17918968      -0.80063474
H        0.00000000       0.00000000       0.00000000      -0.59095317      -0.82039249      -0.24976659
H        0.00000000       0.00000000       0.00000000      -0.45948470       0.48810274      -0.26688880
H        0.00000000       0.00000000       0.00000000       0.55619371      -0.46710128       1.31173683
7
Lattice="529.1772105638412 0.0 0.0 0.0 529.1772105638412 0.0 0.0 0.0 529.1772105638412" Properties=species:S:1:pos:R:3:forces_component_raw:R:3 ipi_comment="Step:       12680  Bead:       0 forces_component_raw{ase}  cell{ase}" pbc="T T T"
O        0.00000000       0.00000000       0.00000000      -0.25385815       0.65954942      -0.75347603
H        0.00000000       0.00000000       0.00000000      -0.52693701      -0.38060069       0.04969025
H        0.00000000       0.00000000       0.00000000       0.60740954      -1.13503742       0.55343223
O        0.00000000       0.00000000       0.00000000       0.17387216      -0.23014796      -1.00828409
H        0.00000000       0.00000000       0.00000000       0.15351301       0.79650092       0.22296649
H        0.00000000       0.00000000       0.00000000      -0.46159363       0.49082804       1.82546270
H        0.00000000       0.00000000       0.00000000       0.30759397      -0.20109257      -0.88979161
7
Lattice="529.1772105638412 0.0 0.0 0.0 529.1772105638412 0.0 0.0 0.0 529.1772105638412" Properties=species:S:1:pos:R:3:forces_component_raw:R:3 ipi_comment="Step:       12700  Bead:       0 forces_component_raw{ase}  cell{ase}" pbc="T T T"
O        0.00000000       0.00000000       0.00000000       0.61802369       0.14183754       0.12865818
H        0.00000000       0.00000000       0.00000000       0.72326482       0.68571019       0.35363287
H        0.00000000       0.00000000       0.00000000      -1.02238703      -0.46552026      -0.25946727
O        0.00000000       0.00000000       0.00000000       2.09463311      -2.24334312       0.39107111
H        0.00000000       0.00000000       0.00000000      -0.75855136      -0.55497372      -0.51468170
H        0.00000000       0.00000000       0.00000000      -1.30062366       1.63009572       1.29755831
H        0.00000000       0.00000000       0.00000000      -0.35435951       0.80619347      -1.39677143
7
Lattice="529.1772105638412 0.0 0.0 0.0 529.1772105638412 0.0 0.0 0.0 529.1772105638412" Properties=species:S:1:pos:R:3:forces_component_raw:R:3 ipi_comment="Step:       12720  Bead:       0 forces_component_raw{ase}  cell{ase}" pbc="T T T"
O        0.00000000       0.00000000       0.00000000       0.17098349       0.93192995       0.02097428
H        0.00000000       0.00000000       0.00000000      -0.32675731      -0.45445848       0.01322877
H        0.00000000       0.00000000       0.00000000       0.34848028      -1.14399815       0.17266917
O        0.00000000       0.00000000       0.00000000      -1.47661031       0.15040493       0.59610343
H        0.00000000       0.00000000       0.00000000       1.35314632      -0.55469048       0.35933411
H        0.00000000       0.00000000       0.00000000      -0.34122843       0.40617102       0.91405434
H        0.00000000       0.00000000       0.00000000       0.27198589       0.66464114      -2.07636381
7
Lattice="529.1772105638412 0.0 0.0 0.0 529.1772105638412 0.0 0.0 0.0 529.1772105638412" Properties=species:S:1:pos:R:3:forces_component_raw:R:3 ipi_comment="Step:       12740  Bead:       0 forces_component_raw{ase}  cell{ase}" pbc="T T T"
O        0.00000000       0.00000000       0.00000000       1.78989697      -0.51192182      -0.12192225
H        0.00000000       0.00000000       0.00000000       0.35130870      -0.34428403       0.07239604
H        0.00000000       0.00000000       0.00000000      -0.29352295       0.10265458       0.16956759
O        0.00000000       0.00000000       0.00000000      -0.59652496      -0.58148790       2.00835801
H        0.00000000       0.00000000       0.00000000      -1.73681105       0.39854178      -0.09007603
H        0.00000000       0.00000000       0.00000000       0.21962562      -0.34804154      -0.35885677
H        0.00000000       0.00000000       0.00000000       0.26602763       1.28453887      -1.67946661
7
Lattice="529.1772105638412 0.0 0.0 0.0 529.1772105638412 0.0 0.0 0.0 529.1772105638412" Properties=species:S:1:pos:R:3:forces_component_raw:R:3 ipi_comment="Step:       12760  Bead:       0 forces_component_raw{ase}  cell{ase}" pbc="T T T"
O        0.00000000       0.00000000       0.00000000      -0.20812401      -0.63553447       0.50765646
H        0.00000000       0.00000000       0.00000000       0.02888101       0.22046387      -0.12146509
H        0.00000000       0.00000000       0.00000000      -0.25201961       0.46432489      -0.42471087
O        0.00000000       0.00000000       0.00000000      -1.62059331       0.44593102       1.54229939
H        0.00000000       0.00000000       0.00000000       1.25079418      -0.44403201       0.32005429
H        0.00000000       0.00000000       0.00000000       0.38004625      -0.74961519      -0.93022406
H        0.00000000       0.00000000       0.00000000       0.42101556       0.69846207      -0.89360994
7
Lattice="529.1772105638412 0.0 0.0 0.0 529.1772105638412 0.0 0.0 0.0 529.1772105638412" Properties=species:S:1:pos:R:3:forces_component_raw:R:3 ipi_comment="Step:       12780  Bead:       0 forces_component_raw{ase}  cell{ase}" pbc="T T T"
O        0.00000000       0.00000000       0.00000000      -1.65855885       0.17870007      -0.17783248
H        0.00000000       0.00000000       0.00000000       0.71015465      -0.14582500       0.38189197
H        0.00000000       0.00000000       0.00000000       0.13415557       0.81279850      -0.32863659
O        0.00000000       0.00000000       0.00000000       1.35987497      -0.94811946       0.86588729
H        0.00000000       0.00000000       0.00000000      -0.26294053       0.19856671       0.02326533
H        0.00000000       0.00000000       0.00000000      -0.01449847      -0.05032855      -1.21197486
H        0.00000000       0.00000000       0.00000000      -0.26818734      -0.04579258       0.44739914
7
Lattice="529.1772105638412 0.0 0.0 0.0 529.1772105638412 0.0 0.0 0.0 529.1772105638412" Properties=species:S:1:pos:R:3:forces_component_raw:R:3 ipi_comment="Step:       12800  Bead:       0 forces_component_raw{ase}  cell{ase}" pbc="T T T"
O        0.00000000       0.00000000       0.00000000      -0.07624707       0.33161053       0.81446731
H        0.00000000       0.00000000       0.00000000       0.39009231       0.37804169      -0.34843966
H        0.00000000       0.00000000       0.00000000      -0.61590105      -0.08011544      -0.47047252
O        0.00000000       0.00000000       0.00000000      -0.35012591       2.47847033       0.90631354
H        0.00000000       0.00000000       0.00000000       0.53891438      -0.75297260      -0.20933154
H        0.00000000       0.00000000       0.00000000       0.00570300      -1.05413091      -1.07973933
H        0.00000000       0.00000000       0.00000000       0.10756445      -1.30090356       0.38720232
7
Lattice="529.1772105638412 0.0 0.0 0.0 529.1772105638412 0.0 0.0 0.0 529.1772105638412" Properties=species:S:1:pos:R:3:forces_component_raw:R:3 ipi_comment="Step:       12820  Bead:       0 forces_component_raw{ase}  cell{ase}" pbc="T T T"
O        0.00000000       0.00000000       0.00000000      -0.91277033       0.43953225      -0.72509802
H        0.00000000       0.00000000       0.00000000       0.07801521       0.00580394       0.17482457
H        0.00000000       0.00000000       0.00000000       0.25544033      -0.64154619       0.36214286
O        0.00000000       0.00000000       0.00000000       0.09369043       0.49021340      -0.42298073
H        0.00000000       0.00000000       0.00000000       0.26710230       0.75988031       0.44417560
H        0.00000000       0.00000000       0.00000000       0.53805137      -0.27238083      -1.91028583
H        0.00000000       0.00000000       0.00000000      -0.31952947      -0.78150296       2.07722140
7
Lattice="529.1772105638412 0.0 0.0 0.0 529.1772105638412 0.0 0.0 0.0 529.1772105638412" Properties=species:S:1:pos:R:3:forces_component_raw:R:3 ipi_comment="Step:       12840  Bead:       0 forces_component_raw{ase}  cell{ase}" pbc="T T T"
O        0.00000000       0.00000000       0.00000000       0.94037867      -0.46904287      -0.07448471
H        0.00000000       0.00000000       0.00000000       0.40526044      -0.03851409       0.09832625
H        0.00000000       0.00000000       0.00000000      -0.08368032      -0.04676968       0.10705549
O        0.00000000       0.00000000       0.00000000      -1.95502174       3.50385595      -1.50606311
H        0.00000000       0.00000000       0.00000000      -0.42619258      -0.23111814      -0.19020605
H        0.00000000       0.00000000       0.00000000       0.46590817      -0.82222736       0.06642002
H        0.00000000       0.00000000       0.00000000       0.65334743      -1.89618397       1.49895192
7
Lattice="529.1772105638412 0.0 0.0 0.0 529.1772105638412 0.0 0.0 0.0 529.1772105638412" Properties=species:S:1:pos:R:3:forces_component_raw:R:3 ipi_comment="Step:       12860  Bead:       0 forces_component_raw{ase}  cell{ase}" pbc="T T T"
O        0.00000000       0.00000000       0.00000000       0.63869155      -1.25761009       0.14783484
H        0.00000000       0.00000000       0.00000000       0.72382456       0.31271273       0.02758541
H        0.00000000       0.00000000       0.00000000      -0.06566593      -0.18421114       0.03031546
O        0.00000000       0.00000000       0.00000000      -0.86485058       0.68460775      -2.03891445
H        0.00000000       0.00000000       0.00000000       0.35477629      -0.18216920       0.09135917
H        0.00000000       0.00000000       0.00000000      -0.26775557       0.61598194      -0.41136599
H        0.00000000       0.00000000       0.00000000      -0.51902044       0.01068783       2.15318537
7
Lattice="529.1772105638412 0.0 0.0 0.0 529.1772105638412 0.0 0.0 0.0 529.1772105638412" Properties=species:S:1:pos:R:3:forces_component_raw:R:3 ipi_comment="Step:       12880  Bead:       0 forces_component_raw{ase}  cell{ase}" pbc="T T T"
O        0.00000000       0.00000000       0.00000000       0.06457597      -0.29391930       0.06026590
H        0.00000000       0.00000000       0.00000000      -0.29875529       0.18884884       0.03503642
H        0.00000000       0.00000000       0.00000000       0.26893854      -0.16821110       0.03002152
O        0.00000000       0.00000000       0.00000000      -0.32565004       0.48269928      -2.44545317
H        0.00000000       0.00000000       0.00000000       0.04152256       0.15106094       0.12421502
H        0.00000000       0.00000000       0.00000000      -0.08404015       0.55881822       1.42790807
H        0.00000000       0.00000000       0.00000000       0.33340833      -0.91929674       0.76800603
7
Lattice="529.1772105638412 0.0 0.0 0.0 529.1772105638412 0.0 0.0 0.0 529.1772105638412" Properties=species:S:1:pos:R:3:forces_component_raw:R:3 ipi_comment="Step:       12900  Bead:       0 forces_component_raw{ase}  cell{ase}" pbc="T T T"
O        0.00000000       0.00000000       0.00000000      -0.16350621       0.19554001       0.04894182
H        0.00000000       0.00000000       0.00000000      -0.66609132      -0.06641619       0.13576382
H        0.00000000       0.00000000       0.00000000       0.18033658       0.50386769      -0.00947183
O        0.00000000       0.00000000       0.00000000       1.93083370      -2.30007720       0.61071348
H        0.00000000       0.00000000       0.00000000      -0.53553212      -0.29658341      -0.42168620
H        0.00000000       0.00000000       0.00000000      -0.34773153       1.27147794       0.14215845
H        0.00000000       0.00000000       0.00000000      -0.39830902       0.69219124      -0.50641942
7
Lattice="529.1772105638412 0.0 0.0 0.0 529.1772105638412 0.0 0.0 0.0 529.1772105638412" Properties=species:S:1:pos:R:3:forces_component_raw:R:3 ipi_comment="Step:       12920  Bead:       0 forces_component_raw{ase}  cell{ase}" pbc="T T T"
O        0.00000000       0.00000000       0.00000000       0.49018931      -0.14514303      -0.21373043
H        0.00000000       0.00000000       0.00000000      -0.87345767      -0.25334725       0.27603024
H        0.00000000       0.00000000       0.00000000      -0.15238868       0.61353439      -0.04530082
O        0.00000000       0.00000000       0.00000000      -0.53763664       0.10931039       0.70352221
H        0.00000000       0.00000000       0.00000000       0.99336416      -0.25388780      -0.10722627
H        0.00000000       0.00000000       0.00000000       0.19941592       0.24007070       0.98971713
H        0.00000000       0.00000000       0.00000000      -0.11948675      -0.31053722      -1.60301233
7
Lattice="529.1772105638412 0.0 0.0 0.0 529.1772105638412 0.0 0.0 0.0 529.1772105638412" Properties=species:S:1:pos:R:3:forces_component_raw:R:3 ipi_comment="Step:       12940  Bead:       0 forces_component_raw{ase}  cell{ase}" pbc="T T T"
O        0.00000000       0.00000000       0.00000000      -0.77518475       0.14378458      -0.06373358
H        0.00000000       0.00000000       0.00000000       0.30405873      -0.42998815       0.04820436
H        0.00000000       0.00000000       0.00000000      -0.28122759       1.03322482      -0.34441742
O        0.00000000       0.00000000       0.00000000       1.75764478      -2.53537036       1.72727538
H        0.00000000       0.00000000       0.00000000      -0.32003397      -0.13430919       0.17270374
H        0.00000000       0.00000000       0.00000000      -0.24450457       0.98307222       0.25192007
H        0.00000000       0.00000000       0.00000000      -0.44075263       0.93958587      -1.79195261
7
Lattice="529.1772105638412 0.0 0.0 0.0 529.1772105638412 0.0 0.0 0.0 529.1772105638412" Properties=species:S:1:pos:R:3:forces_component_raw:R:3 ipi_comment="Step:       12960  Bead:       0 forces_component_raw{ase}  cell{ase}" pbc="T T T"
O        0.00000000       0.00000000       0.00000000      -0.37689507      -1.35921121       0.16982913
H        0.00000000       0.00000000       0.00000000       0.46786070       0.62510038      -0.40826726
H        0.00000000       0.00000000       0.00000000      -0.51953054       0.61911714       0.15380257
O        0.00000000       0.00000000       0.00000000       0.40389955      -0.81755960       1.45817697
H        0.00000000       0.00000000       0.00000000       0.38088876       0.59145922       0.02078056
H        0.00000000       0.00000000       0.00000000       0.20430630       0.11359251       0.91660089
H        0.00000000       0.00000000       0.00000000      -0.56052971       0.22750151      -2.31092287
7
Lattice="529.1772105638412 0.0 0.0 0.0 529.1772105638412 0.0 0.0 0.0 529.1772105638412" Properties=species:S:1:pos:R:3:forces_component_raw:R:3 ipi_comment="Step:       12980  Bead:       0 forces_component_raw{ase}  cell{ase}" pbc="T T T"
O        0.00000000       0.00000000       0.00000000      -0.29085881      -0.47538984       0.42260265
H        0.00000000       0.00000000       0.00000000       0.88786137      -0.10632381      -0.35777605
H        0.00000000       0.00000000       0.00000000       0.33180443       0.24618459       0.04902101
O        0.00000000       0.00000000       0.00000000      -0.04130758      -0.25937688       0.64164090
H        0.00000000       0.00000000       0.00000000      -0.09541875      -0.48152590      -0.26094174
H        0.00000000       0.00000000       0.00000000      -0.55206353       0.59046644      -0.09882814
H        0.00000000       0.00000000       0.00000000      -0.24001712       0.48596537      -0.39571798
7
Lattice="529.1772105638412 0.0 0.0 0.0 529.1772105638412 0.0 0.0 0.0 529.1772105638412" Properties=species:S:1:pos:R:3:forces_component_raw:R:3 ipi_comment="Step:       13000  Bead:       0 forces_component_raw{ase}  cell{ase}" pbc="T T T"
O        0.00000000       0.00000000       0.00000000      -0.08739689      -0.86579752      -0.22378242
H        0.00000000       0.00000000       0.00000000       0.27130091       0.54208934      -0.08201224
H        0.00000000       0.00000000       0.00000000       0.07544845      -0.16030133       0.38578540
O        0.00000000       0.00000000       0.00000000      -0.88682521       0.29691088      -2.15438700
H        0.00000000       0.00000000       0.00000000       0.14219517       0.13034233       0.31719428
H        0.00000000       0.00000000       0.00000000      -0.00051224       0.38637698       0.80995637
H        0.00000000       0.00000000       0.00000000       0.48578990      -0.32962066       0.94724536
7
Lattice="529.1772105638412 0.0 0.0 0.0 529.1772105638412 0.0 0.0 0.0 529.1772105638412" Properties=species:S:1:pos:R:3:forces_component_raw:R:3 ipi_comment="Step:       13020  Bead:       0 forces_component_raw{ase}  cell{ase}" pbc="T T T"
O        0.00000000       0.00000000       0.00000000       0.60961807       0.95744592       0.29213262
H        0.00000000       0.00000000       0.00000000      -0.45150626      -0.03525056      -0.01748723
H        0.00000000       0.00000000       0.00000000       0.00282604      -0.69001573      -0.02634920
O        0.00000000       0.00000000       0.00000000       0.85235912      -0.42332161      -1.69286442
H        0.00000000       0.00000000       0.00000000      -0.50875890      -0.48891503      -0.35478431
H        0.00000000       0.00000000       0.00000000      -0.49023599       0.50296807       0.09302810
H        0.00000000       0.00000000       0.00000000      -0.01430225       0.17708892       1.70632434
7
Lattice="529.1772105638412 0.0 0.0 0.0 529.1772105638412 0.0 0.0 0.0 529.1772105638412" Properties=species:S:1:pos:R:3:forces_component_raw:R:3 ipi_comment="Step:       13040  Bead:       0 forces_component_raw{ase}  cell{ase}" pbc="T T T"
O        0.00000000       0.00000000       0.00000000       0.76221001       1.34649444      -0.38187456
H        0.00000000       0.00000000       0.00000000      -1.51276160      -0.20343202       0.02682845
H        0.00000000       0.00000000       0.00000000       0.02528748      -0.68386895       0.27760920
O        0.00000000       0.00000000       0.00000000      -0.24037513      -0.04593956      -1.61751628
H        0.00000000       0.00000000       0.00000000       0.06532757      -0.22669397      -0.12757070
H        0.00000000       0.00000000       0.00000000       0.20308900       0.04557920       0.56615096
H        0.00000000       0.00000000       0.00000000       0.69722277      -0.23213913       1.25637293
7
Lattice="529.1772105638412 0.0 0.0 0.0 529.1772105638412 0.0 0.0 0.0 529.1772105638412" Properties=species:S:1:pos:R:3:forces_component_raw:R:3 ipi_comment="Step:       13060  Bead:       0 forces_component_raw{ase}  cell{ase}" pbc="T T T"
O        0.00000000       0.00000000       0.00000000       0.86922962       0.93544150      -0.25438350
H        0.00000000       0.00000000       0.00000000      -1.27012551      -0.70524407      -0.07733145
H        0.00000000       0.00000000       0.00000000      -0.18400478      -0.01739120       0.00918710
O        0.00000000       0.00000000       0.00000000       0.91708833      -0.63471967       0.67333639
H        0.00000000       0.00000000       0.00000000       0.04304600       0.40185315       0.23236489
H        0.00000000       0.00000000       0.00000000       0.03384149      -0.24788970      -0.56900776
H        0.00000000       0.00000000       0.00000000      -0.40907535       0.26795000      -0.01416564
7
Lattice="529.1772105638412 0.0 0.0 0.0 529.1772105638412 0.0 0.0 0.0 529.1772105638412" Properties=species:S:1:pos:R:3:forces_component_raw:R:3 ipi_comment="Step:       13080  Bead:       0 forces_component_raw{ase}  cell{ase}" pbc="T T T"
O        0.00000000       0.00000000       0.00000000       0.69960064       0.13232231       0.65651798
H        0.00000000       0.00000000       0.00000000      -0.03110790      -0.59031314       0.02339810
H        0.00000000       0.00000000       0.00000000      -0.45603562       0.68305683      -0.76866818
O        0.00000000       0.00000000       0.00000000      -0.11284721       0.99823535       1.34491837
H        0.00000000       0.00000000       0.00000000       0.09277579      -0.49547586      -0.06327397
H        0.00000000       0.00000000       0.00000000       0.16516805      -0.27312562      -0.18948978
H        0.00000000       0.00000000       0.00000000      -0.35755384      -0.45469961      -1.00340247
7
Lattice="529.1772105638412 0.0 0.0 0.0 529.1772105638412 0.0 0.0 0.0 529.1772105638412" Properties=species:S:1:pos:R:3:forces_component_raw:R:3 ipi_comment="Step:       13100  Bead:       0 forces_component_raw{ase}  cell{ase}" pbc="T T T"
O        0.00000000       0.00000000       0.00000000      -0.56309092      -2.22681022       1.81353808
H        0.00000000       0.00000000       0.00000000       0.69960606       0.66476333       0.18410736
H        0.00000000       0.00000000       0.00000000       0.57875812       0.61869264      -1.34804583
O        0.00000000       0.00000000       0.00000000      -0.37033677       1.24284148       1.24259830
H        0.00000000       0.00000000       0.00000000       0.10624640       0.85915131      -0.17839098
H        0.00000000       0.00000000       0.00000000       0.51492572      -0.68484509      -0.38272166
H        0.00000000       0.00000000       0.00000000      -0.96610880      -0.47379339      -1.33108521
7
Lattice="529.1772105638412 0.0 0.0 0.0 529.1772105638412 0.0 0.0 0.0 529.1772105638412" Properties=species:S:1:pos:R:3:forces_component_raw:R:3 ipi_comment="Step:       13120  Bead:       0 forces_component_raw{ase}  cell{ase}" pbc="T T T"
O        0.00000000       0.00000000       0.00000000      -0.83581138      -0.24980092       1.90903783
H        0.00000000       0.00000000       0.00000000       0.69702727       0.10922933      -0.01486039
H        0.00000000       0.00000000       0.00000000       0.57571811       0.07701612      -1.44446433
O        0.00000000       0.00000000       0.00000000      -0.68075287       0.93124378       0.15783858
H        0.00000000       0.00000000       0.00000000       0.11064540      -0.34490535      -0.11074340
H        0.00000000       0.00000000       0.00000000       0.26833719      -0.52533329      -0.46320379
H        0.00000000       0.00000000       0.00000000      -0.13516367       0.00255042      -0.03360456
7
Lattice="529.1772105638412 0.0 0.0 0.0 529.1772105638412 0.0 0.0 0.0 529.1772105638412" Properties=species:S:1:pos:R:3:forces_component_raw:R:3 ipi_comment="Step:       13140  Bead:       0 forces_component_raw{ase}  cell{ase}" pbc="T T T"
O        0.00000000       0.00000000       0.00000000      -0.57726717      -0.43884152       1.45947767
H        0.00000000       0.00000000       0.00000000       0.05325460       0.20765081      -0.12933153
H        0.00000000       0.00000000       0.00000000       0.42190924       0.25976715      -1.23523307
O        0.00000000       0.00000000       0.00000000      -0.48172867      -0.27708912      -0.30466187
H        0.00000000       0.00000000       0.00000000      -0.15948606      -0.10900538      -0.22090560
H        0.00000000       0.00000000       0.00000000       0.12096733       0.10361910       0.06412494
H        0.00000000       0.00000000       0.00000000       0.62235087       0.25389910       0.36652914
7
Lattice="529.1772105638412 0.0 0.0 0.0 529.1772105638412 0.0 0.0 0.0 529.1772105638412" Properties=species:S:1:pos:R:3:forces_component_raw:R:3 ipi_comment="Step:       13160  Bead:       0 forces_component_raw{ase}  cell{ase}" pbc="T T T"
O        0.00000000       0.00000000       0.00000000       0.28425610       0.13075395      -0.64727914
H        0.00000000       0.00000000       0.00000000      -0.93523318       0.23483980       0.18852377
H        0.00000000       0.00000000       0.00000000       0.07384774      -0.03606930       0.06785715
O        0.00000000       0.00000000       0.00000000       0.96608818      -1.92018152      -0.60126293
H        0.00000000       0.00000000       0.00000000      -0.13891223       0.33983883       0.07143042
H        0.00000000       0.00000000       0.00000000      -0.57259923       0.46563238       0.49135351
H        0.00000000       0.00000000       0.00000000       0.32255256       0.78518611       0.42937750
7
Lattice="529.1772105638412 0.0 0.0 0.0 529.1772105638412 0.0 0.0 0.0 529.1772105638412" Properties=species:S:1:pos:R:3:forces_component_raw:R:3 ipi_comment="Step:       13180  Bead:       0 forces_component_raw{ase}  cell{ase}" pbc="T T T"
O        0.00000000       0.00000000       0.00000000       0.46378234       0.30673564      -1.79646874
H        0.00000000       0.00000000       0.00000000      -0.62653852       0.40394124       0.52331764
H        0.00000000       0.00000000       0.00000000      -0.07663479      -0.49070013       1.12208188
O        0.00000000       0.00000000       0.00000000      -0.17779970      -1.09032560      -1.20644033
H        0.00000000       0.00000000       0.00000000       0.78112883      -0.83626062       0.22366455
H        0.00000000       0.00000000       0.00000000      -1.00102055       1.38356877       0.81224311
H        0.00000000       0.00000000       0.00000000       0.63708240       0.32304078       0.32160169
7
Lattice="529.1772105638412 0.0 0.0 0.0 529.1772105638412 0.0 0.0 0.0 529.1772105638412" Properties=species:S:1:pos:R:3:forces_component_raw:R:3 ipi_comment="Step:       13200  Bead:       0 forces_component_raw{ase}  cell{ase}" pbc="T T T"
O        0.00000000       0.00000000       0.00000000      -0.10354155       0.87111938      -2.65926386
H        0.00000000       0.00000000       0.00000000       0.32121915      -0.01635969       0.42370519
H        0.00000000       0.00000000       0.00000000      -0.35281184      -0.69623500       1.42997313
O        0.00000000       0.00000000       0.00000000       1.18008936      -2.51875616      -0.37537628
H        0.00000000       0.00000000       0.00000000      -0.29889947       0.33258146       0.30789736
H        0.00000000       0.00000000       0.00000000      -0.93356699       1.64001119       0.71700925
H        0.00000000       0.00000000       0.00000000       0.18751156       0.38763893       0.15605530
7
Lattice="529.1772105638412 0.0 0.0 0.0 529.1772105638412 0.0 0.0 0.0 529.1772105638412" Properties=species:S:1:pos:R:3:forces_component_raw:R:3 ipi_comment="Step:       13220  Bead:       0 forces_component_raw{ase}  cell{ase}" pbc="T T T"
O        0.00000000       0.00000000       0.00000000      -0.37647450       0.62487316       0.72438777
H        0.00000000       0.00000000       0.00000000       0.29507375      -0.48285920      -0.46234542
H        0.00000000       0.00000000       0.00000000       0.06514692      -0.13480032       0.26904416
O        0.00000000       0.00000000       0.00000000      -0.17657125      -0.55218226       0.06231487
H        0.00000000       0.00000000       0.00000000       0.20791167      -0.07370943      -0.75983203
H        0.00000000       0.00000000       0.00000000      -0.04306304       0.81006199       0.20615286
H        0.00000000       0.00000000       0.00000000       0.02797633      -0.19138372      -0.03972243
7
Lattice="529.1772105638412 0.0 0.0 0.0 529.1772105638412 0.0 0.0 0.0 529.1772105638412" Properties=species:S:1:pos:R:3:forces_component_raw:R:3 ipi_comment="Step:       13240  Bead:       0 forces_component_raw{ase}  cell{ase}" pbc="T T T"
O        0.00000000       0.00000000       0.00000000      -0.16998696       0.71826530       0.95506215
H        0.00000000       0.00000000       0.00000000       0.82296145      -1.13706780      -0.49540559
H        0.00000000       0.00000000       0.00000000       0.04512984       0.18723202      -0.41407341
O        0.00000000       0.00000000       0.00000000      -0.10773885       1.53303779      -0.51421976
H        0.00000000       0.00000000       0.00000000      -0.24823114      -0.14554720       0.61825162
H        0.00000000       0.00000000       0.00000000       0.28210801      -0.83922291       0.05400802
H        0.00000000       0.00000000       0.00000000      -0.62424195      -0.31669712      -0.20362315
7
Lattice="529.1772105638412 0.0 0.0 0.0 529.1772105638412 0.0 0.0 0.0 529.1772105638412" Properties=species:S:1:pos:R:3:forces_component_raw:R:3 ipi_comment="Step:       13260  Bead:       0 forces_component_raw{ase}  cell{ase}" pbc="T T T"
O        0.00000000       0.00000000       0.00000000      -0.46554828       0.57930225       1.24403262
H        0.00000000       0.00000000       0.00000000       0.60279817      -0.65671021      -0.36261982
H        0.00000000       0.00000000       0.00000000       0.30433476      -0.03359887      -0.34537995
O        0.00000000       0.00000000       0.00000000       0.41476107       1.34552455      -0.37703526
H        0.00000000       0.00000000       0.00000000      -0.02079424      -0.28152949       0.04883259
H        0.00000000       0.00000000       0.00000000      -0.07333964      -0.73508144      -0.09234244
H        0.00000000       0.00000000       0.00000000      -0.76221168      -0.21790665      -0.11548784
7
Lattice="529.1772105638412 0.0 0.0 0.0 529.1772105638412 0.0 0.0 0.0 529.1772105638412" Properties=species:S:1:pos:R:3:forces_component_raw:R:3 ipi_comment="Step:       13280  Bead:       0 forces_component_raw{ase}  cell{ase}" pbc="T T T"
O        0.00000000       0.00000000       0.00000000      -1.07576001       0.65066588       0.80110336
H        0.00000000       0.00000000       0.00000000       0.48695964      -0.45312852      -0.36112055
H        0.00000000       0.00000000       0.00000000       0.31685406      -0.15935244      -0.35086954
O        0.00000000       0.00000000       0.00000000       0.27889395       0.43826774       0.23800361
H        0.00000000       0.00000000       0.00000000       0.03719968       0.42440549      -0.15493009
H        0.00000000       0.00000000       0.00000000       0.34692103      -0.52921188      -0.07877845
H        0.00000000       0.00000000       0.00000000      -0.39106828      -0.37164605      -0.09340855
7
Lattice="529.1772105638412 0.0 0.0 0.0 529.1772105638412 0.0 0.0 0.0 529.1772105638412" Properties=species:S:1:pos:R:3:forces_component_raw:R:3 ipi_comment="Step:       13300  Bead:       0 forces_component_raw{ase}  cell{ase}" pbc="T T T"
O        0.00000000       0.00000000       0.00000000      -0.91260112       0.53946543      -0.03897423
H        0.00000000       0.00000000       0.00000000       0.42399836      -0.23381499       0.02937259
H        0.00000000       0.00000000       0.00000000       0.27960363      -0.23881435      -0.36222518
O        0.00000000       0.00000000       0.00000000       0.04406989       0.15481204       0.20804024
H        0.00000000       0.00000000       0.00000000      -0.25071159      -0.25458866       0.41834694
H        0.00000000       0.00000000       0.00000000      -0.33029795      -0.08078724      -0.29811925
H        0.00000000       0.00000000       0.00000000       0.74593884       0.11372781       0.04355884
7
Lattice="529.1772105638412 0.0 0.0 0.0 529.1772105638412 0.0 0.0 0.0 529.1772105638412" Properties=species:S:1:pos:R:3:forces_component_raw:R:3 ipi_comment="Step:       13320  Bead:       0 forces_component_raw{ase}  cell{ase}" pbc="T T T"
O        0.00000000       0.00000000       0.00000000       0.81898666      -0.50652731      -0.22898799
H        0.00000000       0.00000000       0.00000000      -0.76182813       0.22314557      -0.21402441
H        0.00000000       0.00000000       0.00000000      -0.41035086       0.19793192       0.14627534
O        0.00000000       0.00000000       0.00000000      -1.11234272      -1.40439439       0.86885858
H        0.00000000       0.00000000       0.00000000       0.32084924       0.65433836      -0.16009234
H        0.00000000       0.00000000       0.00000000       0.01165420       0.33231521       0.01908076
H        0.00000000       0.00000000       0.00000000       1.13303173       0.50319070      -0.43110973
7
Lattice="529.1772105638412 0.0 0.0 0.0 529.1772105638412 0.0 0.0 0.0 529.1772105638412" Properties=species:S:1:pos:R:3:forces_component_raw:R:3 ipi_comment="Step:       13340  Bead:       0 forces_component_raw{ase}  cell{ase}" pbc="T T T"
O        0.00000000       0.00000000       0.00000000      -0.03181314      -0.23965609      -2.19500876
H        0.00000000       0.00000000       0.00000000      -0.57985228       0.27982479       1.06684065
H        0.00000000       0.00000000       0.00000000       0.42324305       0.33681840       0.61246151
O        0.00000000       0.00000000       0.00000000      -0.70289022       0.28545284       0.45834547
H        0.00000000       0.00000000       0.00000000      -0.33848894      -0.67029226       0.05951843
H        0.00000000       0.00000000       0.00000000       0.02090701      -0.23829985      -0.08251428
H        0.00000000       0.00000000       0.00000000       1.20889473       0.24615240       0.08035699
7
Lattice="529.1772105638412 0.0 0.0 0.0 529.1772105638412 0.0 0.0 0.0 529.1772105638412" Properties=species:S:1:pos:R:3:forces_component_raw:R:3 ipi_comment="Step:       13360  Bead:       0 forces_component_raw{ase}  cell{ase}" pbc="T T T"
O        0.00000000       0.00000000       0.00000000       1.15821076      -0.54577017      -0.87960118
H        0.00000000       0.00000000       0.00000000      -1.14050126       0.13257436       0.73540676
H        0.00000000       0.00000000       0.00000000       0.06344187       0.36157495       0.67461383
O        0.00000000       0.00000000       0.00000000      -0.30784285       0.48076779      -0.18724585
H        0.00000000       0.00000000       0.00000000       0.32642883       0.12893605      -0.71683616
H        0.00000000       0.00000000       0.00000000       0.27742320      -0.36983979       0.50023151
H        0.00000000       0.00000000       0.00000000      -0.37716061      -0.18824372      -0.12656894
7
Lattice="529.1772105638412 0.0 0.0 0.0 529.1772105638412 0.0 0.0 0.0 529.1772105638412" Properties=species:S:1:pos:R:3:forces_component_raw:R:3 ipi_comment="Step:       13380  Bead:       0 forces_component_raw{ase}  cell{ase}" pbc="T T T"
O        0.00000000       0.00000000       0.00000000       0.96294511       0.63596320      -1.12970710
H        0.00000000       0.00000000       0.00000000      -0.44495672      -0.15712759       1.16963065
H        0.00000000       0.00000000       0.00000000      -0.01703298      -0.30988193      -0.11854243
O        0.00000000       0.00000000       0.00000000       1.28054738       1.90421164      -0.23359805
H        0.00000000       0.00000000       0.00000000       0.02887699      -0.45063946       0.51978874
H        0.00000000       0.00000000       0.00000000      -0.16755404      -0.33434588       0.18785298
H        0.00000000       0.00000000       0.00000000      -1.64282573      -1.28817988      -0.39542466
7
Lattice="529.1772105638412 0.0 0.0 0.0 529.1772105638412 0.0 0.0 0.0 529.1772105638412" Properties=species:S:1:pos:R:3:forces_component_raw:R:3 ipi_comment="Step:       13400  Bead:       0 forces_component_raw{ase}  cell{ase}" pbc="T T T"
O        0.00000000       0.00000000       0.00000000       0.90685672       0.13414037       1.23298550
H        0.00000000       0.00000000       0.00000000      -0.18215120      -0.17528635      -0.28326529
H        0.00000000       0.00000000       0.00000000      -0.42435455      -0.26632261      -0.22439370
O        0.00000000       0.00000000       0.00000000       0.87976635       1.40913773       0.19410437
H        0.00000000       0.00000000       0.00000000       0.17682588       0.42828891      -0.68704581
H        0.00000000       0.00000000       0.00000000       0.34123886       0.14674085       0.25888866
H        0.00000000       0.00000000       0.00000000      -1.69818187      -1.67669917      -0.49127385
7
Lattice="529.1772105638412 0.0 0.0 0.0 529.1772105638412 0.0 0.0 0.0 529.1772105638412" Properties=species:S:1:pos:R:3:forces_component_raw:R:3 ipi_comment="Step:       13420  Bead:       0 forces_component_raw{ase}  cell{ase}" pbc="T T T"
O        0.00000000       0.00000000       0.00000000      -1.73794461       0.90199197      -0.05288656
H        0.00000000       0.00000000       0.00000000       1.22618115      -0.29037914       0.00737089
H        0.00000000       0.00000000       0.00000000       0.30891073      -0.64547467      -0.49840897
O        0.00000000       0.00000000       0.00000000       1.82554830       1.04818249       1.16454757
H        0.00000000       0.00000000       0.00000000      -0.41690344      -0.03295845       0.52958667
H        0.00000000       0.00000000       0.00000000      -0.27908513       0.14184573      -0.46140105
H        0.00000000       0.00000000       0.00000000      -0.92670703      -1.12320805      -0.68880856
7
Lattice="529.1772105638412 0.0 0.0 0.0 529.1772105638412 0.0 0.0 0.0 529.1772105638412" Properties=species:S:1:pos:R:3:forces_component_raw:R:3 ipi_comment="Step:       13440  Bead:       0 forces_component_raw{ase}  cell{ase}" pbc="T T T"
O        0.00000000       0.00000000       0.00000000      -1.46343279       2.11807347       0.63451094
H        0.00000000       0.00000000       0.00000000       1.09216261      -1.29399205      -0.45695412
H        0.00000000       0.00000000       0.00000000      -0.36661622      -0.49617821      -0.45528591
O        0.00000000       0.00000000       0.00000000       0.49213290      -0.59663606       0.81742203
H        0.00000000       0.00000000       0.00000000      -0.07044613      -0.20481578      -0.37853015
H        0.00000000       0.00000000       0.00000000       0.37862009       0.81644291      -0.53460020
H        0.00000000       0.00000000       0.00000000      -0.06242059      -0.34289408       0.37343717
7
Lattice="529.1772105638412 0.0 0.0 0.0 529.1772105638412 0.0 0.0 0.0 529.1772105638412" Properties=species:S:1:pos:R:3:forces_component_raw:R:3 ipi_comment="Step:       13460  Bead:       0 forces_component_raw{ase}  cell{ase}" pbc="T T T"
O        0.00000000       0.00000000       0.00000000      -1.43869782       1.08089328      -0.52750862
H        0.00000000       0.00000000       0.00000000       0.70180065      -0.40986800       0.32773829
H        0.00000000       0.00000000       0.00000000       0.14595318      -0.69827771      -0.17865151
O        0.00000000       0.00000000       0.00000000      -0.08784080      -2.49401880       1.87879980
H        0.00000000       0.00000000       0.00000000       0.30445495       0.69790954      -0.19455689
H        0.00000000       0.00000000       0.00000000       0.21310461       0.26276821      -0.95406324
H        0.00000000       0.00000000       0.00000000       0.16122519       1.56059313      -0.35175824
7
Lattice="529.1772105638412 0.0 0.0 0.0 529.1772105638412 0.0 0.0 0.0 529.1772105638412" Properties=species:S:1:pos:R:3:forces_component_raw:R:3 ipi_comment="Step:       13480  Bead:       0 forces_component_raw{ase}  cell{ase}" pbc="T T T"
O        0.00000000       0.00000000       0.00000000       0.96825814      -1.04481292       0.42702335
H        0.00000000       0.00000000       0.00000000      -0.52825886       0.87661183      -0.30999094
H        0.00000000       0.00000000       0.00000000      -0.28424811       0.23833019      -0.24929315
O        0.00000000       0.00000000       0.00000000      -1.85156358      -1.21786106      -1.42093182
H        0.00000000       0.00000000       0.00000000       0.41804358      -0.63976801       0.78006792
H        0.00000000       0.00000000       0.00000000       0.19089109       0.47158915      -0.04856575
H        0.00000000       0.00000000       0.00000000       1.08687783       1.31591070       0.82169068
7
Lattice="529.1772105638412 0.0 0.0 0.0 529.1772105638412 0.0 0.0 0.0 529.1772105638412" Properties=species:S:1:pos:R:3:forces_component_raw:R:3 ipi_comment="Step:       13500  Bead:       0 forces_component_raw{ase}  cell{ase}" pbc="T T T"
O        0.00000000       0.00000000       0.00000000       1.18078506      -2.23199511       0.48929978
H        0.00000000       0.00000000       0.00000000      -0.01291725       1.81144476       0.01797611
H        0.00000000       0.00000000       0.00000000      -0.05575764       0.05741251       0.18244338
O        0.00000000       0.00000000       0.00000000      -0.55305541      -1.18818617       0.52194512
H        0.00000000       0.00000000       0.00000000      -0.68963361       0.53603166      -0.69909465
H        0.00000000       0.00000000       0.00000000       0.00329799      -0.33786342       0.30540073
H        0.00000000       0.00000000       0.00000000       0.12728098       1.35315526      -0.81797028
7
Lattice="529.1772105638412 0.0 0.0 0.0 529.1772105638412 0.0 0.0 0.0 529.1772105638412" Properties=species:S:1:pos:R:3:forces_component_raw:R:3 ipi_comment="Step:       13520  Bead:       0 forces_component_raw{ase}  cell{ase}" pbc="T T T"
O        0.00000000       0.00000000       0.00000000       0.78344840      -0.60602301       1.32373143
H        0.00000000       0.00000000       0.00000000      -0.32341096       1.03472567      -0.72050250
H        0.00000000       0.00000000       0.00000000      -0.11182700      -0.08099872      -0.34928942
O        0.00000000       0.00000000       0.00000000      -2.42548061      -0.45795584      -2.04284645
H        0.00000000       0.00000000       0.00000000       1.31463433      -0.37568638       0.46398541
H        0.00000000       0.00000000       0.00000000       0.42508739      -0.14363971       1.61690140
H        0.00000000       0.00000000       0.00000000       0.33754850       0.62957800      -0.29198012
7
Lattice="529.1772105638412 0.0 0.0 0.0 529.1772105638412 0.0 0.0 0.0 529.1772105638412" Properties=species:S:1:pos:R:3:forces_component_raw:R:3 ipi_comment="Step:       13540  Bead:       0 forces_component_raw{ase}  cell{ase}" pbc="T T T"
O        0.00000000       0.00000000       0.00000000       0.44700128      -0.83377880       0.10532856
H        0.00000000       0.00000000       0.00000000       0.09697330       0.61610770      -0.09019387
H        0.00000000       0.00000000       0.00000000      -0.32361776      -0.43081689      -0.39953113
O        0.00000000       0.00000000       0.00000000       1.33825350       0.17351329      -2.33982468
H        0.00000000       0.00000000       0.00000000      -0.83544219       0.83872628       0.56201804
H        0.00000000       0.00000000       0.00000000      -0.58399606      -0.25605989       2.44451404
H        0.00000000       0.00000000       0.00000000      -0.13917214      -0.10769165      -0.28231090
7
Lattice="529.1772105638412 0.0 0.0 0.0 529.1772105638412 0.0 0.0 0.0 529.1772105638412" Properties=species:S:1:pos:R:3:forces_component_raw:R:3 ipi_comment="Step:       13560  Bead:       0 forces_component_raw{ase}  cell{ase}" pbc="T T T"
O        0.00000000       0.00000000       0.00000000      -1.83287442      -0.44651729       0.32940948
H        0.00000000       0.00000000       0.00000000      -0.18139295       0.41411862      -0.57801080
H        0.00000000       0.00000000       0.00000000       0.63671225       0.27640981       0.21085376
O        0.00000000       0.00000000       0.00000000       1.23209310       0.16543269      -2.32285047
H        0.00000000       0.00000000       0.00000000       0.57963526      -0.26944804      -0.64592779
H        0.00000000       0.00000000       0.00000000       0.25908136       0.44813138       2.28178597
H        0.00000000       0.00000000       0.00000000      -0.69325459      -0.58812714       0.72473991
7
Lattice="529.1772105638412 0.0 0.0 0.0 529.1772105638412 0.0 0.0 0.0 529.1772105638412" Properties=species:S:1:pos:R:3:forces_component_raw:R:3 ipi_comment="Step:       13580  Bead:       0 forces_component_raw{ase}  cell{ase}" pbc="T T T"
O        0.00000000       0.00000000       0.00000000      -0.85465872      -0.84930051      -0.42697072
H        0.00000000       0.00000000       0.00000000      -0.19567226       0.02956742      -0.32635641
H        0.00000000       0.00000000       0.00000000      -0.10307202       0.27237719      -0.01227784
O        0.00000000       0.00000000       0.00000000       3.19644595       0.75422335      -0.83911050
H        0.00000000       0.00000000       0.00000000      -0.38321871       0.72295284       0.56665439
H        0.00000000       0.00000000       0.00000000      -0.91026002      -0.15694746       0.98104018
H        0.00000000       0.00000000       0.00000000      -0.74956429      -0.77287311       0.05702099
7
Lattice="529.1772105638412 0.0 0.0 0.0 529.1772105638412 0.0 0.0 0.0 529.1772105638412" Properties=species:S:1:pos:R:3:forces_component_raw:R:3 ipi_comment="Step:       13600  Bead:       0 forces_component_raw{ase}  cell{ase}" pbc="T T T"
O        0.00000000       0.00000000       0.00000000       0.13621654       0.04146030      -0.17905617
H        0.00000000       0.00000000       0.00000000      -0.26045829      -0.28973103       0.07660055
H        0.00000000       0.00000000       0.00000000       0.20265716       0.68550807       0.16018677
O        0.00000000       0.00000000       0.00000000      -0.17042369       0.20188952       0.33515656
H        0.00000000       0.00000000       0.00000000      -0.11953382      -0.62668061      -0.30099925
H        0.00000000       0.00000000       0.00000000       0.51249677       0.06571633      -0.76214230
H        0.00000000       0.00000000       0.00000000      -0.30095470      -0.07816231       0.67025399
7
Lattice="529.1772105638412 0.0 0.0 0.0 529.1772105638412 0.0 0.0 0.0 529.1772105638412" Properties=species:S:1:pos:R:3:forces_component_raw:R:3 ipi_comment="Step:       13620  Bead:       0 forces_component_raw{ase}  cell{ase}" pbc="T T T"
O        0.00000000       0.00000000       0.00000000      -0.53287524       0.38285542      -0.44990969
H        0.00000000       0.00000000       0.00000000       1.02237451      -0.84519458       0.86216557
H        0.00000000       0.00000000       0.00000000       0.31516987       0.28002220       0.20735635
O        0.00000000       0.00000000       0.00000000      -1.76325262       0.36177635       1.58416844
H        0.00000000       0.00000000       0.00000000       1.19150365       0.45746333       0.11161781
H        0.00000000       0.00000000       0.00000000       0.00764847      -0.54217619      -2.13853837
H        0.00000000       0.00000000       0.00000000      -0.24056882      -0.09474641      -0.17685998
7
Lattice="529.1772105638412 0.0 0.0 0.0 529.1772105638412 0.0 0.0 0.0 529.1772105638412" Properties=species:S:1:pos:R:3:forces_component_raw:R:3 ipi_comment="Step:       13640  Bead:       0 forces_component_raw{ase}  cell{ase}" pbc="T T T"
O        0.00000000       0.00000000       0.00000000       2.10186005       2.19620204       0.95135462
H        0.00000000       0.00000000       0.00000000       0.54321206      -1.67974639       0.63046658
H        0.00000000       0.00000000       0.00000000      -0.49229741      -0.03758585      -0.26635280
O        0.00000000       0.00000000       0.00000000       0.19988984       0.52006889       0.34077317
H        0.00000000       0.00000000       0.00000000      -1.65611136      -0.39472878      -0.44878450
H        0.00000000       0.00000000       0.00000000      -0.38373420      -0.48068926      -1.50081468
H        0.00000000       0.00000000       0.00000000      -0.31281877      -0.12352079       0.29335749
7
Lattice="529.1772105638412 0.0 0.0 0.0 529.1772105638412 0.0 0.0 0.0 529.1772105638412" Properties=species:S:1:pos:R:3:forces_component_raw:R:3 ipi_comment="Step:       13660  Bead:       0 forces_component_raw{ase}  cell{ase}" pbc="T T T"
O        0.00000000       0.00000000       0.00000000      -0.94091189       0.64633942      -0.55502212
H        0.00000000       0.00000000       0.00000000       0.66756356      -0.50089294       0.21588177
H        0.00000000       0.00000000       0.00000000      -0.11745912      -0.33814710       0.24495345
O        0.00000000       0.00000000       0.00000000      -0.22292543       0.35444903      -0.52326620
H        0.00000000       0.00000000       0.00000000       1.13452006       0.15123528      -0.23503572
H        0.00000000       0.00000000       0.00000000       0.56311345       0.03777081      -0.00062382
H        0.00000000       0.00000000       0.00000000      -1.08390045      -0.35075453       0.85311282
7
Lattice="529.1772105638412 0.0 0.0 0.0 529.1772105638412 0.0 0.0 0.0 529.1772105638412" Properties=species:S:1:pos:R:3:forces_component_raw:R:3 ipi_comment="Step:       13680  Bead:       0 forces_component_raw{ase}  cell{ase}" pbc="T T T"
O        0.00000000       0.00000000       0.00000000      -0.68145716      -0.69817442      -2.03247714
H        0.00000000       0.00000000       0.00000000      -0.19710439       0.09299040       0.30065498
H        0.00000000       0.00000000       0.00000000      -0.02942866       0.26675084       0.52375585
O        0.00000000       0.00000000       0.00000000       2.75969673       0.40321136      -1.46690762
H        0.00000000       0.00000000       0.00000000      -0.42541814       0.23943859       0.93710757
H        0.00000000       0.00000000       0.00000000      -0.25567868       0.39407289       0.68010295
H        0.00000000       0.00000000       0.00000000      -1.17061007      -0.69828987       1.05776322
7
Lattice="529.1772105638412 0.0 0.0 0.0 529.1772105638412 0.0 0.0 0.0 529.1772105638412" Properties=species:S:1:pos:R:3:forces_component_raw:R:3 ipi_comment="Step:       13700  Bead:       0 forces_component_raw{ase}  cell{ase}" pbc="T T T"
O        0.00000000       0.00000000       0.00000000       0.01264000       0.38397342      -0.03865838
H        0.00000000       0.00000000       0.00000000       0.14545143      -0.24715781       0.12435994
H        0.00000000       0.00000000       0.00000000      -0.40877473      -0.21424836       0.18529421
O        0.00000000       0.00000000       0.00000000       1.54895437      -0.83626759      -1.52705121
H        0.00000000       0.00000000       0.00000000      -0.34177381       0.00283355      -0.83210182
H        0.00000000       0.00000000       0.00000000      -0.10511383       1.19102979       1.48115731
H        0.00000000       0.00000000       0.00000000      -0.85138345      -0.28016311       0.60699964
7
Lattice="529.1772105638412 0.0 0.0 0.0 529.1772105638412 0.0 0.0 0.0 529.1772105638412" Properties=species:S:1:pos:R:3:forces_component_raw:R:3 ipi_comment="Step:       13720  Bead:       0 forces_component_raw{ase}  cell{ase}" pbc="T T T"
O        0.00000000       0.00000000       0.00000000      -1.22893429      -0.64556039       0.12351644
H        0.00000000       0.00000000       0.00000000      -0.31263626       0.42795408      -0.46460831
H        0.00000000       0.00000000       0.00000000       0.48782456       0.20169032      -0.13740152
O        0.00000000       0.00000000       0.00000000       2.02564407      -0.25419438      -1.61028552
H        0.00000000       0.00000000       0.00000000      -0.03211364      -0.25887832       0.15988085
H        0.00000000       0.00000000       0.00000000      -0.66460508       0.82912106       1.70702720
H        0.00000000       0.00000000       0.00000000      -0.27517915      -0.30013239       0.22187066
7
Lattice="529.1772105638412 0.0 0.0 0.0 529.1772105638412 0.0 0.0 0.0 529.1772105638412" Properties=species:S:1:pos:R:3:forces_component_raw:R:3 ipi_comment="Step:       13740  Bead:       0 forces_component_raw{ase}  cell{ase}" pbc="T T T"
O        0.00000000       0.00000000       0.00000000       1.17613340      -0.88097167       1.08905173
H        0.00000000       0.00000000       0.00000000      -0.80504155       0.53726333      -0.56736815
H        0.00000000       0.00000000       0.00000000      -0.21978897       0.25204241      -0.28534359
O        0.00000000       0.00000000       0.00000000      -2.09211255      -1.24138618      -1.03807819
H        0.00000000       0.00000000       0.00000000       0.73771709       0.22223651       0.25780556
H        0.00000000       0.00000000       0.00000000       0.11201656       0.73631406       0.99209804
H        0.00000000       0.00000000       0.00000000       1.09107578       0.37450138      -0.44816554
7
Lattice="529.1772105638412 0.0 0.0 0.0 529.1772105638412 0.0 0.0 0.0 529.1772105638412" Properties=species:S:1:pos:R:3:forces_component_raw:R:3 ipi_comment="Step:       13760  Bead:       0 forces_component_raw{ase}  cell{ase}" pbc="T T T"
O        0.00000000       0.00000000       0.00000000       1.31174553      -0.02978491       0.86917657
H        0.00000000       0.00000000       0.00000000      -0.21146935       0.75698471      -0.68416160
H        0.00000000       0.00000000       0.00000000       0.32030618      -0.21198696       0.30515370
O        0.00000000       0.00000000       0.00000000      -2.10825301      -0.55267024       1.35014379
H        0.00000000       0.00000000       0.00000000      -0.63248885      -0.39313188      -0.20448831
H        0.00000000       0.00000000       0.00000000      -0.12481901       0.09598720       0.20348781
H        0.00000000       0.00000000       0.00000000       1.44497896       0.33460248      -1.83931208
7
Lattice="529.1772105638412 0.0 0.0 0.0 529.1772105638412 0.0 0.0 0.0 529.1772105638412" Properties=species:S:1:pos:R:3:forces_component_raw:R:3 ipi_comment="Step:       13780  Bead:       0 forces_component_raw{ase}  cell{ase}" pbc="T T T"
O        0.00000000       0.00000000       0.00000000       1.45395351       1.02281416       0.02191800
H        0.00000000       0.00000000       0.00000000      -0.06930476      -0.55645061       0.25360403
H        0.00000000       0.00000000       0.00000000      -0.57002062      -0.31204325      -0.04392120
O        0.00000000       0.00000000       0.00000000      -2.61947585       0.21761501       1.98609651
H        0.00000000       0.00000000       0.00000000       0.83714390       0.16451412       0.36652285
H        0.00000000       0.00000000       0.00000000      -0.19362083      -0.95729268      -1.03473854
H        0.00000000       0.00000000       0.00000000       1.16132474       0.42084324      -1.54948140
7
Lattice="529.1772105638412 0.0 0.0 0.0 529.1772105638412 0.0 0.0 0.0 529.1772105638412" Properties=species:S:1:pos:R:3:forces_component_raw:R:3 ipi_comment="Step:       13800  Bead:       0 forces_component_raw{ase}  cell{ase}" pbc="T T T"
O        0.00000000       0.00000000       0.00000000      -1.12378645       0.70641881      -1.05658436
H        0.00000000       0.00000000       0.00000000       0.61962021      -0.07815641       0.23530322
H        0.00000000       0.00000000       0.00000000      -0.02911723      -0.95894110       0.53377521
O        0.00000000       0.00000000       0.00000000       0.69767660       1.65511942       2.75482822
H        0.00000000       0.00000000       0.00000000      -0.08037224       0.48329032       0.03642353
H        0.00000000       0.00000000       0.00000000      -0.63908506      -1.81127024      -1.57979370
H        0.00000000       0.00000000       0.00000000       0.55506396       0.00353926      -0.92395210
7
Lattice="529.1772105638412 0.0 0.0 0.0 529.1772105638412 0.0 0.0 0.0 529.1772105638412" Properties=species:S:1:pos:R:3:forces_component_raw:R:3 ipi_comment="Step:       13820  Bead:       0 forces_component_raw{ase}  cell{ase}" pbc="T T T"
O        0.00000000       0.00000000       0.00000000      -0.69014067       0.65988231      -0.65311915
H        0.00000000       0.00000000       0.00000000      -0.07265902      -0.52689266       0.23098928
H        0.00000000       0.00000000       0.00000000      -0.30239660      -0.14612937      -0.10318830
O        0.00000000       0.00000000       0.00000000       2.06656123       1.32997203       0.71824479
H        0.00000000       0.00000000       0.00000000      -0.11262691      -0.36219955       0.14937691
H        0.00000000       0.00000000       0.00000000      -0.22985581      -1.11815787      -1.04192329
H        0.00000000       0.00000000       0.00000000      -0.65888238       0.16352525       0.69961989
7
Lattice="529.1772105638412 0.0 0.0 0.0 529.1772105638412 0.0 0.0 0.0 529.1772105638412" Properties=species:S:1:pos:R:3:forces_component_raw:R:3 ipi_comment="Step:       13840  Bead:       0 forces_component_raw{ase}  cell{ase}" pbc="T T T"
O        0.00000000       0.00000000       0.00000000      -1.04877866      -1.95970059      -0.03037870
H        0.00000000       0.00000000       0.00000000      -0.07483667       0.80729258      -0.26675987
H        0.00000000       0.00000000       0.00000000       0.33360806       0.67765820       0.22957194
O        0.00000000       0.00000000       0.00000000       2.23915625      -0.37192631      -0.83175665
H        0.00000000       0.00000000       0.00000000       0.13190687       0.40654174      -0.24393523
H        0.00000000       0.00000000       0.00000000       0.06130838      -0.22243071      -0.11605674
H        0.00000000       0.00000000       0.00000000      -1.64236427       0.66256499       1.25931526
7
Lattice="529.1772105638412 0.0 0.0 0.0 529.1772105638412 0.0 0.0 0.0 529.1772105638412" Properties=species:S:1:pos:R:3:forces_component_raw:R:3 ipi_comment="Step:       13860  Bead:       0 forces_component_raw{ase}  cell{ase}" pbc="T T T"
O        0.00000000       0.00000000       0.00000000       0.53400052      -1.87033534       0.44197893
H        0.00000000       0.00000000       0.00000000      -0.96569562       0.84051556      -0.91057891
H        0.00000000       0.00000000       0.00000000       0.29325190       1.35565722       0.33616191
O        0.00000000       0.00000000       0.00000000       1.52931345      -1.52104342      -1.24815667
H        0.00000000       0.00000000       0.00000000      -0.02379204      -0.54752654       0.14378238
H        0.00000000       0.00000000       0.00000000      -0.06257212       1.23015046       0.86271268
H        0.00000000       0.00000000       0.00000000      -1.30450630       0.51258189       0.37409949
7
Lattice="529.1772105638412 0.0 0.0 0.0 529.1772105638412 0.0 0.0 0.0 529.1772105638412" Properties=species:S:1:pos:R:3:forces_component_raw:R:3 ipi_comment="Step:       13880  Bead:       0 forces_component_raw{ase}  cell{ase}" pbc="T T T"
O        0.00000000       0.00000000       0.00000000      -0.14272779      -2.47475410      -0.34158993
H        0.00000000       0.00000000       0.00000000       0.24808241       1.53172982      -0.24940360
H        0.00000000       0.00000000       0.00000000       0.59512490       0.83408553       0.98112762
O        0.00000000       0.00000000       0.00000000      -1.51892543      -1.70766950      -1.05945075
H        0.00000000       0.00000000       0.00000000      -0.12388925       0.27425110      -0.18789148
H        0.00000000       0.00000000       0.00000000       0.54052568       1.27683616       0.64346111
H        0.00000000       0.00000000       0.00000000       0.40180934       0.26552099       0.21374725
7
Lattice="529.1772105638412 0.0 0.0 0.0 529.1772105638412 0.0 0.0 0.0 529.1772105638412" Properties=species:S:1:pos:R:3:forces_component_raw:R:3 ipi_comment="Step:       13900  Bead:       0 forces_component_raw{ase}  cell{ase}" pbc="T T T"
O        0.00000000       0.00000000       0.00000000       0.77395159      -0.52921498       1.49383211
H        0.00000000       0.00000000       0.00000000      -0.44453037       0.04339528      -1.03073406
H        0.00000000       0.00000000       0.00000000      -0.10574559       0.86574459      -0.41053188
O        0.00000000       0.00000000       0.00000000      -1.01088476      -0.25342393      -0.38707686
H        0.00000000       0.00000000       0.00000000      -0.14246438      -0.66403288      -0.04572523
H        0.00000000       0.00000000       0.00000000       0.08812392       1.51636875       0.32417867
H        0.00000000       0.00000000       0.00000000       0.84154946      -0.97883666       0.05605710
7
Lattice="529.1772105638412 0.0 0.0 0.0 529.1772105638412 0.0 0.0 0.0 529.1772105638412" Properties=species:S:1:pos:R:3:forces_component_raw:R:3 ipi_comment="Step:       13920  Bead:       0 forces_component_raw{ase}  cell{ase}" pbc="T T T"
O        0.00000000       0.00000000       0.00000000      -1.04342306       0.22535022      -1.32283473
H        0.00000000       0.00000000       0.00000000       0.73209214       0.07967734       0.84692466
H        0.00000000       0.00000000       0.00000000      -0.01374073      -0.75266814       0.17291856
O        0.00000000       0.00000000       0.00000000      -1.30329168      -0.17526597      -1.11778867
H        0.00000000       0.00000000       0.00000000       0.02686530       0.52107662       0.33881012
H        0.00000000       0.00000000       0.00000000       0.34552702       1.09214235       0.26767361
H        0.00000000       0.00000000       0.00000000       1.25597120      -0.99031252       0.81429666
7
Lattice="529.1772105638412 0.0 0.0 0.0 529.1772105638412 0.0 0.0 0.0 529.1772105638412" Properties=species:S:1:pos:R:3:forces_component_raw:R:3 ipi_comment="Step:       13940  Bead:       0 forces_component_raw{ase}  cell{ase}" pbc="T T T"
O        0.00000000       0.00000000       0.00000000       0.62799025       1.97239566       1.20025993
H        0.00000000       0.00000000       0.00000000       0.19171599      -1.54807663      -0.06440789
H        0.00000000       0.00000000       0.00000000      -0.64153695      -0.16731197      -1.17487324
O        0.00000000       0.00000000       0.00000000      -0.18734270       1.72566927      -1.39723277
H        0.00000000       0.00000000       0.00000000      -0.43465471      -0.62654400       0.03306502
H        0.00000000       0.00000000       0.00000000       0.09887731       0.09555936      -0.05226469
H        0.00000000       0.00000000       0.00000000       0.34495097      -1.45169163       1.45545364
7
Lattice="529.1772105638412 0.0 0.0 0.0 529.1772105638412 0.0 0.0 0.0 529.1772105638412" Properties=species:S:1:pos:R:3:forces_component_raw:R:3 ipi_comment="Step:       13960  Bead:       0 forces_component_raw{ase}  cell{ase}" pbc="T T T"
O        0.00000000       0.00000000       0.00000000      -1.75665045       1.58231914       0.07593370
H        0.00000000       0.00000000       0.00000000       1.04239929      -0.66679877       0.66385734
H        0.00000000       0.00000000       0.00000000       0.37362701      -1.21338845      -0.57755137
O        0.00000000       0.00000000       0.00000000       0.24245325       0.70883298      -0.56359840
H        0.00000000       0.00000000       0.00000000       0.34841189       0.65784651      -0.35857153
H        0.00000000       0.00000000       0.00000000      -0.32368755      -0.48810798      -0.11597574
H        0.00000000       0.00000000       0.00000000       0.07344669      -0.58070338       0.87590587
7
Lattice="529.1772105638412 0.0 0.0 0.0 529.1772105638412 0.0 0.0 0.0 529.1772105638412" Properties=species:S:1:pos:R:3:forces_component_raw:R:3 ipi_comment="Step:       13980  Bead:       0 forces_component_raw{ase}  cell{ase}" pbc="T T T"
O        0.00000000       0.00000000       0.00000000       0.52792138       1.04721666       0.87795770
H        0.00000000       0.00000000       0.00000000      -0.06832057      -0.59152150      -0.36335999
H        0.00000000       0.00000000       0.00000000      -0.46220192      -0.37886262      -0.50912649
O        0.00000000       0.00000000       0.00000000       0.41841337       1.05293989      -0.82629824
H        0.00000000       0.00000000       0.00000000       0.16743296      -0.33611071       0.50872982
H        0.00000000       0.00000000       0.00000000      -0.14553663      -0.76786411       0.12546900
H        0.00000000       0.00000000       0.00000000      -0.43770865      -0.02579743       0.18662822
7
Lattice="529.1772105638412 0.0 0.0 0.0 529.1772105638412 0.0 0.0 0.0 529.1772105638412" Properties=species:S:1:pos:R:3:forces_component_raw:R:3 ipi_comment="Step:       14000  Bead:       0 forces_component_raw{ase}  cell{ase}" pbc="T T T"
O        0.00000000       0.00000000       0.00000000       0.78386176      -1.39396620      -1.05238545
H        0.00000000       0.00000000       0.00000000      -0.89941627       1.03258395       0.80341608
H        0.00000000       0.00000000       0.00000000       0.56326950       0.21725422       0.42845154
O        0.00000000       0.00000000       0.00000000       0.88101709       0.61602181       0.48586810
H        0.00000000       0.00000000       0.00000000      -0.36608553       0.46784702      -0.23661840
H        0.00000000       0.00000000       0.00000000      -0.77767837      -1.00439012       0.01117790
H        0.00000000       0.00000000       0.00000000      -0.18496808       0.06464946      -0.43990994
7
Lattice="529.1772105638412 0.0 0.0 0.0 529.1772105638412 0.0 0.0 0.0 529.1772105638412" Properties=species:S:1:pos:R:3:forces_component_raw:R:3 ipi_comment="Step:       14020  Bead:       0 forces_component_raw{ase}  cell{ase}" pbc="T T T"
O        0.00000000       0.00000000       0.00000000       1.25531292      -0.69044614      -0.63611865
H        0.00000000       0.00000000       0.00000000      -0.69451976       0.13435230       0.03633434
H        0.00000000       0.00000000       0.00000000      -0.16498300       0.59624648       0.60320026
O        0.00000000       0.00000000       0.00000000      -0.49994683       0.24811357       0.03350335
H        0.00000000       0.00000000       0.00000000       0.32954282      -0.05021549       0.21967521
H        0.00000000       0.00000000       0.00000000      -0.14608651      -0.73565531       0.54384142
H        0.00000000       0.00000000       0.00000000      -0.07931963       0.49760452      -0.80043596
7
Lattice="529.1772105638412 0.0 0.0 0.0 529.1772105638412 0.0 0.0 0.0 529.1772105638412" Properties=species:S:1:pos:R:3:forces_component_raw:R:3 ipi_comment="Step:       14040  Bead:       0 forces_component_raw{ase}  cell{ase}" pbc="T T T"
O        0.00000000       0.00000000       0.00000000       0.04833817      -0.11244552      -0.33690360
H        0.00000000       0.00000000       0.00000000      -0.07171071       0.29050177       0.37265194
H        0.00000000       0.00000000       0.00000000       0.11950600       0.01712638      -0.07758570
O        0.00000000       0.00000000       0.00000000       1.38123119      -0.36644825       1.53555310
H        0.00000000       0.00000000       0.00000000       0.06183448      -0.21243081      -0.14486286
H        0.00000000       0.00000000       0.00000000      -0.55638528       0.14686370      -0.52036047
H        0.00000000       0.00000000       0.00000000      -0.98281348       0.23683286      -0.82849229
7
Lattice="529.1772105638412 0.0 0.0 0.0 529.1772105638412 0.0 0.0 0.0 529.1772105638412" Properties=species:S:1:pos:R:3:forces_component_raw:R:3 ipi_comment="Step:       14060  Bead:       0 forces_component_raw{ase}  cell{ase}" pbc="T T T"
O        0.00000000       0.00000000       0.00000000       0.64934003       0.36590719       0.33227402
H        0.00000000       0.00000000       0.00000000       0.37546384      -0.14019674      -0.13159966
H        0.00000000       0.00000000       0.00000000      -0.27394146      -0.06966975      -0.34274423
O        0.00000000       0.00000000       0.00000000      -1.11304581      -1.11687231       0.68998897
H        0.00000000       0.00000000       0.00000000      -0.47203556      -0.08634269       0.25762862
H        0.00000000       0.00000000       0.00000000       0.72035730       0.36703616      -0.24150753
H        0.00000000       0.00000000       0.00000000       0.11386144       0.68013799      -0.56404030
7
Lattice="529.1772105638412 0.0 0.0 0.0 529.1772105638412 0.0 0.0 0.0 529.1772105638412" Properties=species:S:1:pos:R:3:forces_component_raw:R:3 ipi_comment="Step:       14080  Bead:       0 forces_component_raw{ase}  cell{ase}" pbc="T T T"
O        0.00000000       0.00000000       0.00000000      -0.67234546       0.95393932       1.76072312
H        0.00000000       0.00000000       0.00000000       0.70238900      -0.39029726      -0.24416606
H        0.00000000       0.00000000       0.00000000       0.04761988      -0.37298530      -1.43928361
O        0.00000000       0.00000000       0.00000000      -0.40298808      -0.41240585       0.04551816
H        0.00000000       0.00000000       0.00000000       0.50826442      -0.03499673       0.07317133
H        0.00000000       0.00000000       0.00000000      -0.19793773       0.76415861      -0.72816312
H        0.00000000       0.00000000       0.00000000       0.01499778      -0.50741285       0.53220028
7
Lattice="529.1772105638412 0.0 0.0 0.0 529.1772105638412 0.0 0.0 0.0 529.1772105638412" Properties=species:S:1:pos:R:3:forces_component_raw:R:3 ipi_comment="Step:       14100  Bead:       0 forces_component_raw{ase}  cell{ase}" pbc="T T T"
O        0.00000000       0.00000000       0.00000000      -0.10788980       0.15802348       1.75703884
H        0.00000000       0.00000000       0.00000000      -0.18638909      -0.13066345      -0.30199167
H        0.00000000       0.00000000       0.00000000      -0.03668496      -0.13403168      -1.58509779
O        0.00000000       0.00000000       0.00000000      -0.73540974       0.95559669       0.29047811
H        0.00000000       0.00000000       0.00000000      -0.16317937       0.13128877       0.29633474
H        0.00000000       0.00000000       0.00000000       0.55309755       0.00551525      -0.39872968
H        0.00000000       0.00000000       0.00000000       0.67645526      -0.98572916      -0.05803230
7
Lattice="529.1772105638412 0.0 0.0 0.0 529.1772105638412 0.0 0.0 0.0 529.1772105638412" Properties=species:S:1:pos:R:3:forces_component_raw:R:3 ipi_comment="Step:       14120  Bead:       0 forces_component_raw{ase}  cell{ase}" pbc="T T T"
O        0.00000000       0.00000000       0.00000000      -0.61425877      -0.39136660       0.65785581
H        0.00000000       0.00000000       0.00000000      -0.17924231       0.08059686       0.02805953
H        0.00000000       0.00000000       0.00000000       0.34791476      -0.04511271      -0.60657561
O        0.00000000       0.00000000       0.00000000       0.72117931       1.11629772       0.62514210
H        0.00000000       0.00000000       0.00000000      -0.17857978       0.28398794      -0.29225296
H        0.00000000       0.00000000       0.00000000      -0.02719873       0.23259765      -0.32784587
H        0.00000000       0.00000000       0.00000000      -0.06981432      -1.27700115      -0.08438304
7
Lattice="529.1772105638412 0.0 0.0 0.0 529.1772105638412 0.0 0.0 0.0 529.1772105638412" Properties=species:S:1:pos:R:3:forces_component_raw:R:3 ipi_comment="Step:       14140  Bead:       0 forces_component_raw{ase}  cell{ase}" pbc="T T T"
O        0.00000000       0.00000000       0.00000000       0.95265132      -0.68177664      -0.38852847
H        0.00000000       0.00000000       0.00000000      -0.97189594       0.57600486       0.11011775
H        0.00000000       0.00000000       0.00000000      -0.09043864       0.14517900       0.22586221
O        0.00000000       0.00000000       0.00000000      -0.49050200       2.04545498      -0.63997007
H        0.00000000       0.00000000       0.00000000       0.12709028      -0.28077638       0.26682925
H        0.00000000       0.00000000       0.00000000      -0.16990885      -0.61112303       0.50156605
H        0.00000000       0.00000000       0.00000000       0.64300370      -1.19296277      -0.07587674
7
Lattice="529.1772105638412 0.0 0.0 0.0 529.1772105638412 0.0 0.0 0.0 529.1772105638412" Properties=species:S:1:pos:R:3:forces_component_raw:R:3 ipi_comment="Step:       14160  Bead:       0 forces_component_raw{ase}  cell{ase}" pbc="T T T"
O        0.00000000       0.00000000       0.00000000       0.47965950      -0.37493873      -0.14990962
H        0.00000000       0.00000000       0.00000000      -0.36712033       0.49771106       0.59333551
H        0.00000000       0.00000000       0.00000000       0.13080388      -0.13571548      -0.14016044
O        0.00000000       0.00000000       0.00000000      -0.15649712       1.02279818      -0.62572646
H        0.00000000       0.00000000       0.00000000       0.29774678       0.47583222      -0.43923348
H        0.00000000       0.00000000       0.00000000      -0.89755744      -1.25866318       0.51155520
H        0.00000000       0.00000000       0.00000000       0.51296461      -0.22702408       0.25013942
7
Lattice="529.1772105638412 0.0 0.0 0.0 529.1772105638412 0.0 0.0 0.0 529.1772105638412" Properties=species:S:1:pos:R:3:forces_component_raw:R:3 ipi_comment="Step:       14180  Bead:       0 forces_component_raw{ase}  cell{ase}" pbc="T T T"
O        0.00000000       0.00000000       0.00000000       0.57393515       0.69581783       0.17192411
H        0.00000000       0.00000000       0.00000000       0.63795781      -0.27593923      -0.18328714
H        0.00000000       0.00000000       0.00000000      -0.23796827      -0.14767708      -0.18425989
O        0.00000000       0.00000000       0.00000000      -0.14785069       0.98460096      -0.23713270
H        0.00000000       0.00000000       0.00000000      -0.55513978      -0.51755202       0.26864898
H        0.00000000       0.00000000       0.00000000      -0.21425852      -0.83788324       0.18423824
H        0.00000000       0.00000000       0.00000000      -0.05667567       0.09863290      -0.02013141
7
Lattice="529.1772105638412 0.0 0.0 0.0 529.1772105638412 0.0 0.0 0.0 529.1772105638412" Properties=species:S:1:pos:R:3:forces_component_raw:R:3 ipi_comment="Step:       14200  Bead:       0 forces_component_raw{ase}  cell{ase}" pbc="T T T"
O        0.00000000       0.00000000       0.00000000      -0.75465131       0.53263831       0.67347825
H        0.00000000       0.00000000       0.00000000       0.93817914      -0.71040523      -1.18083048
H        0.00000000       0.00000000       0.00000000      -0.18127924       0.15208253       0.44126242
O        0.00000000       0.00000000       0.00000000      -0.24069333      -0.48891652       0.42073977
H        0.00000000       0.00000000       0.00000000       0.37585068       0.42543954      -0.17612216
H        0.00000000       0.00000000       0.00000000      -0.28790674      -0.07233745      -0.06792012
H        0.00000000       0.00000000       0.00000000       0.15050083       0.16149858      -0.11060798
7
Lattice="529.1772105638412 0.0 0.0 0.0 529.1772105638412 0.0 0.0 0.0 529.1772105638412" Properties=species:S:1:pos:R:3:forces_component_raw:R:3 ipi_comment="Step:       14220  Bead:       0 forces_component_raw{ase}  cell{ase}" pbc="T T T"
O        0.00000000       0.00000000       0.00000000      -1.56057394       0.31471944       0.08473188
H        0.00000000       0.00000000       0.00000000       0.61194301      -0.30298215      -0.36220664
H        0.00000000       0.00000000       0.00000000       0.33191961      -0.00938016       0.34339488
O        0.00000000       0.00000000       0.00000000       1.41891218      -0.17706621      -0.53962541
H        0.00000000       0.00000000       0.00000000       0.03748907      -0.34589106       0.23141725
H        0.00000000       0.00000000       0.00000000      -0.21593449       0.12053174       0.43371850
H        0.00000000       0.00000000       0.00000000      -0.62375546       0.40006849      -0.19143045
7
Lattice="529.1772105638412 0.0 0.0 0.0 529.1772105638412 0.0 0.0 0.0 529.1772105638412" Properties=species:S:1:pos:R:3:forces_component_raw:R:3 ipi_comment="Step:       14240  Bead:       0 forces_component_raw{ase}  cell{ase}" pbc="T T T"
O        0.00000000       0.00000000       0.00000000      -0.25937617      -0.24843824      -0.86148787
H        0.00000000       0.00000000       0.00000000      -0.65711820       0.01948291       0.17462555
H        0.00000000       0.00000000       0.00000000       0.45449138       0.11885077       1.02916813
O        0.00000000       0.00000000       0.00000000       1.57640338      -0.44507015       0.48826802
H        0.00000000       0.00000000       0.00000000      -0.14374203       0.15875530      -0.21843988
H        0.00000000       0.00000000       0.00000000      -0.47487378       0.40994465      -0.14274853
H        0.00000000       0.00000000       0.00000000      -0.49578464      -0.01352558      -0.46938521
7
Lattice="529.1772105638412 0.0 0.0 0.0 529.1772105638412 0.0 0.0 0.0 529.1772105638412" Properties=species:S:1:pos:R:3:forces_component_raw:R:3 ipi_comment="Step:       14260  Bead:       0 forces_component_raw{ase}  cell{ase}" pbc="T T T"
O        0.00000000       0.00000000       0.00000000       0.75461841      -0.24576235      -1.14343858
H        0.00000000       0.00000000       0.00000000      -0.70575982       0.16194871       0.52923262
H        0.00000000       0.00000000       0.00000000      -0.18294212      -0.05601472       0.25778735
O        0.00000000       0.00000000       0.00000000      -0.40004236      -0.53796721      -0.18936300
H        0.00000000       0.00000000       0.00000000       0.13080816       0.17455536       0.49608582
H        0.00000000       0.00000000       0.00000000       0.38088787       0.03960526       0.21252650
H        0.00000000       0.00000000       0.00000000       0.02242991       0.46363497      -0.16283035
7
Lattice="529.1772105638412 0.0 0.0 0.0 529.1772105638412 0.0 0.0 0.0 529.1772105638412" Properties=species:S:1:pos:R:3:forces_component_raw:R:3 ipi_comment="Step:       14280  Bead:       0 forces_component_raw{ase}  cell{ase}" pbc="T T T"
O        0.00000000       0.00000000       0.00000000       1.80209256       0.76672876       0.05693619
H        0.00000000       0.00000000       0.00000000      -0.45763844      -0.10606447       0.80742777
H        0.00000000       0.00000000       0.00000000       0.08151066       0.00750777      -0.52835924
O        0.00000000       0.00000000       0.00000000      -0.24693734      -0.19618967       0.11298931
H        0.00000000       0.00000000       0.00000000      -1.01434434      -0.59619224      -0.32974356
H        0.00000000       0.00000000       0.00000000       0.03330791       0.12031317      -0.07197374
H        0.00000000       0.00000000       0.00000000      -0.19799078       0.00389680      -0.04727680
7
Lattice="529.1772105638412 0.0 0.0 0.0 529.1772105638412 0.0 0.0 0.0 529.1772105638412" Properties=species:S:1:pos:R:3:forces_component_raw:R:3 ipi_comment="Step:       14300  Bead:       0 forces_component_raw{ase}  cell{ase}" pbc="T T T"
O        0.00000000       0.00000000       0.00000000       1.40479386      -0.18464023      -0.19209442
H        0.00000000       0.00000000       0.00000000      -0.90709913      -0.13890328       1.08921409
H        0.00000000       0.00000000       0.00000000      -0.61619860       0.24179342      -0.78912318
O        0.00000000       0.00000000       0.00000000      -1.29482067      -1.30521250       0.36897194
H        0.00000000       0.00000000       0.00000000       0.67242980       0.48292744      -0.03897338
H        0.00000000       0.00000000       0.00000000       0.53731245       0.63792747      -0.42233825
H        0.00000000       0.00000000       0.00000000       0.20358247       0.26610774      -0.01565690
7
Lattice="529.1772105638412 0.0 0.0 0.0 529.1772105638412 0.0 0.0 0.0 529.1772105638412" Properties=species:S:1:pos:R:3:forces_component_raw:R:3 ipi_comment="Step:       14320  Bead:       0 forces_component_raw{ase}  cell{ase}" pbc="T T T"
O        0.00000000       0.00000000       0.00000000       0.06339037      -0.49618518       0.11832720
H        0.00000000       0.00000000       0.00000000      -0.10115027      -0.17339549       0.67984092
H        0.00000000       0.00000000       0.00000000      -0.54297996       0.45291627      -0.91846204
O        0.00000000       0.00000000       0.00000000      -0.05706245       0.82629889       0.02127075
H        0.00000000       0.00000000       0.00000000      -0.02185780      -0.02411912       0.06811243
H        0.00000000       0.00000000       0.00000000       0.04421520      -0.05138350      -0.02812123
H        0.00000000       0.00000000       0.00000000       0.61544514      -0.53413189       0.05903205
7
Lattice="529.1772105638412 0.0 0.0 0.0 529.1772105638412 0.0 0.0 0.0 529.1772105638412" Properties=species:S:1:pos:R:3:forces_component_raw:R:3 ipi_comment="Step:       14340  Bead:       0 forces_component_raw{ase}  cell{ase}" pbc="T T T"
O        0.00000000       0.00000000       0.00000000       0.86728728      -1.06074023       0.04691333
H        0.00000000       0.00000000       0.00000000      -0.30682683       0.20694217       0.17982113
H        0.00000000       0.00000000       0.00000000      -0.52711749       0.76619011      -0.22095493
O        0.00000000       0.00000000       0.00000000       0.35247427       2.14382792      -0.53508830
H        0.00000000       0.00000000       0.00000000      -0.55022586      -0.39839956      -0.15292472
H        0.00000000       0.00000000       0.00000000      -0.42083579      -0.43871999       0.59626246
H        0.00000000       0.00000000       0.00000000       0.58524478      -1.21910024       0.08597097
7
Lattice="529.1772105638412 0.0 0.0 0.0 529.1772105638412 0.0 0.0 0.0 529.1772105638412" Properties=species:S:1:pos:R:3:forces_component_raw:R:3 ipi_comment="Step:       14360  Bead:       0 forces_component_raw{ase}  cell{ase}" pbc="T T T"
O        0.00000000       0.00000000       0.00000000      -0.56286770      -1.30980826       0.16320640
H        0.00000000       0.00000000       0.00000000       0.16144615       0.15879369      -0.13415641
H        0.00000000       0.00000000       0.00000000      -0.34437582       0.66457486      -0.31211943
O        0.00000000       0.00000000       0.00000000      -0.37306255       1.97952772       0.05312228
H        0.00000000       0.00000000       0.00000000       0.01822458      -0.07208401       0.32512295
H        0.00000000       0.00000000       0.00000000       0.12360632      -0.12566346       0.03178060
H        0.00000000       0.00000000       0.00000000       0.97702903      -1.29534042      -0.12695637
7
Lattice="529.1772105638412 0.0 0.0 0.0 529.1772105638412 0.0 0.0 0.0 529.1772105638412" Properties=species:S:1:pos:R:3:forces_component_raw:R:3 ipi_comment="Step:       14380  Bead:       0 forces_component_raw{ase}  cell{ase}" pbc="T T T"
O        0.00000000       0.00000000       0.00000000      -0.58145779      -0.19720566       0.41173983
H        0.00000000       0.00000000       0.00000000       0.15824488       0.17161098      -0.55803597
H        0.00000000       0.00000000       0.00000000       0.18717861      -0.14864010       0.20423996
O        0.00000000       0.00000000       0.00000000      -0.37722290       0.53969026       0.17931235
H        0.00000000       0.00000000       0.00000000      -0.13031597       0.13428213      -0.14964384
H        0.00000000       0.00000000       0.00000000      -0.06935725       0.35117051      -0.23299587
H        0.00000000       0.00000000       0.00000000       0.81293053      -0.85090780       0.14538357
7
Lattice="529.1772105638412 0.0 0.0 0.0 529.1772105638412 0.0 0.0 0.0 529.1772105638412" Properties=species:S:1:pos:R:3:forces_component_raw:R:3 ipi_comment="Step:       14400  Bead:       0 forces_component_raw{ase}  cell{ase}" pbc="T T T"
O        0.00000000       0.00000000       0.00000000      -0.61819571       0.50954098      -0.19715989
H        0.00000000       0.00000000       0.00000000       0.45257759       0.23022029      -0.32698143
H        0.00000000       0.00000000       0.00000000       0.86327577      -0.33671695       0.44427708
O        0.00000000       0.00000000       0.00000000      -2.00369335      -0.96958387      -0.06299806
H        0.00000000       0.00000000       0.00000000       0.65022743       0.28084552       0.29680547
H        0.00000000       0.00000000       0.00000000       0.18657854       0.42448098      -0.20449239
H        0.00000000       0.00000000       0.00000000       0.46922976      -0.13878691       0.05054939
7
Lattice="529.1772105638412 0.0 0.0 0.0 529.1772105638412 0.0 0.0 0.0 529.1772105638412" Properties=species:S:1:pos:R:3:forces_component_raw:R:3 ipi_comment="Step:       14420  Bead:       0 forces_component_raw{ase}  cell{ase}" pbc="T T T"
O        0.00000000       0.00000000       0.00000000       0.52847576       1.38860226      -0.73592425
H        0.00000000       0.00000000       0.00000000      -0.06366365      -0.04572517      -0.07315034
H        0.00000000       0.00000000       0.00000000       1.28702760      -0.53536308       0.94701398
O        0.00000000       0.00000000       0.00000000       0.43287861      -1.11384523      -0.04403377
H        0.00000000       0.00000000       0.00000000      -1.11355758      -0.41836402      -0.28804901
H        0.00000000       0.00000000       0.00000000      -0.20900044       0.27597028      -0.09878635
H        0.00000000       0.00000000       0.00000000      -0.86216033       0.44872499       0.29292974
7
Lattice="529.1772105638412 0.0 0.0 0.0 529.1772105638412 0.0 0.0 0.0 529.1772105638412" Properties=species:S:1:pos:R:3:forces_component_raw:R:3 ipi_comment="Step:       14440  Bead:       0 forces_component_raw{ase}  cell{ase}" pbc="T T T"
O        0.00000000       0.00000000       0.00000000      -0.99382609       0.35174906      -0.65511018
H        0.00000000       0.00000000       0.00000000       0.21544942      -0.16895059       0.26807565
H        0.00000000       0.00000000       0.00000000       0.80290252      -0.18387151       0.35268685
O        0.00000000       0.00000000       0.00000000      -0.78398788      -1.69374383      -0.44158399
H        0.00000000       0.00000000       0.00000000       1.23268986       0.42045853       0.17500001
H        0.00000000       0.00000000       0.00000000       0.19907054       0.71221197      -0.12458575
H        0.00000000       0.00000000       0.00000000      -0.67229819       0.56214649       0.42551738
7
Lattice="529.1772105638412 0.0 0.0 0.0 529.1772105638412 0.0 0.0 0.0 529.1772105638412" Properties=species:S:1:pos:R:3:forces_component_raw:R:3 ipi_comment="Step:       14460  Bead:       0 forces_component_raw{ase}  cell{ase}" pbc="T T T"
O        0.00000000       0.00000000       0.00000000      -0.44051552      -0.45544243       0.43854535
H        0.00000000       0.00000000       0.00000000       0.01569718      -0.01295340      -0.21307480
H        0.00000000       0.00000000       0.00000000      -0.47546285       0.00239372      -0.36193886
O        0.00000000       0.00000000       0.00000000       1.55592716      -0.62736482      -0.46083236
H        0.00000000       0.00000000       0.00000000      -0.16537553       0.08672559       0.17976216
H        0.00000000       0.00000000       0.00000000       0.13757619       0.64351064      -0.06876105
H        0.00000000       0.00000000       0.00000000      -0.62784624       0.36313099       0.48629952
7
Lattice="529.1772105638412 0.0 0.0 0.0 529.1772105638412 0.0 0.0 0.0 529.1772105638412" Properties=species:S:1:pos:R:3:forces_component_raw:R:3 ipi_comment="Step:       14480  Bead:       0 forces_component_raw{ase}  cell{ase}" pbc="T T T"
O        0.00000000       0.00000000       0.00000000      -0.12842888      -0.56785679       1.41773272
H        0.00000000       0.00000000       0.00000000      -0.02718627      -0.19513987      -0.15719342
H        0.00000000       0.00000000       0.00000000      -0.29255116       0.49834299      -0.90211582
O        0.00000000       0.00000000       0.00000000       0.56820256       0.13548380       0.37325764
H        0.00000000       0.00000000       0.00000000      -0.19881251      -0.16851777      -0.44164023
H        0.00000000       0.00000000       0.00000000       0.27801931       0.01654667      -0.23830545
H        0.00000000       0.00000000       0.00000000      -0.19924301       0.28114098      -0.05173516
7
Lattice="529.1772105638412 0.0 0.0 0.0 529.1772105638412 0.0 0.0 0.0 529.1772105638412" Properties=species:S:1:pos:R:3:forces_component_raw:R:3 ipi_comment="Step:       14500  Bead:       0 forces_component_raw{ase}  cell{ase}" pbc="T T T"
O        0.00000000       0.00000000       0.00000000      -0.13083333      -1.03664470       0.70765132
H        0.00000000       0.00000000       0.00000000       0.42884994       0.24605286      -0.92031610
H        0.00000000       0.00000000       0.00000000      -0.53821993       0.52093732      -0.21376136
O        0.00000000       0.00000000       0.00000000       0.64111829       1.18386555      -0.62755549
H        0.00000000       0.00000000       0.00000000      -0.07432836       0.14067969       0.69568825
H        0.00000000       0.00000000       0.00000000      -0.35117251      -0.72675371       0.33595288
H        0.00000000       0.00000000       0.00000000       0.02458596      -0.32813716       0.02234054
7
Lattice="529.1772105638412 0.0 0.0 0.0 529.1772105638412 0.0 0.0 0.0 529.1772105638412" Properties=species:S:1:pos:R:3:forces_component_raw:R:3 ipi_comment="Step:       14520  Bead:       0 forces_component_raw{ase}  cell{ase}" pbc="T T T"
O        0.00000000       0.00000000       0.00000000      -0.17889214       0.14121449       1.64924407
H        0.00000000       0.00000000       0.00000000       0.35593689      -0.22393501      -0.78630901
H        0.00000000       0.00000000       0.00000000       0.44280183       0.28485245      -0.15397146
O        0.00000000       0.00000000       0.00000000      -1.62873769       0.63000304       0.45685673
H        0.00000000       0.00000000       0.00000000       0.32303119       0.11967737      -0.94559252
H        0.00000000       0.00000000       0.00000000       0.16328609      -0.95041806       0.09714538
H        0.00000000       0.00000000       0.00000000       0.52257383      -0.00139397      -0.31737310
7
Lattice="529.1772105638412 0.0 0.0 0.0 529.1772105638412 0.0 0.0 0.0 529.1772105638412" Properties=species:S:1:pos:R:3:forces_component_raw:R:3 ipi_comment="Step:       14540  Bead:       0 forces_component_raw{ase}  cell{ase}" pbc="T T T"
O        0.00000000       0.00000000       0.00000000       0.28596985       0.42210180      -1.32463241
H        0.00000000       0.00000000       0.00000000       0.34207264       0.14099500      -0.17055643
H        0.00000000       0.00000000       0.00000000       0.54419208       0.05104723       0.88293499
O        0.00000000       0.00000000       0.00000000      -0.80247820       0.01453096       0.09611154
H        0.00000000       0.00000000       0.00000000      -0.61308503      -0.23708125       0.64803147
H        0.00000000       0.00000000       0.00000000      -0.29504961       0.11697203       0.09328067
H        0.00000000       0.00000000       0.00000000       0.53837830      -0.50856573      -0.22516954
7
Lattice="529.1772105638412 0.0 0.0 0.0 529.1772105638412 0.0 0.0 0.0 529.1772105638412" Properties=species:S:1:pos:R:3:forces_component_raw:R:3 ipi_comment="Step:       14560  Bead:       0 forces_component_raw{ase}  cell{ase}" pbc="T T T"
O        0.00000000       0.00000000       0.00000000      -0.53199351      -0.56229174      -0.80642295
H        0.00000000       0.00000000       0.00000000      -0.15873408       0.01730897       0.23762888
H        0.00000000       0.00000000       0.00000000       0.65581000       0.60449124       0.78350312
O        0.00000000       0.00000000       0.00000000      -0.91087449      -0.12411720       1.01160193
H        0.00000000       0.00000000       0.00000000       0.42600504      -0.08855011      -0.49558050
H        0.00000000       0.00000000       0.00000000       0.03459299       0.60318625      -0.25658745
H        0.00000000       0.00000000       0.00000000       0.48519415      -0.45002741      -0.47414303
7
Lattice="529.1772105638412 0.0 0.0 0.0 529.1772105638412 0.0 0.0 0.0 529.1772105638412" Properties=species:S:1:pos:R:3:forces_component_raw:R:3 ipi_comment="Step:       14580  Bead:       0 forces_component_raw{ase}  cell{ase}" pbc="T T T"
O        0.00000000       0.00000000       0.00000000      -0.26566523      -0.54439336      -0.52179921
H        0.00000000       0.00000000       0.00000000      -0.22362632      -0.00200611       0.25670922
H        0.00000000       0.00000000       0.00000000      -0.03293493       0.14402449       0.15643793
O        0.00000000       0.00000000       0.00000000       0.42573571      -1.36409462       0.78433240
H        0.00000000       0.00000000       0.00000000      -0.27794483       0.22090101       0.29044145
H        0.00000000       0.00000000       0.00000000       0.00992209       1.60137749      -0.80032289
H        0.00000000       0.00000000       0.00000000       0.36451340      -0.05580908      -0.16579902
7
Lattice="529.1772105638412 0.0 0.0 0.0 529.1772105638412 0.0 0.0 0.0 529.1772105638412" Properties=species:S:1:pos:R:3:forces_component_raw:R:3 ipi_comment="Step:       14600  Bead:       0 forces_component_raw{ase}  cell{ase}" pbc="T T T"
O        0.00000000       0.00000000       0.00000000      -0.31217325       0.15523708       0.25162458
H        0.00000000       0.00000000       0.00000000      -0.33894092      -0.07749558       0.14467853
H        0.00000000       0.00000000       0.00000000       0.13721433      -0.13831919      -0.24120617
O        0.00000000       0.00000000       0.00000000       0.58677387      -1.56664491       0.41213477
H        0.00000000       0.00000000       0.00000000       0.19349632      -0.41017670       0.04992601
H        0.00000000       0.00000000       0.00000000       0.29665423       1.71352387      -0.82169473
H        0.00000000       0.00000000       0.00000000      -0.56302452       0.32387555       0.20453733
7
Lattice="529.1772105638412 0.0 0.0 0.0 529.1772105638412 0.0 0.0 0.0 529.1772105638412" Properties=species:S:1:pos:R:3:forces_component_raw:R:3 ipi_comment="Step:       14620  Bead:       0 forces_component_raw{ase}  cell{ase}" pbc="T T T"
O        0.00000000       0.00000000       0.00000000       0.19629574       0.71677864       0.22374481
H        0.00000000       0.00000000       0.00000000      -0.03678410      -0.19905675      -0.00494909
H        0.00000000       0.00000000       0.00000000      -0.05569378      -0.63548076      -0.22408581
O        0.00000000       0.00000000       0.00000000       1.31611085      -3.18536902       0.40283966
H        0.00000000       0.00000000       0.00000000       0.05567189       0.58703780       0.03199504
H        0.00000000       0.00000000       0.00000000       0.05691008       1.50821305      -0.83617628
H        0.00000000       0.00000000       0.00000000      -1.53251052       1.20787716       0.40663177
7
Lattice="529.1772105638412 0.0 0.0 0.0 529.1772105638412 0.0 0.0 0.0 529.1772105638412" Properties=species:S:1:pos:R:3:forces_component_raw:R:3 ipi_comment="Step:       14640  Bead:       0 forces_component_raw{ase}  cell{ase}" pbc="T T T"
O        0.00000000       0.00000000       0.00000000       0.25911534       0.44064760       1.08666420
H        0.00000000       0.00000000       0.00000000       0.49160785       0.49759781      -0.55676305
H        0.00000000       0.00000000       0.00000000       0.19917932      -0.34405971      -0.70293713
O        0.00000000       0.00000000       0.00000000       0.31119585      -0.98117286       0.17632806
H        0.00000000       0.00000000       0.00000000      -0.37852666      -0.53787756       0.16929932
H        0.00000000       0.00000000       0.00000000       0.08841506       0.49446249      -0.26891422
H        0.00000000       0.00000000       0.00000000      -0.97098673       0.43040234       0.09632283
7
Lattice="529.1772105638412 0.0 0.0 0.0 529.1772105638412 0.0 0.0 0.0 529.1772105638412" Properties=species:S:1:pos:R:3:forces_component_raw:R:3 ipi_comment="Step:       14660  Bead:       0 forces_component_raw{ase}  cell{ase}" pbc="T T T"
O        0.00000000       0.00000000       0.00000000       0.77395696       0.94413454      -0.25417090
H        0.00000000       0.00000000       0.00000000      -0.30821464      -0.51445776       0.08853090
H        0.00000000       0.00000000       0.00000000      -0.33685243      -0.39238000       0.39097750
O        0.00000000       0.00000000       0.00000000      -0.38932276       0.83786929      -0.55861235
H        0.00000000       0.00000000       0.00000000       0.12500578       0.20686474      -0.48995090
H        0.00000000       0.00000000       0.00000000      -0.22978181      -0.93698704       0.72578955
H        0.00000000       0.00000000       0.00000000       0.36520881      -0.14504385       0.09743625
7
Lattice="529.1772105638412 0.0 0.0 0.0 529.1772105638412 0.0 0.0 0.0 529.1772105638412" Properties=species:S:1:pos:R:3:forces_component_raw:R:3 ipi_comment="Step:       14680  Bead:       0 forces_component_raw{ase}  cell{ase}" pbc="T T T"
O        0.00000000       0.00000000       0.00000000      -1.28792584      -1.50815487      -1.24980819
H        0.00000000       0.00000000       0.00000000       0.50558037       0.43006292       0.51518422
H        0.00000000       0.00000000       0.00000000       0.27247369       0.81064791       0.22634719
O        0.00000000       0.00000000       0.00000000      -0.59280342       2.00550294      -1.46565926
H        0.00000000       0.00000000       0.00000000       0.16707003      -0.04839355       0.70279670
H        0.00000000       0.00000000       0.00000000      -0.07795256      -1.21532774       1.08605325
H        0.00000000       0.00000000       0.00000000       1.01355803      -0.47433746       0.18508589
7
Lattice="529.1772105638412 0.0 0.0 0.0 529.1772105638412 0.0 0.0 0.0 529.1772105638412" Properties=species:S:1:pos:R:3:forces_component_raw:R:3 ipi_comment="Step:       14700  Bead:       0 forces_component_raw{ase}  cell{ase}" pbc="T T T"
O        0.00000000       0.00000000       0.00000000       0.17526817      -0.24999213      -0.05310142
H        0.00000000       0.00000000       0.00000000      -0.48849565      -0.32112473      -0.25614423
H        0.00000000       0.00000000       0.00000000       0.24043375       0.67712855       0.85978776
O        0.00000000       0.00000000       0.00000000      -0.40948153       0.96235430      -0.28555048
H        0.00000000       0.00000000       0.00000000      -0.33636743      -0.46591938      -0.68906462
H        0.00000000       0.00000000       0.00000000       0.05950850      -0.32732153       0.31550449
H        0.00000000       0.00000000       0.00000000       0.75913412      -0.27512506       0.10856831
7
Lattice="529.1772105638412 0.0 0.0 0.0 529.1772105638412 0.0 0.0 0.0 529.1772105638412" Properties=species:S:1:pos:R:3:forces_component_raw:R:3 ipi_comment="Step:       14720  Bead:       0 forces_component_raw{ase}  cell{ase}" pbc="T T T"
O        0.00000000       0.00000000       0.00000000      -1.51297617      -1.72655940      -0.26404661
H        0.00000000       0.00000000       0.00000000       0.58470857       0.54849923      -0.38271993
H        0.00000000       0.00000000       0.00000000       0.24675620       0.68936718       0.21975607
O        0.00000000       0.00000000       0.00000000       0.58500773       0.20597661      -0.37334704
H        0.00000000       0.00000000       0.00000000       0.03422891       0.22954598       0.77534676
H        0.00000000       0.00000000       0.00000000       0.08009553       0.15532222      -0.08373106
H        0.00000000       0.00000000       0.00000000      -0.01782084      -0.10215175       0.10874176
7
Lattice="529.1772105638412 0.0 0.0 0.0 529.1772105638412 0.0 0.0 0.0 529.1772105638412" Properties=species:S:1:pos:R:3:forces_component_raw:R:3 ipi_comment="Step:       14740  Bead:       0 forces_component_raw{ase}  cell{ase}" pbc="T T T"
O        0.00000000       0.00000000       0.00000000      -0.27140886       0.05039358       1.70148707
H        0.00000000       0.00000000       0.00000000       0.10435460       0.13544107      -1.48873175
H        0.00000000       0.00000000       0.00000000       0.04447803      -0.24665576       0.23417544
O        0.00000000       0.00000000       0.00000000       0.49212510      -0.98938918       0.72994757
H        0.00000000       0.00000000       0.00000000       0.05629021       0.05265391      -0.52752406
H        0.00000000       0.00000000       0.00000000       0.25657469       0.43764120      -0.53897691
H        0.00000000       0.00000000       0.00000000      -0.68241382       0.55991566      -0.11037746
7
Lattice="529.1772105638412 0.0 0.0 0.0 529.1772105638412 0.0 0.0 0.0 529.1772105638412" Properties=species:S:1:pos:R:3:forces_component_raw:R:3 ipi_comment="Step:       14760  Bead:       0 forces_component_raw{ase}  cell{ase}" pbc="T T T"
O        0.00000000       0.00000000       0.00000000      -0.39209080      -0.70204783       1.50799430
H        0.00000000       0.00000000       0.00000000       0.48456335       0.76666981      -1.10932350
H        0.00000000       0.00000000       0.00000000       0.02850017      -0.01114178      -0.51658106
O        0.00000000       0.00000000       0.00000000       0.86172158      -1.20667219       0.36362231
H        0.00000000       0.00000000       0.00000000       0.15764114      -0.00711215       0.21346824
H        0.00000000       0.00000000       0.00000000       0.14532025       0.33085811      -0.34052181
H        0.00000000       0.00000000       0.00000000      -1.28565562       0.82944578      -0.11865866
7
Lattice="529.1772105638412 0.0 0.0 0.0 529.1772105638412 0.0 0.0 0.0 529.1772105638412" Properties=species:S:1:pos:R:3:forces_component_raw:R:3 ipi_comment="Step:       14780  Bead:       0 forces_component_raw{ase}  cell{ase}" pbc="T T T"
O        0.00000000       0.00000000       0.00000000       1.07683635       0.33658826       0.28873807
H        0.00000000       0.00000000       0.00000000      -0.06859149       0.01030993      -0.41266471
H        0.00000000       0.00000000       0.00000000      -0.32967788      -0.21942312       0.01241028
O        0.00000000       0.00000000       0.00000000      -0.33622587      -0.11003405      -0.06317627
H        0.00000000       0.00000000       0.00000000      -0.46387914       0.17025915      -0.00591245
H        0.00000000       0.00000000       0.00000000      -0.02325653      -0.24401903       0.18431461
H        0.00000000       0.00000000       0.00000000       0.14479458       0.05631852      -0.00370957
7
Lattice="529.1772105638412 0.0 0.0 0.0 529.1772105638412 0.0 0.0 0.0 529.1772105638412" Properties=species:S:1:pos:R:3:forces_component_raw:R:3 ipi_comment="Step:       14800  Bead:       0 forces_component_raw{ase}  cell{ase}" pbc="T T T"
O        0.00000000       0.00000000       0.00000000       0.73388928       0.60649717       0.28489900
H        0.00000000       0.00000000       0.00000000      -0.07993314      -0.12082768       0.77144367
H        0.00000000       0.00000000       0.00000000      -0.64610332      -0.24704927      -0.80920482
O        0.00000000       0.00000000       0.00000000      -1.26619721       2.13710261      -1.06104565
H        0.00000000       0.00000000       0.00000000       0.51389706      -0.57550264      -0.35323578
H        0.00000000       0.00000000       0.00000000      -0.12080267      -0.82813001       0.95560080
H        0.00000000       0.00000000       0.00000000       0.86525041      -0.97209013       0.21154273
7
Lattice="529.1772105638412 0.0 0.0 0.0 529.1772105638412 0.0 0.0 0.0 529.1772105638412" Properties=species:S:1:pos:R:3:forces_component_raw:R:3 ipi_comment="Step:       14820  Bead:       0 forces_component_raw{ase}  cell{ase}" pbc="T T T"
O        0.00000000       0.00000000       0.00000000       1.72718227       0.83799410      -0.38216722
H        0.00000000       0.00000000       0.00000000      -0.42722568      -0.39431945       1.16550803
H        0.00000000       0.00000000       0.00000000      -1.20261264      -0.52884257      -0.87347269
O        0.00000000       0.00000000       0.00000000      -0.71599054       1.67848015      -0.90101040
H        0.00000000       0.00000000       0.00000000      -0.38423914       0.33906180       0.04482168
H        0.00000000       0.00000000       0.00000000      -0.41517928      -0.76688373       0.84590823
H        0.00000000       0.00000000       0.00000000       1.41806484      -1.16549003       0.10041210
7
Lattice="529.1772105638412 0.0 0.0 0.0 529.1772105638412 0.0 0.0 0.0 529.1772105638412" Properties=species:S:1:pos:R:3:forces_component_raw:R:3 ipi_comment="Step:       14840  Bead:       0 forces_component_raw{ase}  cell{ase}" pbc="T T T"
O        0.00000000       0.00000000       0.00000000       0.77570641       0.44416860      -0.50808275
H        0.00000000       0.00000000       0.00000000      -0.32427836      -0.29750866       1.39003384
H        0.00000000       0.00000000       0.00000000      -0.54083008      -0.09992112      -0.92868555
O        0.00000000       0.00000000       0.00000000      -1.10440612       1.37118960       0.16206944
H        0.00000000       0.00000000       0.00000000       0.27767924      -0.31534532       0.18809739
H        0.00000000       0.00000000       0.00000000       0.28708571      -0.35343826       0.14157480
H        0.00000000       0.00000000       0.00000000       0.62904346      -0.74914473      -0.44500697
7
Lattice="529.1772105638412 0.0 0.0 0.0 529.1772105638412 0.0 0.0 0.0 529.1772105638412" Properties=species:S:1:pos:R:3:forces_component_raw:R:3 ipi_comment="Step:       14860  Bead:       0 forces_component_raw{ase}  cell{ase}" pbc="T T T"
O        0.00000000       0.00000000       0.00000000       0.76224548       0.30931550      -0.47821292
H        0.00000000       0.00000000       0.00000000      -0.65427905      -0.31013253       0.52998644
H        0.00000000       0.00000000       0.00000000       0.14215535       0.03626702       0.17383087
O        0.00000000       0.00000000       0.00000000       0.38967800      -0.57455629       0.62852264
H        0.00000000       0.00000000       0.00000000      -0.15002671       0.28139663      -0.51790285
H        0.00000000       0.00000000       0.00000000      -0.44687682       0.37554610      -0.41177553
H        0.00000000       0.00000000       0.00000000      -0.04289600      -0.11783642       0.07555133
7
Lattice="529.1772105638412 0.0 0.0 0.0 529.1772105638412 0.0 0.0 0.0 529.1772105638412" Properties=species:S:1:pos:R:3:forces_component_raw:R:3 ipi_comment="Step:       14880  Bead:       0 forces_component_raw{ase}  cell{ase}" pbc="T T T"
O        0.00000000       0.00000000       0.00000000      -0.11263114      -0.02961992      -0.88748300
H        0.00000000       0.00000000       0.00000000       0.09225094       0.02477364      -0.02861738
H        0.00000000       0.00000000       0.00000000       0.15547913       0.05045609       0.36408967
O        0.00000000       0.00000000       0.00000000       0.51076144      -2.35564232       0.39874077
H        0.00000000       0.00000000       0.00000000       0.22050923      -0.00255652       0.93385649
H        0.00000000       0.00000000       0.00000000       0.14457624       1.27872300      -1.17073536
H        0.00000000       0.00000000       0.00000000      -1.01094568       1.03386617       0.39014879
7
Lattice="529.1772105638412 0.0 0.0 0.0 529.1772105638412 0.0 0.0 0.0 529.1772105638412" Properties=species:S:1:pos:R:3:forces_component_raw:R:3 ipi_comment="Step:       14900  Bead:       0 forces_component_raw{ase}  cell{ase}" pbc="T T T"
O        0.00000000       0.00000000       0.00000000      -0.27853775       0.42946279       1.45684028
H        0.00000000       0.00000000       0.00000000       0.41079158      -0.23662315      -0.90687823
H        0.00000000       0.00000000       0.00000000       0.56820244       0.16508584      -0.06828743
O        0.00000000       0.00000000       0.00000000       0.85597754      -2.05815888       0.62417638
H        0.00000000       0.00000000       0.00000000      -0.42838276      -0.14970343      -0.91589856
H        0.00000000       0.00000000       0.00000000      -0.14581402       0.99117744      -0.67092514
H        0.00000000       0.00000000       0.00000000      -0.98223722       0.85875958       0.48097295
7
Lattice="529.1772105638412 0.0 0.0 0.0 529.1772105638412 0.0 0.0 0.0 529.1772105638412" Properties=species:S:1:pos:R:3:forces_component_raw:R:3 ipi_comment="Step:       14920  Bead:       0 forces_component_raw{ase}  cell{ase}" pbc="T T T"
O        0.00000000       0.00000000       0.00000000      -0.00076759       0.78822524       1.15430808
H        0.00000000       0.00000000       0.00000000       0.76940924      -0.54936141      -1.74175859
H        0.00000000       0.00000000       0.00000000      -0.44663453      -0.16161457       0.03539747
O        0.00000000       0.00000000       0.00000000      -0.18054786      -0.91907704      -0.26918995
H        0.00000000       0.00000000       0.00000000       0.37072474      -0.19888760       0.59998167
H        0.00000000       0.00000000       0.00000000       0.34779465       0.12349510      -0.12178391
H        0.00000000       0.00000000       0.00000000      -0.85997862       0.91722024       0.34304521
7
Lattice="529.1772105638412 0.0 0.0 0.0 529.1772105638412 0.0 0.0 0.0 529.1772105638412" Properties=species:S:1:pos:R:3:forces_component_raw:R:3 ipi_comment="Step:       14940  Bead:       0 forces_component_raw{ase}  cell{ase}" pbc="T T T"
O        0.00000000       0.00000000       0.00000000      -0.67650438       0.11563075       0.60234195
H        0.00000000       0.00000000       0.00000000       0.22245702      -0.41589958      -0.97289825
H        0.00000000       0.00000000       0.00000000       0.33600915       0.03900366       0.51945758
O        0.00000000       0.00000000       0.00000000       0.41109580       1.15516007      -0.17026901
H        0.00000000       0.00000000       0.00000000      -0.33629683       0.41588128      -0.38318449
H        0.00000000       0.00000000       0.00000000      -0.36815006      -0.67946309       0.51430732
H        0.00000000       0.00000000       0.00000000       0.41138923      -0.63031292      -0.10975486
7
Lattice="529.1772105638412 0.0 0.0 0.0 529.1772105638412 0.0 0.0 0.0 529.1772105638412" Properties=species:S:1:pos:R:3:forces_component_raw:R:3 ipi_comment="Step:       14960  Bead:       0 forces_component_raw{ase}  cell{ase}" pbc="T T T"
O        0.00000000       0.00000000       0.00000000      -0.99153048      -0.29775643      -0.92633105
H        0.00000000       0.00000000       0.00000000      -0.08367103       0.21695280       0.32526261
H        0.00000000       0.00000000       0.00000000       0.71245861       0.02068374       0.70925456
O        0.00000000       0.00000000       0.00000000      -0.68516737       1.93553400      -0.16006231
H        0.00000000       0.00000000       0.00000000       0.30545160      -0.23025930      -0.10369301
H        0.00000000       0.00000000       0.00000000       0.02416492      -0.75602824       0.43720287
H        0.00000000       0.00000000       0.00000000       0.71829355      -0.88912672      -0.28163353
7
Lattice="529.1772105638412 0.0 0.0 0.0 529.1772105638412 0.0 0.0 0.0 529.1772105638412" Properties=species:S:1:pos:R:3:forces_component_raw:R:3 ipi_comment="Step:       14980  Bead:       0 forces_component_raw{ase}  cell{ase}" pbc="T T T"
O        0.00000000       0.00000000       0.00000000       0.06683916      -0.52510524      -1.18111217
H        0.00000000       0.00000000       0.00000000      -0.56812126       0.48562706       0.93531394
H        0.00000000       0.00000000       0.00000000       0.21189082       0.00172094       0.34776032
O        0.00000000       0.00000000       0.00000000      -0.01754785       0.81744057      -0.12696958
H        0.00000000       0.00000000       0.00000000      -0.05017108       0.10224819       0.00750563
H        0.00000000       0.00000000       0.00000000      -0.26460064       0.07551181       0.19945568
H        0.00000000       0.00000000       0.00000000       0.62171096      -0.95744312      -0.18195373
7
Lattice="529.1772105638412 0.0 0.0 0.0 529.1772105638412 0.0 0.0 0.0 529.1772105638412" Properties=species:S:1:pos:R:3:forces_component_raw:R:3 ipi_comment="Step:       15000  Bead:       0 forces_component_raw{ase}  cell{ase}" pbc="T T T"
O        0.00000000       0.00000000       0.00000000       0.55481279      -0.11816883      -0.07511640
H        0.00000000       0.00000000       0.00000000      -0.29411495       0.23653221       0.53827179
H        0.00000000       0.00000000       0.00000000       0.12049130       0.01783520      -0.45834231
O        0.00000000       0.00000000       0.00000000      -1.06062007      -0.62838656       0.91722739
H        0.00000000       0.00000000       0.00000000      -0.28333795       0.00004748       0.15094548
H        0.00000000       0.00000000       0.00000000       0.32405582       0.60368645      -0.51496273
H        0.00000000       0.00000000       0.00000000       0.63871288      -0.11154574      -0.55802322
7
Lattice="529.1772105638412 0.0 0.0 0.0 529.1772105638412 0.0 0.0 0.0 529.1772105638412" Properties=species:S:1:pos:R:3:forces_component_raw:R:3 ipi_comment="Step:       15020  Bead:       0 forces_component_raw{ase}  cell{ase}" pbc="T T T"
O        0.00000000       0.00000000       0.00000000       0.47010008      -0.30044353       1.33201504
H        0.00000000       0.00000000       0.00000000       0.02358973       0.18511868       0.01981074
H        0.00000000       0.00000000       0.00000000      -0.63919181       0.26554629      -1.46137476
O        0.00000000       0.00000000       0.00000000      -0.12214807      -0.85717631      -0.22086561
H        0.00000000       0.00000000       0.00000000       0.43227941      -0.32785988       0.29636037
H        0.00000000       0.00000000       0.00000000      -0.05965096       1.41058898      -0.03922075
H        0.00000000       0.00000000       0.00000000      -0.10497856      -0.37577415       0.07327515
7
Lattice="529.1772105638412 0.0 0.0 0.0 529.1772105638412 0.0 0.0 0.0 529.1772105638412" Properties=species:S:1:pos:R:3:forces_component_raw:R:3 ipi_comment="Step:       15040  Bead:       0 forces_component_raw{ase}  cell{ase}" pbc="T T T"
O        0.00000000       0.00000000       0.00000000       0.29946917       0.03667903       1.66622138
H        0.00000000       0.00000000       0.00000000       0.07845351      -0.17570627      -0.32361466
H        0.00000000       0.00000000       0.00000000      -0.43860793       0.10696638      -0.91533125
O        0.00000000       0.00000000       0.00000000      -0.10529611      -1.50846029      -0.04973209
H        0.00000000       0.00000000       0.00000000      -0.02388555       0.08972934      -0.44915786
H        0.00000000       0.00000000       0.00000000       0.32612380       0.90939117      -0.23154676
H        0.00000000       0.00000000       0.00000000      -0.13625690       0.54140031       0.30316109
7
Lattice="529.1772105638412 0.0 0.0 0.0 529.1772105638412 0.0 0.0 0.0 529.1772105638412" Properties=species:S:1:pos:R:3:forces_component_raw:R:3 ipi_comment="Step:       15060  Bead:       0 forces_component_raw{ase}  cell{ase}" pbc="T T T"
O        0.00000000       0.00000000       0.00000000       0.49365968       0.10009527      -0.32919109
H        0.00000000       0.00000000       0.00000000      -0.08841550       0.03804171       0.07985139
H        0.00000000       0.00000000       0.00000000      -0.35275406      -0.08500722       0.17032361
O        0.00000000       0.00000000       0.00000000       0.76709151      -1.60788608      -0.79238969
H        0.00000000       0.00000000       0.00000000      -0.41706231      -0.24437624       0.05104148
H        0.00000000       0.00000000       0.00000000       0.43250498       0.61422581      -0.10254413
H        0.00000000       0.00000000       0.00000000      -0.83502412       1.18490660       0.92290849
7
Lattice="529.1772105638412 0.0 0.0 0.0 529.1772105638412 0.0 0.0 0.0 529.1772105638412" Properties=species:S:1:pos:R:3:forces_component_raw:R:3 ipi_comment="Step:       15080  Bead:       0 forces_component_raw{ase}  cell{ase}" pbc="T T T"
O        0.00000000       0.00000000       0.00000000      -0.25559080      -0.50290007      -0.10517597
H        0.00000000       0.00000000       0.00000000       0.03550252       0.08170217       0.04638916
H        0.00000000       0.00000000       0.00000000       0.03934228       0.17333430       0.18083686
O        0.00000000       0.00000000       0.00000000       0.03801042      -0.91396827      -0.50683773
H        0.00000000       0.00000000       0.00000000       0.95398796       0.52002818      -0.42571992
H        0.00000000       0.00000000       0.00000000      -0.22947842      -0.64142567       0.08030404
H        0.00000000       0.00000000       0.00000000      -0.58177406       1.28322935       0.73020363
7
Lattice="529.1772105638412 0.0 0.0 0.0 529.1772105638412 0.0 0.0 0.0 529.1772105638412" Properties=species:S:1:pos:R:3:forces_component_raw:R:3 ipi_comment="Step:       15100  Bead:       0 forces_component_raw{ase}  cell{ase}" pbc="T T T"
O        0.00000000       0.00000000       0.00000000      -0.27524537      -0.49084050      -0.30056894
H        0.00000000       0.00000000       0.00000000      -0.24824737       0.37814638       0.58972985
H        0.00000000       0.00000000       0.00000000      -0.10701501       0.03626525       0.01861858
O        0.00000000       0.00000000       0.00000000       1.73953998       1.48381567      -0.94156051
H        0.00000000       0.00000000       0.00000000      -0.00353035      -0.23678137       0.00819537
H        0.00000000       0.00000000       0.00000000      -0.69654417      -0.93980199       0.38621500
H        0.00000000       0.00000000       0.00000000      -0.40895781      -0.23080337       0.23937064
7
Lattice="529.1772105638412 0.0 0.0 0.0 529.1772105638412 0.0 0.0 0.0 529.1772105638412" Properties=species:S:1:pos:R:3:forces_component_raw:R:3 ipi_comment="Step:       15120  Bead:       0 forces_component_raw{ase}  cell{ase}" pbc="T T T"
O        0.00000000       0.00000000       0.00000000       0.21407807      -0.20351470      -1.52152324
H        0.00000000       0.00000000       0.00000000       0.10836935       0.33187825       0.83347660
H        0.00000000       0.00000000       0.00000000      -0.05670365      -0.19868529       0.06531554
O        0.00000000       0.00000000       0.00000000      -0.71809292       1.56697905       0.39941871
H        0.00000000       0.00000000       0.00000000      -0.23805682       0.02632514       0.87296707
H        0.00000000       0.00000000       0.00000000      -0.09186542      -1.31268049       0.00200057
H        0.00000000       0.00000000       0.00000000       0.78227145      -0.21030194      -0.65165562
7
Lattice="529.1772105638412 0.0 0.0 0.0 529.1772105638412 0.0 0.0 0.0 529.1772105638412" Properties=species:S:1:pos:R:3:forces_component_raw:R:3 ipi_comment="Step:       15140  Bead:       0 forces_component_raw{ase}  cell{ase}" pbc="T T T"
O        0.00000000       0.00000000       0.00000000      -0.03736669       0.40220720       0.29543221
H        0.00000000       0.00000000       0.00000000      -0.22047731      -0.07068636       0.24122453
H        0.00000000       0.00000000       0.00000000       0.23524675      -0.19926077      -0.11182843
O        0.00000000       0.00000000       0.00000000       0.42172074       1.77426231      -0.46122050
H        0.00000000       0.00000000       0.00000000      -0.12129191       0.02458295      -0.56744820
H        0.00000000       0.00000000       0.00000000      -0.57200122      -0.63393128       0.72598422
H        0.00000000       0.00000000       0.00000000       0.29416943      -1.29717422      -0.12214398
7
Lattice="529.1772105638412 0.0 0.0 0.0 529.1772105638412 0.0 0.0 0.0 529.1772105638412" Properties=species:S:1:pos:R:3:forces_component_raw:R:3 ipi_comment="Step:       15160  Bead:       0 forces_component_raw{ase}  cell{ase}" pbc="T T T"
O        0.00000000       0.00000000       0.00000000       0.09027517       0.25615192       0.73581100
H        0.00000000       0.00000000       0.00000000       0.05971476      -0.44412357      -0.88030541
H        0.00000000       0.00000000       0.00000000       0.08366065       0.08410645       0.09218429
O        0.00000000       0.00000000       0.00000000      -1.14699245      -0.41344607       1.34307838
H        0.00000000       0.00000000       0.00000000       0.05767638       0.54478598      -0.07052653
H        0.00000000       0.00000000       0.00000000       0.17960286       0.43890286      -0.41333190
H        0.00000000       0.00000000       0.00000000       0.67606276      -0.46637756      -0.80690974
7
Lattice="529.1772105638412 0.0 0.0 0.0 529.1772105638412 0.0 0.0 0.0 529.1772105638412" Properties=species:S:1:pos:R:3:forces_component_raw:R:3 ipi_comment="Step:       15180  Bead:       0 forces_component_raw{ase}  cell{ase}" pbc="T T T"
O        0.00000000       0.00000000       0.00000000      -0.27697462       1.15222287       1.44992733
H        0.00000000       0.00000000       0.00000000       0.18857676      -0.53926468      -1.70209182
H        0.00000000       0.00000000       0.00000000       0.39533609      -0.12372977      -0.23292598
O        0.00000000       0.00000000       0.00000000      -0.14707261      -1.27015114       0.50249982
H        0.00000000       0.00000000       0.00000000       0.09085862      -0.68023718       0.27550879
H        0.00000000       0.00000000       0.00000000       0.07466829       1.10161209      -0.71599972
H        0.00000000       0.00000000       0.00000000      -0.32539266       0.35954779       0.42308176
7
Lattice="529.1772105638412 0.0 0.0 0.0 529.1772105638412 0.0 0.0 0.0 529.1772105638412" Properties=species:S:1:pos:R:3:forces_component_raw:R:3 ipi_comment="Step:       15200  Bead:       0 forces_component_raw{ase}  cell{ase}" pbc="T T T"
O        0.00000000       0.00000000       0.00000000      -0.10583699       0.56618798       0.78484875
H        0.00000000       0.00000000       0.00000000       0.09814695      -0.58408350      -0.88376832
H        0.00000000       0.00000000       0.00000000      -0.00498191      -0.13808054       0.20498693
O        0.00000000       0.00000000       0.00000000       1.03052879      -2.60251117      -1.09207845
H        0.00000000       0.00000000       0.00000000      -0.19590206       0.65183675      -0.29752556
H        0.00000000       0.00000000       0.00000000      -0.60320360       1.56182194       0.00771248
H        0.00000000       0.00000000       0.00000000      -0.21875118       0.54482865       1.27582383
7
Lattice="529.1772105638412 0.0 0.0 0.0 529.1772105638412 0.0 0.0 0.0 529.1772105638412" Properties=species:S:1:pos:R:3:forces_component_raw:R:3 ipi_comment="Step:       15220  Bead:       0 forces_component_raw{ase}  cell{ase}" pbc="T T T"
O        0.00000000       0.00000000       0.00000000       0.19640231       0.80945397       0.03109908
H        0.00000000       0.00000000       0.00000000      -0.17545356       0.07359859       0.03120220
H        0.00000000       0.00000000       0.00000000      -0.22501528      -0.73678398       0.04037318
O        0.00000000       0.00000000       0.00000000       0.11445481      -1.90279353      -0.28329611
H        0.00000000       0.00000000       0.00000000      -0.01732045      -0.34424824       0.30057806
H        0.00000000       0.00000000       0.00000000       0.10908040       1.57368839      -0.48118258
H        0.00000000       0.00000000       0.00000000      -0.00214805       0.52708501       0.36122620
7
Lattice="529.1772105638412 0.0 0.0 0.0 529.1772105638412 0.0 0.0 0.0 529.1772105638412" Properties=species:S:1:pos:R:3:forces_component_raw:R:3 ipi_comment="Step:       15240  Bead:       0 forces_component_raw{ase}  cell{ase}" pbc="T T T"
O        0.00000000       0.00000000       0.00000000       0.13455880      -1.21714759      -0.76453865
H        0.00000000       0.00000000       0.00000000      -0.11815317       1.26096463       0.82428414
H        0.00000000       0.00000000       0.00000000      -0.49883908      -0.54059893       0.22428107
O        0.00000000       0.00000000       0.00000000       0.38355506      -0.25049400      -0.64850360
H        0.00000000       0.00000000       0.00000000      -0.03173985       0.23528630       0.25196278
H        0.00000000       0.00000000       0.00000000       0.01747431       0.72470695       0.22922015
H        0.00000000       0.00000000       0.00000000       0.11314407      -0.21271721      -0.11670601
7
Lattice="529.1772105638412 0.0 0.0 0.0 529.1772105638412 0.0 0.0 0.0 529.1772105638412" Properties=species:S:1:pos:R:3:forces_component_raw:R:3 ipi_comment="Step:       15260  Bead:       0 forces_component_raw{ase}  cell{ase}" pbc="T T T"
O        0.00000000       0.00000000       0.00000000       0.36786732      -1.47187949      -0.90108377
H        0.00000000       0.00000000       0.00000000      -0.27263549       1.32548821       1.05122948
H        0.00000000       0.00000000       0.00000000      -0.19129771      -0.03162378       0.16854334
O        0.00000000       0.00000000       0.00000000      -0.23892927       2.09306956       1.35542476
H        0.00000000       0.00000000       0.00000000       0.30364233      -0.02663723      -0.67154670
H        0.00000000       0.00000000       0.00000000      -0.35193080      -1.65927184      -0.32334301
H        0.00000000       0.00000000       0.00000000       0.38328362      -0.22914547      -0.67922402
7
Lattice="529.1772105638412 0.0 0.0 0.0 529.1772105638412 0.0 0.0 0.0 529.1772105638412" Properties=species:S:1:pos:R:3:forces_component_raw:R:3 ipi_comment="Step:       15280  Bead:       0 forces_component_raw{ase}  cell{ase}" pbc="T T T"
O        0.00000000       0.00000000       0.00000000       0.64546228       0.03111267      -1.17148209
H        0.00000000       0.00000000       0.00000000      -0.14214748       0.58183468       0.45244151
H        0.00000000       0.00000000       0.00000000       0.15444383      -0.21263319       0.07339418
O        0.00000000       0.00000000       0.00000000       0.95526850       2.21307970       0.84340441
H        0.00000000       0.00000000       0.00000000      -0.26396138      -0.20982418       0.51892501
H        0.00000000       0.00000000       0.00000000      -1.36303926      -1.77161646       0.00133246
H        0.00000000       0.00000000       0.00000000       0.01397350      -0.63195330      -0.71801555
7
Lattice="529.1772105638412 0.0 0.0 0.0 529.1772105638412 0.0 0.0 0.0 529.1772105638412" Properties=species:S:1:pos:R:3:forces_component_raw:R:3 ipi_comment="Step:       15300  Bead:       0 forces_component_raw{ase}  cell{ase}" pbc="T T T"
O        0.00000000       0.00000000       0.00000000      -0.05567068      -0.04943407       0.42445588
H        0.00000000       0.00000000       0.00000000       0.16408934      -0.17113978      -0.21718919
H        0.00000000       0.00000000       0.00000000       0.02910298       0.12086049      -0.17517340
O        0.00000000       0.00000000       0.00000000      -1.11394775      -0.40978056       1.01772928
H        0.00000000       0.00000000       0.00000000       0.11540234       0.38533890      -0.23558354
H        0.00000000       0.00000000       0.00000000       0.21059158      -0.12938631      -0.41620690
H        0.00000000       0.00000000       0.00000000       0.65043211       0.25354141      -0.39803219
7
Lattice="529.1772105638412 0.0 0.0 0.0 529.1772105638412 0.0 0.0 0.0 529.1772105638412" Properties=species:S:1:pos:R:3:forces_component_raw:R:3 ipi_comment="Step:       15320  Bead:       0 forces_component_raw{ase}  cell{ase}" pbc="T T T"
O        0.00000000       0.00000000       0.00000000      -1.26657045       1.41747415       1.08233321
H        0.00000000       0.00000000       0.00000000       0.99088836      -1.54278076      -1.01102090
H        0.00000000       0.00000000       0.00000000       0.09537226       0.13078129       0.21548516
O        0.00000000       0.00000000       0.00000000       0.44531244      -0.34513438      -1.36334515
H        0.00000000       0.00000000       0.00000000      -0.31801981      -0.07214212      -0.10566539
H        0.00000000       0.00000000       0.00000000       0.41471028       0.59985554       0.59063029
H        0.00000000       0.00000000       0.00000000      -0.36169309      -0.18805379       0.59158290
7
Lattice="529.1772105638412 0.0 0.0 0.0 529.1772105638412 0.0 0.0 0.0 529.1772105638412" Properties=species:S:1:pos:R:3:forces_component_raw:R:3 ipi_comment="Step:       15340  Bead:       0 forces_component_raw{ase}  cell{ase}" pbc="T T T"
O        0.00000000       0.00000000       0.00000000      -2.16228056       1.73989511       1.94546891
H        0.00000000       0.00000000       0.00000000       1.03944278      -1.66628325      -1.54146397
H        0.00000000       0.00000000       0.00000000       0.45083693      -0.26837325      -0.14934450
O        0.00000000       0.00000000       0.00000000      -1.25759006      -1.19332052       0.07749409
H        0.00000000       0.00000000       0.00000000       0.37641305       0.03871423       0.09557718
H        0.00000000       0.00000000       0.00000000       1.04978085       0.83934093      -0.78119344
H        0.00000000       0.00000000       0.00000000       0.50339699       0.51002693       0.35346186
7
Lattice="529.1772105638412 0.0 0.0 0.0 529.1772105638412 0.0 0.0 0.0 529.1772105638412" Properties=species:S:1:pos:R:3:forces_component_raw:R:3 ipi_comment="Step:       15360  Bead:       0 forces_component_raw{ase}  cell{ase}" pbc="T T T"
O        0.00000000       0.00000000       0.00000000      -0.16137284       0.55160761      -0.01603019
H        0.00000000       0.00000000       0.00000000       0.26400518      -0.62985510      -0.11957777
H        0.00000000       0.00000000       0.00000000      -0.28816363      -0.10840642       0.45704210
O        0.00000000       0.00000000       0.00000000      -0.11544986      -0.27252030      -0.98895264
H        0.00000000       0.00000000       0.00000000      -0.32145035      -0.17092767       0.07030514
H        0.00000000       0.00000000       0.00000000       1.06086457       1.00520885       0.22518498
H        0.00000000       0.00000000       0.00000000      -0.43843329      -0.37510708       0.37202829
7
Lattice="529.1772105638412 0.0 0.0 0.0 529.1772105638412 0.0 0.0 0.0 529.1772105638412" Properties=species:S:1:pos:R:3:forces_component_raw:R:3 ipi_comment="Step:       15380  Bead:       0 forces_component_raw{ase}  cell{ase}" pbc="T T T"
O        0.00000000       0.00000000       0.00000000      -0.28410125      -0.92891228       0.56034565
H        0.00000000       0.00000000       0.00000000      -0.28471670       0.71977198       0.10080814
H        0.00000000       0.00000000       0.00000000      -0.01174243       0.07696331      -0.33636314
O        0.00000000       0.00000000       0.00000000      -0.82451165      -0.47186983       1.01178491
H        0.00000000       0.00000000       0.00000000       0.63696170      -0.12616429      -0.06437135
H        0.00000000       0.00000000       0.00000000       0.60422164       0.59258247      -0.66100407
H        0.00000000       0.00000000       0.00000000       0.16388857       0.13762859      -0.61120057
7
Lattice="529.1772105638412 0.0 0.0 0.0 529.1772105638412 0.0 0.0 0.0 529.1772105638412" Properties=species:S:1:pos:R:3:forces_component_raw:R:3 ipi_comment="Step:       15400  Bead:       0 forces_component_raw{ase}  cell{ase}" pbc="T T T"
O        0.00000000       0.00000000       0.00000000       1.64897442      -1.85218382      -1.79311598
H        0.00000000       0.00000000       0.00000000      -0.73776239       1.38143814       1.30751109
H        0.00000000       0.00000000       0.00000000      -0.28983837       0.39843828       0.01217002
O        0.00000000       0.00000000       0.00000000       0.14030582      -0.02012992       0.86132848
H        0.00000000       0.00000000       0.00000000      -0.28793365       0.38045022       0.04782291
H        0.00000000       0.00000000       0.00000000       0.05221629       0.06266987       0.47794721
H        0.00000000       0.00000000       0.00000000      -0.52596223      -0.35068300      -0.91366404
7
Lattice="529.1772105638412 0.0 0.0 0.0 529.1772105638412 0.0 0.0 0.0 529.1772105638412" Properties=species:S:1:pos:R:3:forces_component_raw:R:3 ipi_comment="Step:       15420  Bead:       0 forces_component_raw{ase}  cell{ase}" pbc="T T T"
O        0.00000000       0.00000000       0.00000000       0.97511834      -0.63639915      -1.06064165
H        0.00000000       0.00000000       0.00000000      -0.82719499       1.28667259       1.16290593
H        0.00000000       0.00000000       0.00000000       0.24373731       0.17290711      -0.75864673
O        0.00000000       0.00000000       0.00000000       0.04747850      -0.56083810       1.71001470
H        0.00000000       0.00000000       0.00000000       0.19430596      -0.66173333       0.08123869
H        0.00000000       0.00000000       0.00000000      -0.57394582      -0.28587949      -0.32871491
H        0.00000000       0.00000000       0.00000000      -0.05949926       0.68527049      -0.80615592
7
Lattice="529.1772105638412 0.0 0.0 0.0 529.1772105638412 0.0 0.0 0.0 529.1772105638412" Properties=species:S:1:pos:R:3:forces_component_raw:R:3 ipi_comment="Step:       15440  Bead:       0 forces_component_raw{ase}  cell{ase}" pbc="T T T"
O        0.00000000       0.00000000       0.00000000       0.56300032      -0.31668633      -1.45520485
H        0.00000000       0.00000000       0.00000000      -0.30938307       0.39525399       1.19470239
H        0.00000000       0.00000000       0.00000000       0.00443086      -0.11454856       0.30382603
O        0.00000000       0.00000000       0.00000000       1.14603484       0.01137924       0.16303402
H        0.00000000       0.00000000       0.00000000      -0.23583491       0.68256897      -0.48538318
H        0.00000000       0.00000000       0.00000000      -0.67813730      -0.59970749       0.36360347
H        0.00000000       0.00000000       0.00000000      -0.49011079      -0.05826008      -0.08457780
7
Lattice="529.1772105638412 0.0 0.0 0.0 529.1772105638412 0.0 0.0 0.0 529.1772105638412" Properties=species:S:1:pos:R:3:forces_component_raw:R:3 ipi_comment="Step:       15460  Bead:       0 forces_component_raw{ase}  cell{ase}" pbc="T T T"
O        0.00000000       0.00000000       0.00000000      -0.40570879       1.59689415       0.62957573
H        0.00000000       0.00000000       0.00000000      -0.16687268      -0.03105813      -0.08736372
H        0.00000000       0.00000000       0.00000000       0.26674777      -1.15140760      -0.06063634
O        0.00000000       0.00000000       0.00000000      -0.74621117      -0.24330759      -0.43373731
H        0.00000000       0.00000000       0.00000000       0.25413588      -0.68048072      -0.01776497
H        0.00000000       0.00000000       0.00000000       0.05249167       0.35469413      -0.34726214
H        0.00000000       0.00000000       0.00000000       0.74541742       0.15466568       0.31718880
7
Lattice="529.1772105638412 0.0 0.0 0.0 529.1772105638412 0.0 0.0 0.0 529.1772105638412" Properties=species:S:1:pos:R:3:forces_component_raw:R:3 ipi_comment="Step:       15480  Bead:       0 forces_component_raw{ase}  cell{ase}" pbc="T T T"
O        0.00000000       0.00000000       0.00000000       0.15485597       0.98725564       0.04333520
H        0.00000000       0.00000000       0.00000000       0.07471448      -0.67032814      -0.90845764
H        0.00000000       0.00000000       0.00000000      -0.29795575      -0.90376449       0.75588042
O        0.00000000       0.00000000       0.00000000      -0.36793405       0.71567619      -1.96879507
H        0.00000000       0.00000000       0.00000000      -0.09939787       0.59927493       0.53637558
H        0.00000000       0.00000000       0.00000000      -0.10300380      -0.20867688       0.25289944
H        0.00000000       0.00000000       0.00000000       0.63872111      -0.51943714       1.28876233
7
Lattice="529.1772105638412 0.0 0.0 0.0 529.1772105638412 0.0 0.0 0.0 529.1772105638412" Properties=species:S:1:pos:R:3:forces_component_raw:R:3 ipi_comment="Step:       15500  Bead:       0 forces_component_raw{ase}  cell{ase}" pbc="T T T"
O        0.00000000       0.00000000       0.00000000       0.08707225       2.76319576       1.81895423
H        0.00000000       0.00000000       0.00000000      -0.69105673      -1.56081534      -1.66274333
H        0.00000000       0.00000000       0.00000000       0.13588613      -0.92650366       0.32719764
O        0.00000000       0.00000000       0.00000000       0.35150105       0.07453986       0.30541733
H        0.00000000       0.00000000       0.00000000       0.08897969      -0.51079530      -0.53345001
H        0.00000000       0.00000000       0.00000000      -0.25392532       0.20262189      -0.46689850
H        0.00000000       0.00000000       0.00000000       0.28154320      -0.04224323       0.21152264
7
Lattice="529.1772105638412 0.0 0.0 0.0 529.1772105638412 0.0 0.0 0.0 529.1772105638412" Properties=species:S:1:pos:R:3:forces_component_raw:R:3 ipi_comment="Step:       15520  Bead:       0 forces_component_raw{ase}  cell{ase}" pbc="T T T"
O        0.00000000       0.00000000       0.00000000      -0.04175508       1.93847609       0.08057737
H        0.00000000       0.00000000       0.00000000      -0.25364852      -1.16682792      -1.32272983
H        0.00000000       0.00000000       0.00000000       0.25854412      -0.81129766       0.53181988
O        0.00000000       0.00000000       0.00000000       0.82781732      -0.22680983       0.04794049
H        0.00000000       0.00000000       0.00000000       0.09886262       0.05843547       0.80046463
H        0.00000000       0.00000000       0.00000000      -0.36194021       0.05997922       0.20863086
H        0.00000000       0.00000000       0.00000000      -0.52788031       0.14804456      -0.34670347
7
Lattice="529.1772105638412 0.0 0.0 0.0 529.1772105638412 0.0 0.0 0.0 529.1772105638412" Properties=species:S:1:pos:R:3:forces_component_raw:R:3 ipi_comment="Step:       15540  Bead:       0 forces_component_raw{ase}  cell{ase}" pbc="T T T"
O        0.00000000       0.00000000       0.00000000       0.07329607      -0.36502153       0.52695304
H        0.00000000       0.00000000       0.00000000      -0.05989532       0.21768504       0.16803050
H        0.00000000       0.00000000       0.00000000       0.12647510       0.28433651      -0.47894067
O        0.00000000       0.00000000       0.00000000      -0.39096934      -0.08382189       0.69322586
H        0.00000000       0.00000000       0.00000000      -0.25916642       0.20459932      -0.67512894
H        0.00000000       0.00000000       0.00000000       0.57506651      -0.27258778      -0.29733390
H        0.00000000       0.00000000       0.00000000      -0.06480658       0.01481050       0.06319374
7
Lattice="529.1772105638412 0.0 0.0 0.0 529.1772105638412 0.0 0.0 0.0 529.1772105638412" Properties=species:S:1:pos:R:3:forces_component_raw:R:3 ipi_comment="Step:       15560  Bead:       0 forces_component_raw{ase}  cell{ase}" pbc="T T T"
O        0.00000000       0.00000000       0.00000000      -0.20485288      -1.92450607      -0.53899646
H        0.00000000       0.00000000       0.00000000      -0.20455566      -0.10740224       0.53837049
H        0.00000000       0.00000000       0.00000000       0.40055722       1.85938228      -0.09318924
O        0.00000000       0.00000000       0.00000000      -1.39434588       2.01328874      -0.71699250
H        0.00000000       0.00000000       0.00000000       0.38729194      -0.04015310       0.42505744
H        0.00000000       0.00000000       0.00000000       0.41674477      -1.53485465       0.08268459
H        0.00000000       0.00000000       0.00000000       0.59916055      -0.26575497       0.30306554
7
Lattice="529.1772105638412 0.0 0.0 0.0 529.1772105638412 0.0 0.0 0.0 529.1772105638412" Properties=species:S:1:pos:R:3:forces_component_raw:R:3 ipi_comment="Step:       15580  Bead:       0 forces_component_raw{ase}  cell{ase}" pbc="T T T"
O        0.00000000       0.00000000       0.00000000      -1.05369067      -2.56536270       0.54870927
H        0.00000000       0.00000000       0.00000000       0.23650870       0.48956627      -0.02402616
H        0.00000000       0.00000000       0.00000000       1.10136485       1.85772157      -0.66085893
O        0.00000000       0.00000000       0.00000000      -0.44915319       1.90820313      -0.56393957
H        0.00000000       0.00000000       0.00000000      -0.45487651       0.45869750      -0.39253527
H        0.00000000       0.00000000       0.00000000       0.30605286      -1.86481309       0.04363242
H        0.00000000       0.00000000       0.00000000       0.31379414      -0.28401294       1.04901815
7
Lattice="529.1772105638412 0.0 0.0 0.0 529.1772105638412 0.0 0.0 0.0 529.1772105638412" Properties=species:S:1:pos:R:3:forces_component_raw:R:3 ipi_comment="Step:       15600  Bead:       0 forces_component_raw{ase}  cell{ase}" pbc="T T T"
O        0.00000000       0.00000000       0.00000000       0.17677480       0.92367768       0.15384831
H        0.00000000       0.00000000       0.00000000      -0.10529389      -1.17215979      -0.99090505
H        0.00000000       0.00000000       0.00000000       0.28132767       0.60868168       0.25974867
O        0.00000000       0.00000000       0.00000000      -1.50215793       2.31580258       1.62315750
H        0.00000000       0.00000000       0.00000000       0.09421495      -0.36851248       0.19268721
H        0.00000000       0.00000000       0.00000000       0.62557602      -1.84177316      -1.18654657
H        0.00000000       0.00000000       0.00000000       0.42955822      -0.46571678      -0.05199021
7
Lattice="529.1772105638412 0.0 0.0 0.0 529.1772105638412 0.0 0.0 0.0 529.1772105638412" Properties=species:S:1:pos:R:3:forces_component_raw:R:3 ipi_comment="Step:       15620  Bead:       0 forces_component_raw{ase}  cell{ase}" pbc="T T T"
O        0.00000000       0.00000000       0.00000000       0.52533531       2.78617716       1.67053008
H        0.00000000       0.00000000       0.00000000       0.58770824      -1.50697077      -1.93957758
H        0.00000000       0.00000000       0.00000000      -0.62802464      -0.95658767      -0.48961288
O        0.00000000       0.00000000       0.00000000      -0.15495946      -0.18330169       0.54688597
H        0.00000000       0.00000000       0.00000000      -0.54771781       0.13770568       0.53954411
H        0.00000000       0.00000000       0.00000000       0.63070423      -0.68475509      -0.65157867
H        0.00000000       0.00000000       0.00000000      -0.41304565       0.40773213       0.32380879
7
Lattice="529.1772105638412 0.0 0.0 0.0 529.1772105638412 0.0 0.0 0.0 529.1772105638412" Properties=species:S:1:pos:R:3:forces_component_raw:R:3 ipi_comment="Step:       15640  Bead:       0 forces_component_raw{ase}  cell{ase}" pbc="T T T"
O        0.00000000       0.00000000       0.00000000       1.14070034       2.21458436       1.50865877
H        0.00000000       0.00000000       0.00000000      -0.08911887      -1.38475359      -1.00505018
H        0.00000000       0.00000000       0.00000000      -1.89441503      -0.67859507       0.12460046
O        0.00000000       0.00000000       0.00000000       0.59210593      -1.55303753      -0.46645793
H        0.00000000       0.00000000       0.00000000       0.72733283      -0.55909169       0.00940457
H        0.00000000       0.00000000       0.00000000      -0.60467416       0.82361663       0.26055312
H        0.00000000       0.00000000       0.00000000       0.12806866       1.13727677      -0.43170875
7
Lattice="529.1772105638412 0.0 0.0 0.0 529.1772105638412 0.0 0.0 0.0 529.1772105638412" Properties=species:S:1:pos:R:3:forces_component_raw:R:3 ipi_comment="Step:       15660  Bead:       0 forces_component_raw{ase}  cell{ase}" pbc="T T T"
O        0.00000000       0.00000000       0.00000000       0.88400233      -0.52099550       1.63718748
H        0.00000000       0.00000000       0.00000000       0.43688449       0.51731533      -0.40816403
H        0.00000000       0.00000000       0.00000000      -1.58869207      -0.55162227      -0.68429256
O        0.00000000       0.00000000       0.00000000       0.91752231      -1.69292367      -1.12550974
H        0.00000000       0.00000000       0.00000000       0.07009147       0.55393505      -0.10045552
H        0.00000000       0.00000000       0.00000000      -0.76260585       0.44800413       0.22449791
H        0.00000000       0.00000000       0.00000000       0.04279739       1.24628711       0.45673633
7
Lattice="529.1772105638412 0.0 0.0 0.0 529.1772105638412 0.0 0.0 0.0 529.1772105638412" Properties=species:S:1:pos:R:3:forces_component_raw:R:3 ipi_comment="Step:       15680  Bead:       0 forces_component_raw{ase}  cell{ase}" pbc="T T T"
O        0.00000000       0.00000000       0.00000000       0.79549223      -1.93719221       0.22287388
H        0.00000000       0.00000000       0.00000000      -0.29532617       1.39714003       0.98700941
H        0.00000000       0.00000000       0.00000000      -0.33832502       0.29715094      -0.36659134
O        0.00000000       0.00000000       0.00000000      -0.00631094      -0.54934669      -1.46701420
H        0.00000000       0.00000000       0.00000000      -0.05428617      -0.45906469      -0.41295889
H        0.00000000       0.00000000       0.00000000      -0.87061894       0.72814471       0.68928850
H        0.00000000       0.00000000       0.00000000       0.76937497       0.52316809       0.34739268
7
Lattice="529.1772105638412 0.0 0.0 0.0 529.1772105638412 0.0 0.0 0.0 529.1772105638412" Properties=species:S:1:pos:R:3:forces_component_raw:R:3 ipi_comment="Step:       15700  Bead:       0 forces_component_raw{ase}  cell{ase}" pbc="T T T"
O        0.00000000       0.00000000       0.00000000       0.47870946      -0.29375207      -2.57294703
H        0.00000000       0.00000000       0.00000000      -0.06880012       0.27732411       2.19298649
H        0.00000000       0.00000000       0.00000000      -0.37907827      -0.33027786       0.23333350
O        0.00000000       0.00000000       0.00000000       0.57829559      -0.68126899      -0.91891444
H        0.00000000       0.00000000       0.00000000      -0.19892544       0.79391986       0.63254011
H        0.00000000       0.00000000       0.00000000      -0.29482412       0.00707626       0.14500666
H        0.00000000       0.00000000       0.00000000      -0.11537719       0.22697854       0.28799462
7
Lattice="529.1772105638412 0.0 0.0 0.0 529.1772105638412 0.0 0.0 0.0 529.1772105638412" Properties=species:S:1:pos:R:3:forces_component_raw:R:3 ipi_comment="Step:       15720  Bead:       0 forces_component_raw{ase}  cell{ase}" pbc="T T T"
O        0.00000000       0.00000000       0.00000000      -0.87549091       0.42755115      -2.83896137
H        0.00000000       0.00000000       0.00000000       0.60872889      -0.60463107       1.73004270
H        0.00000000       0.00000000       0.00000000       0.58719963       0.58074945       0.36723924
O        0.00000000       0.00000000       0.00000000      -1.61924982       1.08166361       2.05848194
H        0.00000000       0.00000000       0.00000000       0.65333659      -0.02098516      -0.84711039
H        0.00000000       0.00000000       0.00000000       0.36600971      -0.07793245      -0.22164166
H        0.00000000       0.00000000       0.00000000       0.27946597      -1.38641525      -0.24805036
7
Lattice="529.1772105638412 0.0 0.0 0.0 529.1772105638412 0.0 0.0 0.0 529.1772105638412" Properties=species:S:1:pos:R:3:forces_component_raw:R:3 ipi_comment="Step:       15740  Bead:       0 forces_component_raw{ase}  cell{ase}" pbc="T T T"
O        0.00000000       0.00000000       0.00000000      -1.52869606       0.85538340      -1.34097863
H        0.00000000       0.00000000       0.00000000       1.08693385      -0.62285245       0.33180204
H        0.00000000       0.00000000       0.00000000       0.62412912       0.43091977       0.15732306
O        0.00000000       0.00000000       0.00000000      -1.19190932       0.94453681       0.71781087
H        0.00000000       0.00000000       0.00000000       0.27178508      -0.03284547       0.34736702
H        0.00000000       0.00000000       0.00000000       0.26624584      -0.15337306      -0.56990159
H        0.00000000       0.00000000       0.00000000       0.47151137      -1.42176891       0.35657734
7
Lattice="529.1772105638412 0.0 0.0 0.0 529.1772105638412 0.0 0.0 0.0 529.1772105638412" Properties=species:S:1:pos:R:3:forces_component_raw:R:3 ipi_comment="Step:       15760  Bead:       0 forces_component_raw{ase}  cell{ase}" pbc="T T T"
O        0.00000000       0.00000000       0.00000000       0.08767682      -0.26035929       1.54913438
H        0.00000000       0.00000000       0.00000000      -0.19609314       0.03990179      -0.21089257
H        0.00000000       0.00000000       0.00000000       0.32804930       0.28000730      -0.62368989
O        0.00000000       0.00000000       0.00000000       0.05815434       1.03184808       0.25095308
H        0.00000000       0.00000000       0.00000000      -0.75518334       0.27875882      -0.60534138
H        0.00000000       0.00000000       0.00000000       0.18437612      -0.25335801      -0.76032424
H        0.00000000       0.00000000       0.00000000       0.29301995      -1.11679864       0.40016067
7
Lattice="529.1772105638412 0.0 0.0 0.0 529.1772105638412 0.0 0.0 0.0 529.1772105638412" Properties=species:S:1:pos:R:3:forces_component_raw:R:3 ipi_comment="Step:       15780  Bead:       0 forces_component_raw{ase}  cell{ase}" pbc="T T T"
O        0.00000000       0.00000000       0.00000000      -0.09561774      -0.13203406       0.54920340
H        0.00000000       0.00000000       0.00000000      -0.67134899       0.21349084      -0.97406811
H        0.00000000       0.00000000       0.00000000      -0.31550756      -0.50447917       0.59906739
O        0.00000000       0.00000000       0.00000000       0.58318889       1.30640769      -0.43735743
H        0.00000000       0.00000000       0.00000000       0.78581435      -0.58178288       0.71607965
H        0.00000000       0.00000000       0.00000000      -0.16873330      -0.32059723      -0.40472996
H        0.00000000       0.00000000       0.00000000      -0.11779541       0.01899499      -0.04819471
7
Lattice="529.1772105638412 0.0 0.0 0.0 529.1772105638412 0.0 0.0 0.0 529.1772105638412" Properties=species:S:1:pos:R:3:forces_component_raw:R:3 ipi_comment="Step:       15800  Bead:       0 forces_component_raw{ase}  cell{ase}" pbc="T T T"
O        0.00000000       0.00000000       0.00000000       0.51696241      -0.24857074       1.31613171
H        0.00000000       0.00000000       0.00000000      -0.21991018       0.22965701      -0.87929285
H        0.00000000       0.00000000       0.00000000      -0.34930188      -0.10773742      -0.18795662
O        0.00000000       0.00000000       0.00000000       1.04191411      -1.51303530       0.80793053
H        0.00000000       0.00000000       0.00000000       0.16968095       0.86713028      -1.00657225
H        0.00000000       0.00000000       0.00000000      -0.30083805      -0.18063650      -0.36947167
H        0.00000000       0.00000000       0.00000000      -0.85850752       0.95319265       0.31923068
7
Lattice="529.1772105638412 0.0 0.0 0.0 529.1772105638412 0.0 0.0 0.0 529.1772105638412" Properties=species:S:1:pos:R:3:forces_component_raw:R:3 ipi_comment="Step:       15820  Bead:       0 forces_component_raw{ase}  cell{ase}" pbc="T T T"
O        0.00000000       0.00000000       0.00000000       1.18694949       0.84223670      -0.49382159
H        0.00000000       0.00000000       0.00000000      -0.82753402      -0.32221264      -0.51053679
H        0.00000000       0.00000000       0.00000000      -0.43123096      -0.08389583       0.85626531
O        0.00000000       0.00000000       0.00000000      -0.11417621      -1.70697451      -0.08778942
H        0.00000000       0.00000000       0.00000000       0.13761836      -0.61696339       0.07606868
H        0.00000000       0.00000000       0.00000000       0.02760789       0.25489214       0.01839399
H        0.00000000       0.00000000       0.00000000       0.02076539       1.63291765       0.14141971
7
Lattice="529.1772105638412 0.0 0.0 0.0 529.1772105638412 0.0 0.0 0.0 529.1772105638412" Properties=species:S:1:pos:R:3:forces_component_raw:R:3 ipi_comment="Step:       15840  Bead:       0 forces_component_raw{ase}  cell{ase}" pbc="T T T"
O        0.00000000       0.00000000       0.00000000      -0.29003489      -0.68609238       0.73869819
H        0.00000000       0.00000000       0.00000000       0.36831540       0.29435474      -0.65122765
H        0.00000000       0.00000000       0.00000000       0.55675054       0.33941770      -0.52417594
O        0.00000000       0.00000000       0.00000000      -0.76118660      -2.06368351      -0.31302941
H        0.00000000       0.00000000       0.00000000      -0.42855468       0.59264457      -0.08723584
H        0.00000000       0.00000000       0.00000000      -0.07159299       0.21866646       0.48262727
H        0.00000000       0.00000000       0.00000000       0.62630344       1.30469251       0.35434333
7
Lattice="529.1772105638412 0.0 0.0 0.0 529.1772105638412 0.0 0.0 0.0 529.1772105638412" Properties=species:S:1:pos:R:3:forces_component_raw:R:3 ipi_comment="Step:       15860  Bead:       0 forces_component_raw{ase}  cell{ase}" pbc="T T T"
O        0.00000000       0.00000000       0.00000000      -0.82226509       0.07727516      -0.88202054
H        0.00000000       0.00000000       0.00000000      -0.52862668       0.12336803      -0.03812253
H        0.00000000       0.00000000       0.00000000       0.96332705       0.21361762       0.81388068
O        0.00000000       0.00000000       0.00000000      -1.02558017       0.25152987      -0.64633984
H        0.00000000       0.00000000       0.00000000       1.16700566      -0.62024051      -0.16038747
H        0.00000000       0.00000000       0.00000000      -0.10523009      -0.03493261       0.62906295
H        0.00000000       0.00000000       0.00000000       0.35136962      -0.01061752       0.28392693
7
Lattice="529.1772105638412 0.0 0.0 0.0 529.1772105638412 0.0 0.0 0.0 529.1772105638412" Properties=species:S:1:pos:R:3:forces_component_raw:R:3 ipi_comment="Step:       15880  Bead:       0 forces_component_raw{ase}  cell{ase}" pbc="T T T"
O        0.00000000       0.00000000       0.00000000      -0.52294743      -0.82045639      -0.28585684
H        0.00000000       0.00000000       0.00000000       0.14451572       0.02936929       0.67669314
H        0.00000000       0.00000000       0.00000000       1.14326906       0.76762664      -0.14243530
O        0.00000000       0.00000000       0.00000000       0.17444873      -0.46214908      -1.10281849
H        0.00000000       0.00000000       0.00000000      -0.93748611       0.31108543       0.16550255
H        0.00000000       0.00000000       0.00000000      -0.05406302       0.48662695       0.53744161
H        0.00000000       0.00000000       0.00000000       0.05226320      -0.31210297       0.15147322
7
Lattice="529.1772105638412 0.0 0.0 0.0 529.1772105638412 0.0 0.0 0.0 529.1772105638412" Properties=species:S:1:pos:R:3:forces_component_raw:R:3 ipi_comment="Step:       15900  Bead:       0 forces_component_raw{ase}  cell{ase}" pbc="T T T"
O        0.00000000       0.00000000       0.00000000      -0.01145267       0.11583477      -1.60348249
H        0.00000000       0.00000000       0.00000000      -0.46559492      -0.36551380       1.11941040
H        0.00000000       0.00000000       0.00000000       0.40086633       0.26742020       0.65147793
O        0.00000000       0.00000000       0.00000000       0.60252190       0.68654084      -0.24702278
H        0.00000000       0.00000000       0.00000000       0.20246369      -0.27795127      -0.30690494
H        0.00000000       0.00000000       0.00000000      -0.39482582      -0.20449135       0.38050228
H        0.00000000       0.00000000       0.00000000      -0.33397865      -0.22183928       0.00601959
7
Lattice="529.1772105638412 0.0 0.0 0.0 529.1772105638412 0.0 0.0 0.0 529.1772105638412" Properties=species:S:1:pos:R:3:forces_component_raw:R:3 ipi_comment="Step:       15920  Bead:       0 forces_component_raw{ase}  cell{ase}" pbc="T T T"
O        0.00000000       0.00000000       0.00000000      -1.31633652      -1.81960154      -0.73135042
H        0.00000000       0.00000000       0.00000000       0.46494341       0.82883442       0.60955101
H        0.00000000       0.00000000       0.00000000       0.24366391       0.28874952      -0.08922990
O        0.00000000       0.00000000       0.00000000       0.02473307       1.03178883      -0.08602592
H        0.00000000       0.00000000       0.00000000       0.69085455       0.09125119       0.71789986
H        0.00000000       0.00000000       0.00000000       0.07983166       0.08502990       0.05158478
H        0.00000000       0.00000000       0.00000000      -0.18768996      -0.50605244      -0.47242940
7
Lattice="529.1772105638412 0.0 0.0 0.0 529.1772105638412 0.0 0.0 0.0 529.1772105638412" Properties=species:S:1:pos:R:3:forces_component_raw:R:3 ipi_comment="Step:       15940  Bead:       0 forces_component_raw{ase}  cell{ase}" pbc="T T T"
O        0.00000000       0.00000000       0.00000000       0.49333894       1.07569564       0.65898174
H        0.00000000       0.00000000       0.00000000      -0.21593463      -0.71920580      -0.37653184
H        0.00000000       0.00000000       0.00000000      -0.03568919      -0.36988694       0.31159169
O        0.00000000       0.00000000       0.00000000       0.52304065       1.55907679       0.16211772
H        0.00000000       0.00000000       0.00000000      -0.69753945      -0.59758359      -0.48910156
H        0.00000000       0.00000000       0.00000000       0.00995725      -0.25416532      -0.10900712
H        0.00000000       0.00000000       0.00000000      -0.07717353      -0.69393075      -0.15805066
7
Lattice="529.1772105638412 0.0 0.0 0.0 529.1772105638412 0.0 0.0 0.0 529.1772105638412" Properties=species:S:1:pos:R:3:forces_component_raw:R:3 ipi_comment="Step:       15960  Bead:       0 forces_component_raw{ase}  cell{ase}" pbc="T T T"
O        0.00000000       0.00000000       0.00000000      -0.09527858      -0.13034958       2.27240181
H        0.00000000       0.00000000       0.00000000       0.09463329       0.24038380      -1.64810467
H        0.00000000       0.00000000       0.00000000      -0.01618879      -0.25687707      -0.51960915
O        0.00000000       0.00000000       0.00000000      -0.06075548      -1.00753474       0.19873709
H        0.00000000       0.00000000       0.00000000      -0.04018196       0.68819165      -0.00509471
H        0.00000000       0.00000000       0.00000000       0.11867923       0.41462135      -0.31697261
H        0.00000000       0.00000000       0.00000000      -0.00090757       0.05156451       0.01864192
7
Lattice="529.1772105638412 0.0 0.0 0.0 529.1772105638412 0.0 0.0 0.0 529.1772105638412" Properties=species:S:1:pos:R:3:forces_component_raw:R:3 ipi_comment="Step:       15980  Bead:       0 forces_component_raw{ase}  cell{ase}" pbc="T T T"
O        0.00000000       0.00000000       0.00000000       0.18712050       1.28012657       1.33306015
H        0.00000000       0.00000000       0.00000000      -0.07876948      -0.50359297      -1.89361644
H        0.00000000       0.00000000       0.00000000      -0.19473098      -0.21827328       0.23343301
O        0.00000000       0.00000000       0.00000000       0.31460607      -0.63167840       0.28069723
H        0.00000000       0.00000000       0.00000000       0.57196629      -0.78924161       0.37982929
H        0.00000000       0.00000000       0.00000000       0.18049657      -0.13109338      -0.37121719
H        0.00000000       0.00000000       0.00000000      -0.98068899       0.99375308       0.03781369
7
Lattice="529.1772105638412 0.0 0.0 0.0 529.1772105638412 0.0 0.0 0.0 529.1772105638412" Properties=species:S:1:pos:R:3:forces_component_raw:R:3 ipi_comment="Step:       16000  Bead:       0 forces_component_raw{ase}  cell{ase}" pbc="T T T"
O        0.00000000       0.00000000       0.00000000       0.42486775      -0.63217336       1.15439880
H        0.00000000       0.00000000       0.00000000      -0.13810387      -0.07810874      -1.03797758
H        0.00000000       0.00000000       0.00000000      -0.12758073       0.58746064       0.04584227
O        0.00000000       0.00000000       0.00000000       2.13475395      -0.31596655       1.48743940
H        0.00000000       0.00000000       0.00000000      -0.94561428       0.25627756      -0.22537762
H        0.00000000       0.00000000       0.00000000       0.23489493       0.19199374      -1.05388820
H        0.00000000       0.00000000       0.00000000      -1.58321762      -0.00948319      -0.37043703
7
Lattice="529.1772105638412 0.0 0.0 0.0 529.1772105638412 0.0 0.0 0.0 529.1772105638412" Properties=species:S:1:pos:R:3:forces_component_raw:R:3 ipi_comment="Step:       16020  Bead:       0 forces_component_raw{ase}  cell{ase}" pbc="T T T"
O        0.00000000       0.00000000       0.00000000      -0.56673432      -1.14828587      -1.08992696
H        0.00000000       0.00000000       0.00000000       0.44852838       0.14370307       0.45801818
H        0.00000000       0.00000000       0.00000000      -0.21079880       0.80140543       0.41961551
O        0.00000000       0.00000000       0.00000000      -0.47790563       0.37865317       1.47423435
H        0.00000000       0.00000000       0.00000000       1.14241851       0.02188641      -0.04207814
H        0.00000000       0.00000000       0.00000000       0.93556637      -0.95415580      -0.52569771
H        0.00000000       0.00000000       0.00000000      -1.27107442       0.75679374      -0.69416547
7
Lattice="529.1772105638412 0.0 0.0 0.0 529.1772105638412 0.0 0.0 0.0 529.1772105638412" Properties=species:S:1:pos:R:3:forces_component_raw:R:3 ipi_comment="Step:       16040  Bead:       0 forces_component_raw{ase}  cell{ase}" pbc="T T T"
O        0.00000000       0.00000000       0.00000000       0.70697630      -1.60350120      -1.36840964
H        0.00000000       0.00000000       0.00000000       0.18141317       0.40356931       0.80417752
H        0.00000000       0.00000000       0.00000000      -0.56983763       0.95253861       0.33497045
O        0.00000000       0.00000000       0.00000000       0.81027323      -0.20032412       1.22542775
H        0.00000000       0.00000000       0.00000000      -0.79309768       0.22012858       0.37645787
H        0.00000000       0.00000000       0.00000000       0.53492254      -0.00300759      -0.69045139
H        0.00000000       0.00000000       0.00000000      -0.87064970       0.23059639      -0.68217266
7
Lattice="529.1772105638412 0.0 0.0 0.0 529.1772105638412 0.0 0.0 0.0 529.1772105638412" Properties=species:S:1:pos:R:3:forces_component_raw:R:3 ipi_comment="Step:       16060  Bead:       0 forces_component_raw{ase}  cell{ase}" pbc="T T T"
O        0.00000000       0.00000000       0.00000000      -0.02990031       0.59048146      -0.87713421
H        0.00000000       0.00000000       0.00000000       0.21693277      -0.15052263       1.00100494
H        0.00000000       0.00000000       0.00000000      -0.00429147       0.37695211      -0.12889639
O        0.00000000       0.00000000       0.00000000      -0.71149731      -0.05191073       0.38546813
H        0.00000000       0.00000000       0.00000000      -0.37012774      -0.64687109      -0.19369042
H        0.00000000       0.00000000       0.00000000       0.54979646       0.09086290      -0.41055012
H        0.00000000       0.00000000       0.00000000       0.34908748      -0.20899195       0.22379804
7
Lattice="529.1772105638412 0.0 0.0 0.0 529.1772105638412 0.0 0.0 0.0 529.1772105638412" Properties=species:S:1:pos:R:3:forces_component_raw:R:3 ipi_comment="Step:       16080  Bead:       0 forces_component_raw{ase}  cell{ase}" pbc="T T T"
O        0.00000000       0.00000000       0.00000000      -1.06093788       0.14976946      -1.07525861
H        0.00000000       0.00000000       0.00000000       0.36775151       0.28033260       0.67124188
H        0.00000000       0.00000000       0.00000000       0.52645081      -0.61089409      -0.20995681
O        0.00000000       0.00000000       0.00000000      -1.53766370       0.67499113      -0.88272917
H        0.00000000       0.00000000       0.00000000       0.40918169       0.78498388       0.52755833
H        0.00000000       0.00000000       0.00000000      -0.37245232      -0.27012718       0.22762448
H        0.00000000       0.00000000       0.00000000       1.66767013      -1.00905586       0.74151993
7
Lattice="529.1772105638412 0.0 0.0 0.0 529.1772105638412 0.0 0.0 0.0 529.1772105638412" Properties=species:S:1:pos:R:3:forces_component_raw:R:3 ipi_comment="Step:       16100  Bead:       0 forces_component_raw{ase}  cell{ase}" pbc="T T T"
O        0.00000000       0.00000000       0.00000000      -0.66944546       2.70519782       0.88391280
H        0.00000000       0.00000000       0.00000000      -0.19085270      -0.15468149       0.32986689
H        0.00000000       0.00000000       0.00000000       0.94403696      -1.60619831      -1.16282892
O        0.00000000       0.00000000       0.00000000      -0.37498573       1.97538722      -0.88956636
H        0.00000000       0.00000000       0.00000000      -0.32948628      -0.90692592      -0.21666962
H        0.00000000       0.00000000       0.00000000      -1.50677848      -0.73222226       0.43923327
H        0.00000000       0.00000000       0.00000000       2.12751151      -1.28055728       0.61605197
7
Lattice="529.1772105638412 0.0 0.0 0.0 529.1772105638412 0.0 0.0 0.0 529.1772105638412" Properties=species:S:1:pos:R:3:forces_component_raw:R:3 ipi_comment="Step:       16120  Bead:       0 forces_component_raw{ase}  cell{ase}" pbc="T T T"
O        0.00000000       0.00000000       0.00000000      -0.35857833       1.48673416      -0.27644825
H        0.00000000       0.00000000       0.00000000      -0.09007985       0.02447807       0.25675738
H        0.00000000       0.00000000       0.00000000       0.30714008      -2.01224637      -0.17067546
O        0.00000000       0.00000000       0.00000000       0.29869357       0.91206122      -0.26008856
H        0.00000000       0.00000000       0.00000000       0.55357921       0.40914387       0.51310337
H        0.00000000       0.00000000       0.00000000      -1.21607185      -0.87710625       0.06499536
H        0.00000000       0.00000000       0.00000000       0.50531715       0.05693501      -0.12764384
7
Lattice="529.1772105638412 0.0 0.0 0.0 529.1772105638412 0.0 0.0 0.0 529.1772105638412" Properties=species:S:1:pos:R:3:forces_component_raw:R:3 ipi_comment="Step:       16140  Bead:       0 forces_component_raw{ase}  cell{ase}" pbc="T T T"
O        0.00000000       0.00000000       0.00000000      -0.07683949       1.12725914       0.09803915
H        0.00000000       0.00000000       0.00000000      -0.10764214       0.09577317       0.30862999
H        0.00000000       0.00000000       0.00000000       0.11244262      -1.36667800      -0.28751662
O        0.00000000       0.00000000       0.00000000       2.14403534       0.92308843      -0.21345234
H        0.00000000       0.00000000       0.00000000      -0.33283633       0.17912900      -0.14339197
H        0.00000000       0.00000000       0.00000000      -0.81471908      -0.83567304      -0.29730290
H        0.00000000       0.00000000       0.00000000      -0.92444080      -0.12289834       0.53499502
7
Lattice="529.1772105638412 0.0 0.0 0.0 529.1772105638412 0.0 0.0 0.0 529.1772105638412" Properties=species:S:1:pos:R:3:forces_component_raw:R:3 ipi_comment="Step:       16160  Bead:       0 forces_component_raw{ase}  cell{ase}" pbc="T T T"
O        0.00000000       0.00000000       0.00000000      -0.18029124      -0.20386022       0.16789472
H        0.00000000       0.00000000       0.00000000      -0.08278698       0.07380205       0.37718558
H        0.00000000       0.00000000       0.00000000       0.02136104       0.20875430      -0.08807313
O        0.00000000       0.00000000       0.00000000       2.14926863       0.29980469      -1.03843951
H        0.00000000       0.00000000       0.00000000       0.38351321      -0.66516632      -0.24859816
H        0.00000000       0.00000000       0.00000000      -0.28935975      -0.29833579       0.01958150
H        0.00000000       0.00000000       0.00000000      -2.00170494       0.58500111       0.81044901
7
Lattice="529.1772105638412 0.0 0.0 0.0 529.1772105638412 0.0 0.0 0.0 529.1772105638412" Properties=species:S:1:pos:R:3:forces_component_raw:R:3 ipi_comment="Step:       16180  Bead:       0 forces_component_raw{ase}  cell{ase}" pbc="T T T"
O        0.00000000       0.00000000       0.00000000       0.01079434      -0.69277072      -1.07637775
H        0.00000000       0.00000000       0.00000000      -0.10263160      -0.17002997       0.15155321
H        0.00000000       0.00000000       0.00000000       0.10308084       0.86451298       0.68612021
O        0.00000000       0.00000000       0.00000000       2.22787190      -2.65146804       0.28375614
H        0.00000000       0.00000000       0.00000000      -0.15562138       0.77607453      -0.27354398
H        0.00000000       0.00000000       0.00000000       0.35480952       0.58868522       0.15698642
H        0.00000000       0.00000000       0.00000000      -2.43830371       1.28499604       0.07150564
7
Lattice="529.1772105638412 0.0 0.0 0.0 529.1772105638412 0.0 0.0 0.0 529.1772105638412" Properties=species:S:1:pos:R:3:forces_component_raw:R:3 ipi_comment="Step:       16200  Bead:       0 forces_component_raw{ase}  cell{ase}" pbc="T T T"
O        0.00000000       0.00000000       0.00000000      -0.56473220      -1.44354678       0.15040189
H        0.00000000       0.00000000       0.00000000       0.22879952       0.07944728      -0.42117322
H        0.00000000       0.00000000       0.00000000       0.50787652       1.65095008       0.46109805
O        0.00000000       0.00000000       0.00000000       1.28270781      -1.37545967       0.57434750
H        0.00000000       0.00000000       0.00000000      -0.37910408      -0.56296569      -0.15463942
H        0.00000000       0.00000000       0.00000000       1.38780332       0.88833535       0.27278554
H        0.00000000       0.00000000       0.00000000      -2.46335054       0.76323927      -0.88282013
7
Lattice="529.1772105638412 0.0 0.0 0.0 529.1772105638412 0.0 0.0 0.0 529.1772105638412" Properties=species:S:1:pos:R:3:forces_component_raw:R:3 ipi_comment="Step:       16220  Bead:       0 forces_component_raw{ase}  cell{ase}" pbc="T T T"
O        0.00000000       0.00000000       0.00000000      -0.73872817      -0.93054593       0.71108896
H        0.00000000       0.00000000       0.00000000       0.27904299       0.14185898      -1.53253830
H        0.00000000       0.00000000       0.00000000       0.38201994       0.51445210       0.41138250
O        0.00000000       0.00000000       0.00000000      -1.06739331      -2.09543372       0.62208820
H        0.00000000       0.00000000       0.00000000       0.34720320       0.41157034       0.64749456
H        0.00000000       0.00000000       0.00000000       1.30882323       1.31392145      -0.14465642
H        0.00000000       0.00000000       0.00000000      -0.51096773       0.64417696      -0.71485937
7
Lattice="529.1772105638412 0.0 0.0 0.0 529.1772105638412 0.0 0.0 0.0 529.1772105638412" Properties=species:S:1:pos:R:3:forces_component_raw:R:3 ipi_comment="Step:       16240  Bead:       0 forces_component_raw{ase}  cell{ase}" pbc="T T T"
O        0.00000000       0.00000000       0.00000000       0.23772371       0.20930548       2.30131197
H        0.00000000       0.00000000       0.00000000       0.30962336      -0.20450543      -1.42654062
H        0.00000000       0.00000000       0.00000000      -0.26287323       0.35181752      -0.33140358
O        0.00000000       0.00000000       0.00000000      -1.44824934      -0.28446359      -0.55532062
H        0.00000000       0.00000000       0.00000000      -0.43448714      -0.41817364      -0.70858061
H        0.00000000       0.00000000       0.00000000       0.72525573       0.55122203      -0.21125883
H        0.00000000       0.00000000       0.00000000       0.87300658      -0.20520246       0.93179232
7
Lattice="529.1772105638412 0.0 0.0 0.0 529.1772105638412 0.0 0.0 0.0 529.1772105638412" Properties=species:S:1:pos:R:3:forces_component_raw:R:3 ipi_comment="Step:       16260  Bead:       0 forces_component_raw{ase}  cell{ase}" pbc="T T T"
O        0.00000000       0.00000000       0.00000000       0.27232969       0.62656707       1.19207633
H        0.00000000       0.00000000       0.00000000       0.11541042       0.15180786      -1.52566696
H        0.00000000       0.00000000       0.00000000      -0.58410734      -0.78532660      -0.26906282
O        0.00000000       0.00000000       0.00000000      -1.64959073      -0.08143097      -1.42150569
H        0.00000000       0.00000000       0.00000000       0.54501552       0.29804492       0.60841179
H        0.00000000       0.00000000       0.00000000      -0.32773417      -0.36744323       0.11830300
H        0.00000000       0.00000000       0.00000000       1.62867666       0.15778074       1.29744423
7
Lattice="529.1772105638412 0.0 0.0 0.0 529.1772105638412 0.0 0.0 0.0 529.1772105638412" Properties=species:S:1:pos:R:3:forces_component_raw:R:3 ipi_comment="Step:       16280  Bead:       0 forces_component_raw{ase}  cell{ase}" pbc="T T T"
O        0.00000000       0.00000000       0.00000000       0.71963000       0.88689184       1.53416229
H        0.00000000       0.00000000       0.00000000      -0.03531635      -0.39810988      -1.20570803
H        0.00000000       0.00000000       0.00000000      -0.49338478      -0.35642660      -0.01366518
O        0.00000000       0.00000000       0.00000000      -0.17722860       1.19273126      -1.75568426
H        0.00000000       0.00000000       0.00000000      -0.47872666      -0.43382099      -0.91170716
H        0.00000000       0.00000000       0.00000000      -1.49059654      -0.68924284       0.92024029
H        0.00000000       0.00000000       0.00000000       1.95562280      -0.20202281       1.43236208
7
Lattice="529.1772105638412 0.0 0.0 0.0 529.1772105638412 0.0 0.0 0.0 529.1772105638412" Properties=species:S:1:pos:R:3:forces_component_raw:R:3 ipi_comment="Step:       16300  Bead:       0 forces_component_raw{ase}  cell{ase}" pbc="T T T"
O        0.00000000       0.00000000       0.00000000      -0.34691155      -1.07074189       0.15012151
H        0.00000000       0.00000000       0.00000000       0.01029569       0.56373346      -0.37695640
H        0.00000000       0.00000000       0.00000000       0.12609577      -0.08725679      -0.12631516
O        0.00000000       0.00000000       0.00000000      -0.97483057       0.20668757      -1.60860396
H        0.00000000       0.00000000       0.00000000       0.78316534       0.71678454       0.50530005
H        0.00000000       0.00000000       0.00000000      -1.01590359      -0.58141244       0.76311875
H        0.00000000       0.00000000       0.00000000       1.41808904       0.25220582       0.69333470
7
Lattice="529.1772105638412 0.0 0.0 0.0 529.1772105638412 0.0 0.0 0.0 529.1772105638412" Properties=species:S:1:pos:R:3:forces_component_raw:R:3 ipi_comment="Step:       16320  Bead:       0 forces_component_raw{ase}  cell{ase}" pbc="T T T"
O        0.00000000       0.00000000       0.00000000       0.41927719       0.55281973      -0.12821418
H        0.00000000       0.00000000       0.00000000       0.12896167      -0.45319837       0.58599675
H        0.00000000       0.00000000       0.00000000      -0.12402833      -0.23515928       0.13655208
O        0.00000000       0.00000000       0.00000000       0.40277749       0.79920125      -0.75218272
H        0.00000000       0.00000000       0.00000000      -0.88675112      -0.50763434      -0.44609130
H        0.00000000       0.00000000       0.00000000      -0.66451591       0.01550388       0.28214282
H        0.00000000       0.00000000       0.00000000       0.72427875      -0.17153293       0.32179672
7
Lattice="529.1772105638412 0.0 0.0 0.0 529.1772105638412 0.0 0.0 0.0 529.1772105638412" Properties=species:S:1:pos:R:3:forces_component_raw:R:3 ipi_comment="Step:       16340  Bead:       0 forces_component_raw{ase}  cell{ase}" pbc="T T T"
O        0.00000000       0.00000000       0.00000000      -0.49746919      -0.77442825      -0.71858937
H        0.00000000       0.00000000       0.00000000       0.27929437       0.17280203       0.95793611
H        0.00000000       0.00000000       0.00000000       0.09729472       0.22549129      -0.06345016
O        0.00000000       0.00000000       0.00000000      -1.32951522      -0.07634200      -0.21359277
H        0.00000000       0.00000000       0.00000000       0.81286919       0.39731321      -0.11136258
H        0.00000000       0.00000000       0.00000000       0.49824539      -0.14156106       0.05839652
H        0.00000000       0.00000000       0.00000000       0.13928068       0.19672465       0.09066206
7
Lattice="529.1772105638412 0.0 0.0 0.0 529.1772105638412 0.0 0.0 0.0 529.1772105638412" Properties=species:S:1:pos:R:3:forces_component_raw:R:3 ipi_comment="Step:       16360  Bead:       0 forces_component_raw{ase}  cell{ase}" pbc="T T T"
O        0.00000000       0.00000000       0.00000000      -0.33256197       0.48545343      -1.18773175
H        0.00000000       0.00000000       0.00000000       0.28683668      -0.17775694       1.16765547
H        0.00000000       0.00000000       0.00000000      -0.00013238       0.29466248      -0.12942944
O        0.00000000       0.00000000       0.00000000       1.14557648      -1.15080655       1.09790695
H        0.00000000       0.00000000       0.00000000      -0.35881445      -0.23954466       0.08419302
H        0.00000000       0.00000000       0.00000000       0.28707790       0.56639803      -0.48919034
H        0.00000000       0.00000000       0.00000000      -1.02798271       0.22159407      -0.54340398
7
Lattice="529.1772105638412 0.0 0.0 0.0 529.1772105638412 0.0 0.0 0.0 529.1772105638412" Properties=species:S:1:pos:R:3:forces_component_raw:R:3 ipi_comment="Step:       16380  Bead:       0 forces_component_raw{ase}  cell{ase}" pbc="T T T"
O        0.00000000       0.00000000       0.00000000       0.01608527       1.40932668      -0.87313646
H        0.00000000       0.00000000       0.00000000      -0.09323174      -0.61383087       0.77400631
H        0.00000000       0.00000000       0.00000000      -0.17363709      -0.25709176       0.05396312
O        0.00000000       0.00000000       0.00000000       0.48617846      -1.30550862       1.31762815
H        0.00000000       0.00000000       0.00000000       0.27658135       0.10799988      -0.26287022
H        0.00000000       0.00000000       0.00000000       1.47487462       0.54563183      -0.42072821
H        0.00000000       0.00000000       0.00000000      -1.98685086       0.11347269      -0.58886254
7
Lattice="529.1772105638412 0.0 0.0 0.0 529.1772105638412 0.0 0.0 0.0 529.1772105638412" Properties=species:S:1:pos:R:3:forces_component_raw:R:3 ipi_comment="Step:       16400  Bead:       0 forces_component_raw{ase}  cell{ase}" pbc="T T T"
O        0.00000000       0.00000000       0.00000000      -0.18415749      -0.59073031       0.06790113
H        0.00000000       0.00000000       0.00000000      -0.00073624       0.75699169      -0.18114668
H        0.00000000       0.00000000       0.00000000       0.25376141       0.14565861      -0.46090752
O        0.00000000       0.00000000       0.00000000       0.64304513      -1.01322127       2.04004384
H        0.00000000       0.00000000       0.00000000      -0.11105788      -0.23956332       0.68415660
H        0.00000000       0.00000000       0.00000000       0.73488790       0.76529855      -1.00847829
H        0.00000000       0.00000000       0.00000000      -1.33574295       0.17556576      -1.14156914
7
Lattice="529.1772105638412 0.0 0.0 0.0 529.1772105638412 0.0 0.0 0.0 529.1772105638412" Properties=species:S:1:pos:R:3:forces_component_raw:R:3 ipi_comment="Step:       16420  Bead:       0 forces_component_raw{ase}  cell{ase}" pbc="T T T"
O        0.00000000       0.00000000       0.00000000      -0.85477543       0.20982754       1.59877408
H        0.00000000       0.00000000       0.00000000       1.11602080      -0.10937619      -1.15418399
H        0.00000000       0.00000000       0.00000000      -0.36770785      -0.31875861       0.10902822
O        0.00000000       0.00000000       0.00000000      -0.58760011       0.13781270       0.41159201
H        0.00000000       0.00000000       0.00000000       0.48438272      -0.26213330      -0.49234322
H        0.00000000       0.00000000       0.00000000       0.78428316       0.48871225      -0.37010646
H        0.00000000       0.00000000       0.00000000      -0.57460326      -0.14608420      -0.10276061
7
Lattice="529.1772105638412 0.0 0.0 0.0 529.1772105638412 0.0 0.0 0.0 529.1772105638412" Properties=species:S:1:pos:R:3:forces_component_raw:R:3 ipi_comment="Step:       16440  Bead:       0 forces_component_raw{ase}  cell{ase}" pbc="T T T"
O        0.00000000       0.00000000       0.00000000      -0.96255744      -1.35401357       1.19802237
H        0.00000000       0.00000000       0.00000000       1.02094805       1.08316839      -1.23151493
H        0.00000000       0.00000000       0.00000000       0.23420420       0.11527872      -0.09171721
O        0.00000000       0.00000000       0.00000000      -0.73002970      -0.84737814       0.05970871
H        0.00000000       0.00000000       0.00000000      -0.51688957       0.36635435       0.11490580
H        0.00000000       0.00000000       0.00000000       0.18876249       0.49787426      -0.42831457
H        0.00000000       0.00000000       0.00000000       0.76556200       0.13871607       0.37891013
7
Lattice="529.1772105638412 0.0 0.0 0.0 529.1772105638412 0.0 0.0 0.0 529.1772105638412" Properties=species:S:1:pos:R:3:forces_component_raw:R:3 ipi_comment="Step:       16460  Bead:       0 forces_component_raw{ase}  cell{ase}" pbc="T T T"
O        0.00000000       0.00000000       0.00000000      -0.79109562       0.77774328      -0.37702584
H        0.00000000       0.00000000       0.00000000       0.83925688      -0.10342306      -0.39944896
H        0.00000000       0.00000000       0.00000000      -0.46449697      -0.12355709       0.42099622
O        0.00000000       0.00000000       0.00000000      -1.34204984      -0.05041564      -1.10141731
H        0.00000000       0.00000000       0.00000000       0.48784089      -0.33089873       0.14647585
H        0.00000000       0.00000000       0.00000000      -0.00135756      -0.24623972       0.32226670
H        0.00000000       0.00000000       0.00000000       1.27190244       0.07679090       0.98815328
7
Lattice="529.1772105638412 0.0 0.0 0.0 529.1772105638412 0.0 0.0 0.0 529.1772105638412" Properties=species:S:1:pos:R:3:forces_component_raw:R:3 ipi_comment="Step:       16480  Bead:       0 forces_component_raw{ase}  cell{ase}" pbc="T T T"
O        0.00000000       0.00000000       0.00000000       0.15802482      -0.04414266       0.15666473
H        0.00000000       0.00000000       0.00000000      -0.46858361       0.08293819       0.02123588
H        0.00000000       0.00000000       0.00000000      -0.00301266       0.53868526      -0.44921231
O        0.00000000       0.00000000       0.00000000       1.28729391      -0.23719457      -0.02527761
H        0.00000000       0.00000000       0.00000000      -0.44391883       0.21216132      -0.43254107
H        0.00000000       0.00000000       0.00000000      -1.22714639      -0.64603055       0.48155487
H        0.00000000       0.00000000       0.00000000       0.69734264       0.09358296       0.24757570
7
Lattice="529.1772105638412 0.0 0.0 0.0 529.1772105638412 0.0 0.0 0.0 529.1772105638412" Properties=species:S:1:pos:R:3:forces_component_raw:R:3 ipi_comment="Step:       16500  Bead:       0 forces_component_raw{ase}  cell{ase}" pbc="T T T"
O        0.00000000       0.00000000       0.00000000      -0.96666831       1.14094758      -0.96746719
H        0.00000000       0.00000000       0.00000000       0.36806545      -0.64083159       0.53160167
H        0.00000000       0.00000000       0.00000000       0.40030474      -0.33470696       0.34647155
O        0.00000000       0.00000000       0.00000000       0.87779367       0.62885648      -0.78907192
H        0.00000000       0.00000000       0.00000000       0.28370714      -0.15211651       0.18189797
H        0.00000000       0.00000000       0.00000000      -1.00002909      -0.74527788       0.65558249
H        0.00000000       0.00000000       0.00000000       0.03682661       0.10312897       0.04098535
7
Lattice="529.1772105638412 0.0 0.0 0.0 529.1772105638412 0.0 0.0 0.0 529.1772105638412" Properties=species:S:1:pos:R:3:forces_component_raw:R:3 ipi_comment="Step:       16520  Bead:       0 forces_component_raw{ase}  cell{ase}" pbc="T T T"
O        0.00000000       0.00000000       0.00000000      -0.24176303      -0.69390452       0.41516769
H        0.00000000       0.00000000       0.00000000      -0.43614128      -0.06885380      -0.21527857
H        0.00000000       0.00000000       0.00000000       1.22131539       0.39913100       0.16493255
O        0.00000000       0.00000000       0.00000000       0.67453194       0.54976553      -0.30789411
H        0.00000000       0.00000000       0.00000000      -0.53110761      -0.05693871       0.10501730
H        0.00000000       0.00000000       0.00000000      -0.71151012      -0.40593499       0.14786178
H        0.00000000       0.00000000       0.00000000       0.02467477       0.27673537      -0.30980653
7
Lattice="529.1772105638412 0.0 0.0 0.0 529.1772105638412 0.0 0.0 0.0 529.1772105638412" Properties=species:S:1:pos:R:3:forces_component_raw:R:3 ipi_comment="Step:       16540  Bead:       0 forces_component_raw{ase}  cell{ase}" pbc="T T T"
O        0.00000000       0.00000000       0.00000000      -1.05157328      -0.35214943      -0.94293213
H        0.00000000       0.00000000       0.00000000       0.45917726       0.04786199       0.28394562
H        0.00000000       0.00000000       0.00000000       0.69232994      -0.05918816       1.03632343
O        0.00000000       0.00000000       0.00000000      -0.25404000       0.65055668      -0.31368077
H        0.00000000       0.00000000       0.00000000       0.28071699       0.13989019      -0.25837475
H        0.00000000       0.00000000       0.00000000      -0.21375793      -0.47344592       0.21908510
H        0.00000000       0.00000000       0.00000000       0.08714676       0.04647458      -0.02436626
7
Lattice="529.1772105638412 0.0 0.0 0.0 529.1772105638412 0.0 0.0 0.0 529.1772105638412" Properties=species:S:1:pos:R:3:forces_component_raw:R:3 ipi_comment="Step:       16560  Bead:       0 forces_component_raw{ase}  cell{ase}" pbc="T T T"
O        0.00000000       0.00000000       0.00000000      -1.10137689      -1.79402292       0.67254138
H        0.00000000       0.00000000       0.00000000       0.73285377       0.51208049      -0.63651955
H        0.00000000       0.00000000       0.00000000       0.42835030       0.49301618       0.16191506
O        0.00000000       0.00000000       0.00000000      -0.08913898       0.52149582      -0.92998284
H        0.00000000       0.00000000       0.00000000      -0.06540184       0.16363785       0.14901869
H        0.00000000       0.00000000       0.00000000      -0.05194616       0.21532190      -0.05344975
H        0.00000000       0.00000000       0.00000000       0.14666003      -0.11152941       0.63647705
7
Lattice="529.1772105638412 0.0 0.0 0.0 529.1772105638412 0.0 0.0 0.0 529.1772105638412" Properties=species:S:1:pos:R:3:forces_component_raw:R:3 ipi_comment="Step:       16580  Bead:       0 forces_component_raw{ase}  cell{ase}" pbc="T T T"
O        0.00000000       0.00000000       0.00000000      -0.05156833       0.39808190      -0.59216333
H        0.00000000       0.00000000       0.00000000       0.40598804       0.33684796       0.06811839
H        0.00000000       0.00000000       0.00000000      -0.40591437      -0.20890716       0.01387423
O        0.00000000       0.00000000       0.00000000      -0.16907728      -0.23076212      -0.77051276
H        0.00000000       0.00000000       0.00000000       0.00146309      -0.62977070       0.44214913
H        0.00000000       0.00000000       0.00000000      -0.18460971      -0.09869736      -0.18075097
H        0.00000000       0.00000000       0.00000000       0.40371850       0.43320757       1.01928544
7
Lattice="529.1772105638412 0.0 0.0 0.0 529.1772105638412 0.0 0.0 0.0 529.1772105638412" Properties=species:S:1:pos:R:3:forces_component_raw:R:3 ipi_comment="Step:       16600  Bead:       0 forces_component_raw{ase}  cell{ase}" pbc="T T T"
O        0.00000000       0.00000000       0.00000000       0.36863637       0.00306064       1.46993757
H        0.00000000       0.00000000       0.00000000      -0.08908069       0.15754297      -0.42188931
H        0.00000000       0.00000000       0.00000000      -0.49716771      -0.07311772      -1.13928509
O        0.00000000       0.00000000       0.00000000      -0.51609683      -1.70034123      -0.62730491
H        0.00000000       0.00000000       0.00000000       0.36090523       0.53071290      -0.19117847
H        0.00000000       0.00000000       0.00000000       0.13387352       0.45346987      -0.12272733
H        0.00000000       0.00000000       0.00000000       0.23893036       0.62867242       1.03244758
7
Lattice="529.1772105638412 0.0 0.0 0.0 529.1772105638412 0.0 0.0 0.0 529.1772105638412" Properties=species:S:1:pos:R:3:forces_component_raw:R:3 ipi_comment="Step:       16620  Bead:       0 forces_component_raw{ase}  cell{ase}" pbc="T T T"
O        0.00000000       0.00000000       0.00000000       2.25681973       1.50902367       0.93495012
H        0.00000000       0.00000000       0.00000000      -0.49039352      -0.33107892       0.39313102
H        0.00000000       0.00000000       0.00000000      -1.62156463      -0.52060509      -1.48649288
O        0.00000000       0.00000000       0.00000000       0.15696991      -0.00574413      -0.44711316
H        0.00000000       0.00000000       0.00000000      -0.18761683      -0.44337985      -0.13841257
H        0.00000000       0.00000000       0.00000000      -0.04984957      -0.16980267       0.27232620
H        0.00000000       0.00000000       0.00000000      -0.06436512      -0.03841302       0.47161126
7
Lattice="529.1772105638412 0.0 0.0 0.0 529.1772105638412 0.0 0.0 0.0 529.1772105638412" Properties=species:S:1:pos:R:3:forces_component_raw:R:3 ipi_comment="Step:       16640  Bead:       0 forces_component_raw{ase}  cell{ase}" pbc="T T T"
O        0.00000000       0.00000000       0.00000000       1.11470700      -0.07659224       1.58709753
H        0.00000000       0.00000000       0.00000000      -0.55234349      -0.55983633      -0.00192654
H        0.00000000       0.00000000       0.00000000      -0.87388402       0.12779510      -1.19090176
O        0.00000000       0.00000000       0.00000000      -0.76522732      -0.21743545       1.01593411
H        0.00000000       0.00000000       0.00000000       0.67570961       0.30638513       0.03206506
H        0.00000000       0.00000000       0.00000000       0.23539233       0.19541222      -0.44434190
H        0.00000000       0.00000000       0.00000000       0.16564569       0.22427154      -0.99792630
7
Lattice="529.1772105638412 0.0 0.0 0.0 529.1772105638412 0.0 0.0 0.0 529.1772105638412" Properties=species:S:1:pos:R:3:forces_component_raw:R:3 ipi_comment="Step:       16660  Bead:       0 forces_component_raw{ase}  cell{ase}" pbc="T T T"
O        0.00000000       0.00000000       0.00000000       0.42910552       0.67014301      -0.27016586
H        0.00000000       0.00000000       0.00000000      -0.00795612      -0.90088558       0.66374290
H        0.00000000       0.00000000       0.00000000       0.03598529      -0.28548393       0.20690268
O        0.00000000       0.00000000       0.00000000       0.17708802       1.92655957      -0.19070184
H        0.00000000       0.00000000       0.00000000      -0.63194442      -0.54700279       0.39611253
H        0.00000000       0.00000000       0.00000000      -0.12331384       0.10803950       0.12264934
H        0.00000000       0.00000000       0.00000000       0.12103552      -0.97136998      -0.92853999
7
Lattice="529.1772105638412 0.0 0.0 0.0 529.1772105638412 0.0 0.0 0.0 529.1772105638412" Properties=species:S:1:pos:R:3:forces_component_raw:R:3 ipi_comment="Step:       16680  Bead:       0 forces_component_raw{ase}  cell{ase}" pbc="T T T"
O        0.00000000       0.00000000       0.00000000      -0.57102049       0.02491087      -0.29992890
H        0.00000000       0.00000000       0.00000000      -0.26665187      -0.86756993       0.32734859
H        0.00000000       0.00000000       0.00000000       0.85359967       0.42185581       0.15722996
O        0.00000000       0.00000000       0.00000000      -0.73344755       0.18760145       1.33225107
H        0.00000000       0.00000000       0.00000000      -0.10309768       1.02611184      -0.43896756
H        0.00000000       0.00000000       0.00000000       0.18919396      -0.04891658       0.19417274
H        0.00000000       0.00000000       0.00000000       0.63142383      -0.74399328      -1.27210570
7
Lattice="529.1772105638412 0.0 0.0 0.0 529.1772105638412 0.0 0.0 0.0 529.1772105638412" Properties=species:S:1:pos:R:3:forces_component_raw:R:3 ipi_comment="Step:       16700  Bead:       0 forces_component_raw{ase}  cell{ase}" pbc="T T T"
O        0.00000000       0.00000000       0.00000000      -0.81144035      -0.24045014      -0.02192514
H        0.00000000       0.00000000       0.00000000      -0.32247523      -0.58082700       0.29492843
H        0.00000000       0.00000000       0.00000000       1.23717153       0.36660746       0.55619925
O        0.00000000       0.00000000       0.00000000      -1.03051353       1.82462097       0.41984853
H        0.00000000       0.00000000       0.00000000       0.15637648      -0.60184825      -0.36198676
H        0.00000000       0.00000000       0.00000000       0.18274856       0.38971448      -0.01949015
H        0.00000000       0.00000000       0.00000000       0.58813232      -1.15781784      -0.86757434
7
Lattice="529.1772105638412 0.0 0.0 0.0 529.1772105638412 0.0 0.0 0.0 529.1772105638412" Properties=species:S:1:pos:R:3:forces_component_raw:R:3 ipi_comment="Step:       16720  Bead:       0 forces_component_raw{ase}  cell{ase}" pbc="T T T"
O        0.00000000       0.00000000       0.00000000      -1.14080000      -0.50662768      -0.81687313
H        0.00000000       0.00000000       0.00000000       0.11259729       0.43534941      -0.08250184
H        0.00000000       0.00000000       0.00000000       0.96663982       0.15742652       0.65472382
O        0.00000000       0.00000000       0.00000000      -0.55630946      -0.47978878       1.21606303
H        0.00000000       0.00000000       0.00000000       0.19540507      -0.03241959       0.44750667
H        0.00000000       0.00000000       0.00000000       0.32476845       0.46568537      -0.19474801
H        0.00000000       0.00000000       0.00000000       0.09769920      -0.03962523      -1.22417057
7
Lattice="529.1772105638412 0.0 0.0 0.0 529.1772105638412 0.0 0.0 0.0 529.1772105638412" Properties=species:S:1:pos:R:3:forces_component_raw:R:3 ipi_comment="Step:       16740  Bead:       0 forces_component_raw{ase}  cell{ase}" pbc="T T T"
O        0.00000000       0.00000000       0.00000000      -1.50411082      -0.05501616      -0.76333714
H        0.00000000       0.00000000       0.00000000       0.89846021       0.90972185      -0.08809218
H        0.00000000       0.00000000       0.00000000       0.63475442      -0.60751510       0.67872185
O        0.00000000       0.00000000       0.00000000      -0.29651415      -1.90975249       0.04012752
H        0.00000000       0.00000000       0.00000000      -0.03385097       0.61874706      -0.50973642
H        0.00000000       0.00000000       0.00000000       0.45344067       0.96461559       0.48732796
H        0.00000000       0.00000000       0.00000000      -0.15217942       0.07919985       0.15498829
7
Lattice="529.1772105638412 0.0 0.0 0.0 529.1772105638412 0.0 0.0 0.0 529.1772105638412" Properties=species:S:1:pos:R:3:forces_component_raw:R:3 ipi_comment="Step:       16760  Bead:       0 forces_component_raw{ase}  cell{ase}" pbc="T T T"
O        0.00000000       0.00000000       0.00000000      -0.70650113       0.49536061      -0.66706354
H        0.00000000       0.00000000       0.00000000      -0.09774876       0.14331722      -0.25887218
H        0.00000000       0.00000000       0.00000000       0.53556448       0.03181231      -0.03567583
O        0.00000000       0.00000000       0.00000000      -0.74578625      -1.54344452      -0.31922025
H        0.00000000       0.00000000       0.00000000       0.25923657      -0.63320834       0.31590068
H        0.00000000       0.00000000       0.00000000       0.07470489       0.63704562      -0.40506339
H        0.00000000       0.00000000       0.00000000       0.68053031       0.86911702       1.36999440
7
Lattice="529.1772105638412 0.0 0.0 0.0 529.1772105638412 0.0 0.0 0.0 529.1772105638412" Properties=species:S:1:pos:R:3:forces_component_raw:R:3 ipi_comment="Step:       16780  Bead:       0 forces_component_raw{ase}  cell{ase}" pbc="T T T"
O        0.00000000       0.00000000       0.00000000       1.72212434      -0.08479857      -0.51107419
H        0.00000000       0.00000000       0.00000000      -0.82273156      -0.46973127       0.35839680
H        0.00000000       0.00000000       0.00000000      -0.72536743       0.39013362      -0.15032458
O        0.00000000       0.00000000       0.00000000      -0.53342301      -0.14272675      -1.08428538
H        0.00000000       0.00000000       0.00000000      -0.31305298       0.45301646       0.00512791
H        0.00000000       0.00000000       0.00000000      -0.06709571      -0.69804025       0.38573748
H        0.00000000       0.00000000       0.00000000       0.73954612       0.55214685       0.99642199
7
Lattice="529.1772105638412 0.0 0.0 0.0 529.1772105638412 0.0 0.0 0.0 529.1772105638412" Properties=species:S:1:pos:R:3:forces_component_raw:R:3 ipi_comment="Step:       16800  Bead:       0 forces_component_raw{ase}  cell{ase}" pbc="T T T"
O        0.00000000       0.00000000       0.00000000       1.09445477      -0.07321024      -0.58960962
H        0.00000000       0.00000000       0.00000000      -0.35774368      -0.56354952       1.01595044
H        0.00000000       0.00000000       0.00000000      -1.12466836       0.50550187      -0.21126613
O        0.00000000       0.00000000       0.00000000       0.69781351       2.53306246      -0.06069151
H        0.00000000       0.00000000       0.00000000       0.42122895       0.06821781      -0.41826049
H        0.00000000       0.00000000       0.00000000      -0.35487923      -2.04915333       0.66454619
H        0.00000000       0.00000000       0.00000000      -0.37620586      -0.42086911      -0.40066895
7
Lattice="529.1772105638412 0.0 0.0 0.0 529.1772105638412 0.0 0.0 0.0 529.1772105638412" Properties=species:S:1:pos:R:3:forces_component_raw:R:3 ipi_comment="Step:       16820  Bead:       0 forces_component_raw{ase}  cell{ase}" pbc="T T T"
O        0.00000000       0.00000000       0.00000000       1.80732155      -0.86829221       0.06390142
H        0.00000000       0.00000000       0.00000000      -0.51036930      -0.03837025       0.85160238
H        0.00000000       0.00000000       0.00000000      -0.85129428       0.52830696      -0.09320174
O        0.00000000       0.00000000       0.00000000       0.50042081       2.64881969      -0.93137861
H        0.00000000       0.00000000       0.00000000      -0.65505123       0.00229573       0.13812642
H        0.00000000       0.00000000       0.00000000       0.23278225      -1.53965664       0.40818322
H        0.00000000       0.00000000       0.00000000      -0.52381003      -0.73310316      -0.43723291
7
Lattice="529.1772105638412 0.0 0.0 0.0 529.1772105638412 0.0 0.0 0.0 529.1772105638412" Properties=species:S:1:pos:R:3:forces_component_raw:R:3 ipi_comment="Step:       16840  Bead:       0 forces_component_raw{ase}  cell{ase}" pbc="T T T"
O        0.00000000       0.00000000       0.00000000      -1.01686502       0.64560372      -0.15547431
H        0.00000000       0.00000000       0.00000000       0.16229731      -0.05040788       0.26807118
H        0.00000000       0.00000000       0.00000000       0.59788156      -0.48048657       0.00018227
O        0.00000000       0.00000000       0.00000000       0.59866154       0.12537757      -0.13008061
H        0.00000000       0.00000000       0.00000000       0.29348147      -0.22752991       0.52143526
H        0.00000000       0.00000000       0.00000000      -0.14660150       0.28399134      -0.00858583
H        0.00000000       0.00000000       0.00000000      -0.48885542      -0.29654834      -0.49554819
7
Lattice="529.1772105638412 0.0 0.0 0.0 529.1772105638412 0.0 0.0 0.0 529.1772105638412" Properties=species:S:1:pos:R:3:forces_component_raw:R:3 ipi_comment="Step:       16860  Bead:       0 forces_component_raw{ase}  cell{ase}" pbc="T T T"
O        0.00000000       0.00000000       0.00000000      -1.25477386       1.56718409       0.61195660
H        0.00000000       0.00000000       0.00000000       0.21216714       0.01542027      -0.45236641
H        0.00000000       0.00000000       0.00000000       1.03687918      -1.56300474       0.18118906
O        0.00000000       0.00000000       0.00000000       0.32122994      -1.03866756      -0.14521201
H        0.00000000       0.00000000       0.00000000       0.09287208       0.04730163      -0.08808535
H        0.00000000       0.00000000       0.00000000      -0.31740016       1.01889611       0.10744554
H        0.00000000       0.00000000       0.00000000      -0.09097445      -0.04712975      -0.21492749
7
Lattice="529.1772105638412 0.0 0.0 0.0 529.1772105638412 0.0 0.0 0.0 529.1772105638412" Properties=species:S:1:pos:R:3:forces_component_raw:R:3 ipi_comment="Step:       16880  Bead:       0 forces_component_raw{ase}  cell{ase}" pbc="T T T"
O        0.00000000       0.00000000       0.00000000      -0.12087667       1.21098113      -1.11844588
H        0.00000000       0.00000000       0.00000000       0.10539675      -0.37071413       0.00092059
H        0.00000000       0.00000000       0.00000000       0.07703711      -0.92321456       0.98058981
O        0.00000000       0.00000000       0.00000000       0.53297866      -1.59117031      -0.27443364
H        0.00000000       0.00000000       0.00000000      -0.36905503      -0.14728469      -0.01228045
H        0.00000000       0.00000000       0.00000000      -0.63773906       1.56088329      -0.14455153
H        0.00000000       0.00000000       0.00000000       0.41225839       0.26051915       0.56820095
7
Lattice="529.1772105638412 0.0 0.0 0.0 529.1772105638412 0.0 0.0 0.0 529.1772105638412" Properties=species:S:1:pos:R:3:forces_component_raw:R:3 ipi_comment="Step:       16900  Bead:       0 forces_component_raw{ase}  cell{ase}" pbc="T T T"
O        0.00000000       0.00000000       0.00000000      -0.55186927       0.33599606      -0.15598476
H        0.00000000       0.00000000       0.00000000       0.03461713       0.63135719      -0.20263100
H        0.00000000       0.00000000       0.00000000       0.12819016      -0.70829499      -0.46381748
O        0.00000000       0.00000000       0.00000000       0.48766089      -2.10337568      -0.05080521
H        0.00000000       0.00000000       0.00000000       0.46834463      -0.21438301       0.64326656
H        0.00000000       0.00000000       0.00000000      -0.94627804       1.39974642      -0.17814259
H        0.00000000       0.00000000       0.00000000       0.37933457       0.65895367       0.40811443
7
Lattice="529.1772105638412 0.0 0.0 0.0 529.1772105638412 0.0 0.0 0.0 529.1772105638412" Properties=species:S:1:pos:R:3:forces_component_raw:R:3 ipi_comment="Step:       16920  Bead:       0 forces_component_raw{ase}  cell{ase}" pbc="T T T"
O        0.00000000       0.00000000       0.00000000       1.25011814      -0.43487963      -0.72709263
H        0.00000000       0.00000000       0.00000000      -0.64089251      -0.09677863       0.87225753
H        0.00000000       0.00000000       0.00000000      -0.34138715       0.62138999       0.19914769
O        0.00000000       0.00000000       0.00000000      -0.00976419      -1.53048301      -0.14975263
H        0.00000000       0.00000000       0.00000000      -0.17011046       0.17898734      -0.13458264
H        0.00000000       0.00000000       0.00000000      -0.25094408       1.21034408      -0.04118341
H        0.00000000       0.00000000       0.00000000       0.16298050       0.05141979      -0.01879415
7
Lattice="529.1772105638412 0.0 0.0 0.0 529.1772105638412 0.0 0.0 0.0 529.1772105638412" Properties=species:S:1:pos:R:3:forces_component_raw:R:3 ipi_comment="Step:       16940  Bead:       0 forces_component_raw{ase}  cell{ase}" pbc="T T T"
O        0.00000000       0.00000000       0.00000000       0.09405100      -1.30613649       1.40062857
H        0.00000000       0.00000000       0.00000000       0.18542570       0.81973469       0.32610130
H        0.00000000       0.00000000       0.00000000       0.25585747       0.73544395      -1.13435447
O        0.00000000       0.00000000       0.00000000       0.43178141       0.45132411      -0.12655208
H        0.00000000       0.00000000       0.00000000      -0.57921457      -0.52257449      -0.03950155
H        0.00000000       0.00000000       0.00000000      -0.01036817       0.45167178      -0.35385877
H        0.00000000       0.00000000       0.00000000      -0.37753314      -0.62946391      -0.07246296
7
Lattice="529.1772105638412 0.0 0.0 0.0 529.1772105638412 0.0 0.0 0.0 529.1772105638412" Properties=species:S:1:pos:R:3:forces_component_raw:R:3 ipi_comment="Step:       16960  Bead:       0 forces_component_raw{ase}  cell{ase}" pbc="T T T"
O        0.00000000       0.00000000       0.00000000      -0.77100814      -1.55521369      -0.94907743
H        0.00000000       0.00000000       0.00000000       0.01750074      -0.21446860       0.75890488
H        0.00000000       0.00000000       0.00000000       0.44778931       1.24249280       0.33588404
O        0.00000000       0.00000000       0.00000000       0.42331612       0.87984598      -0.50127447
H        0.00000000       0.00000000       0.00000000       0.69887561       0.70208460       0.44573933
H        0.00000000       0.00000000       0.00000000      -0.05449691      -0.52576101       0.23334384
H        0.00000000       0.00000000       0.00000000      -0.76197684      -0.52898020      -0.32352009
7
Lattice="529.1772105638412 0.0 0.0 0.0 529.1772105638412 0.0 0.0 0.0 529.1772105638412" Properties=species:S:1:pos:R:3:forces_component_raw:R:3 ipi_comment="Step:       16980  Bead:       0 forces_component_raw{ase}  cell{ase}" pbc="T T T"
O        0.00000000       0.00000000       0.00000000       0.83852530       1.22951007       1.08921695
H        0.00000000       0.00000000       0.00000000      -0.44768274      -0.38903290      -0.72290933
H        0.00000000       0.00000000       0.00000000      -0.28879842      -0.59661961      -0.18479353
O        0.00000000       0.00000000       0.00000000       1.05448783       2.00041867      -0.75632048
H        0.00000000       0.00000000       0.00000000      -0.36191830      -0.81727874      -0.08489066
H        0.00000000       0.00000000       0.00000000      -0.14578387      -1.01333070       0.41480866
H        0.00000000       0.00000000       0.00000000      -0.64882970      -0.41366702       0.24488831
7
Lattice="529.1772105638412 0.0 0.0 0.0 529.1772105638412 0.0 0.0 0.0 529.1772105638412" Properties=species:S:1:pos:R:3:forces_component_raw:R:3 ipi_comment="Step:       17000  Bead:       0 forces_component_raw{ase}  cell{ase}" pbc="T T T"
O        0.00000000       0.00000000       0.00000000       0.09562063       1.93236304      -1.38988304
H        0.00000000       0.00000000       0.00000000      -1.09979928      -1.92602492      -0.32764992
H        0.00000000       0.00000000       0.00000000       0.78977132      -0.35299212       1.12707687
O        0.00000000       0.00000000       0.00000000      -0.27444613       0.12046647       0.00307676
H        0.00000000       0.00000000       0.00000000       0.07450545       0.80341733      -0.14095661
H        0.00000000       0.00000000       0.00000000       0.02395654      -0.69867432       0.77037424
H        0.00000000       0.00000000       0.00000000       0.39039141       0.12144414      -0.04203808
7
Lattice="529.1772105638412 0.0 0.0 0.0 529.1772105638412 0.0 0.0 0.0 529.1772105638412" Properties=species:S:1:pos:R:3:forces_component_raw:R:3 ipi_comment="Step:       17020  Bead:       0 forces_component_raw{ase}  cell{ase}" pbc="T T T"
O        0.00000000       0.00000000       0.00000000       1.58297491       3.38634730       0.02827780
H        0.00000000       0.00000000       0.00000000      -1.57664895      -1.08923579      -0.35007358
H        0.00000000       0.00000000       0.00000000      -0.04267597      -1.63735843       0.08754617
O        0.00000000       0.00000000       0.00000000      -0.41812396       0.46542180      -0.20286980
H        0.00000000       0.00000000       0.00000000      -0.05660942      -0.86445403       0.04666419
H        0.00000000       0.00000000       0.00000000      -0.24003941      -0.50757593       0.41712916
H        0.00000000       0.00000000       0.00000000       0.75112224       0.24685502      -0.02667412
7
Lattice="529.1772105638412 0.0 0.0 0.0 529.1772105638412 0.0 0.0 0.0 529.1772105638412" Properties=species:S:1:pos:R:3:forces_component_raw:R:3 ipi_comment="Step:       17040  Bead:       0 forces_component_raw{ase}  cell{ase}" pbc="T T T"
O        0.00000000       0.00000000       0.00000000      -1.43274498       0.82749170      -0.46447110
H        0.00000000       0.00000000       0.00000000       0.23703766      -0.56128752      -0.01218501
H        0.00000000       0.00000000       0.00000000       1.18403650      -0.53806716       0.51376790
O        0.00000000       0.00000000       0.00000000      -1.24309600      -0.18341434      -0.43106634
H        0.00000000       0.00000000       0.00000000       0.10059749       0.49201372       0.08138971
H        0.00000000       0.00000000       0.00000000       0.18650097       0.03617740       0.25453737
H        0.00000000       0.00000000       0.00000000       0.96766818      -0.07291371       0.05802745
7
Lattice="529.1772105638412 0.0 0.0 0.0 529.1772105638412 0.0 0.0 0.0 529.1772105638412" Properties=species:S:1:pos:R:3:forces_component_raw:R:3 ipi_comment="Step:       17060  Bead:       0 forces_component_raw{ase}  cell{ase}" pbc="T T T"
O        0.00000000       0.00000000       0.00000000      -0.25682509      -0.29041815       1.26614130
H        0.00000000       0.00000000       0.00000000       0.77093196       1.54034591      -0.53804863
H        0.00000000       0.00000000       0.00000000      -0.42802566      -0.92888200      -0.21775538
O        0.00000000       0.00000000       0.00000000      -0.22129577       0.40420830      -0.63526637
H        0.00000000       0.00000000       0.00000000      -0.40066689      -0.46616444      -0.19805676
H        0.00000000       0.00000000       0.00000000      -0.31575054      -0.21285874       0.21915150
H        0.00000000       0.00000000       0.00000000       0.85163200      -0.04623091       0.10383439
7
Lattice="529.1772105638412 0.0 0.0 0.0 529.1772105638412 0.0 0.0 0.0 529.1772105638412" Properties=species:S:1:pos:R:3:forces_component_raw:R:3 ipi_comment="Step:       17080  Bead:       0 forces_component_raw{ase}  cell{ase}" pbc="T T T"
O        0.00000000       0.00000000       0.00000000      -2.89508796      -1.51488805      -0.75852347
H        0.00000000       0.00000000       0.00000000       1.86868918       0.69642031       0.12628603
H        0.00000000       0.00000000       0.00000000       0.55009008       0.47996324       0.09598178
O        0.00000000       0.00000000       0.00000000       0.41461337      -0.08202708      -0.10458994
H        0.00000000       0.00000000       0.00000000       0.55166644       0.41393006       0.51488125
H        0.00000000       0.00000000       0.00000000      -0.13624799      -0.03975150       0.10982239
H        0.00000000       0.00000000       0.00000000      -0.35372263       0.04635307       0.01614222
7
Lattice="529.1772105638412 0.0 0.0 0.0 529.1772105638412 0.0 0.0 0.0 529.1772105638412" Properties=species:S:1:pos:R:3:forces_component_raw:R:3 ipi_comment="Step:       17100  Bead:       0 forces_component_raw{ase}  cell{ase}" pbc="T T T"
O        0.00000000       0.00000000       0.00000000       0.29827058      -2.23825551       1.16397834
H        0.00000000       0.00000000       0.00000000       0.60693145       1.38594187      -0.05644268
H        0.00000000       0.00000000       0.00000000      -0.86526931       0.91290391      -0.88875139
O        0.00000000       0.00000000       0.00000000       0.65064937       0.28001857       1.06966210
H        0.00000000       0.00000000       0.00000000      -0.35392755      -0.17737284      -0.69595838
H        0.00000000       0.00000000       0.00000000       0.08590758      -0.19996633      -0.51052463
H        0.00000000       0.00000000       0.00000000      -0.42256200       0.03673053      -0.08196333
7
Lattice="529.1772105638412 0.0 0.0 0.0 529.1772105638412 0.0 0.0 0.0 529.1772105638412" Properties=species:S:1:pos:R:3:forces_component_raw:R:3 ipi_comment="Step:       17120  Bead:       0 forces_component_raw{ase}  cell{ase}" pbc="T T T"
O        0.00000000       0.00000000       0.00000000      -0.55613351      -0.62728131      -0.65745086
H        0.00000000       0.00000000       0.00000000       0.19260195      -0.51250196       0.54167426
H        0.00000000       0.00000000       0.00000000       0.27621317       0.97108793      -0.01886880
O        0.00000000       0.00000000       0.00000000       0.12911898      -0.11710030       0.37762165
H        0.00000000       0.00000000       0.00000000       0.28054032       0.33198357       0.41225100
H        0.00000000       0.00000000       0.00000000       0.68422663      -0.49984813      -0.70832384
H        0.00000000       0.00000000       0.00000000      -1.00656748       0.45366013       0.05309671
7
Lattice="529.1772105638412 0.0 0.0 0.0 529.1772105638412 0.0 0.0 0.0 529.1772105638412" Properties=species:S:1:pos:R:3:forces_component_raw:R:3 ipi_comment="Step:       17140  Bead:       0 forces_component_raw{ase}  cell{ase}" pbc="T T T"
O        0.00000000       0.00000000       0.00000000       0.57822144       1.29565466       1.17096281
H        0.00000000       0.00000000       0.00000000      -0.18438111      -0.57221210      -0.82064915
H        0.00000000       0.00000000       0.00000000      -0.10705082      -0.65969813      -0.21567035
O        0.00000000       0.00000000       0.00000000       0.30842930       0.34558773       1.53779281
H        0.00000000       0.00000000       0.00000000      -0.52122820      -0.22527456      -0.16986394
H        0.00000000       0.00000000       0.00000000       0.29567587      -0.35665804      -1.00437153
H        0.00000000       0.00000000       0.00000000      -0.36966652       0.17260051      -0.49820075
7
Lattice="529.1772105638412 0.0 0.0 0.0 529.1772105638412 0.0 0.0 0.0 529.1772105638412" Properties=species:S:1:pos:R:3:forces_component_raw:R:3 ipi_comment="Step:       17160  Bead:       0 forces_component_raw{ase}  cell{ase}" pbc="T T T"
O        0.00000000       0.00000000       0.00000000       0.56373251       1.31696773      -1.27427745
H        0.00000000       0.00000000       0.00000000      -0.10568669      -1.68980158       0.02734995
H        0.00000000       0.00000000       0.00000000      -0.31517470       0.22747517       1.09059632
O        0.00000000       0.00000000       0.00000000      -0.15485108      -0.38739014      -0.33568919
H        0.00000000       0.00000000       0.00000000       0.02536511       0.19097498       0.32752276
H        0.00000000       0.00000000       0.00000000       0.23936743      -0.06813556       0.21204007
H        0.00000000       0.00000000       0.00000000      -0.25275239       0.40990967      -0.04754269
7
Lattice="529.1772105638412 0.0 0.0 0.0 529.1772105638412 0.0 0.0 0.0 529.1772105638412" Properties=species:S:1:pos:R:3:forces_component_raw:R:3 ipi_comment="Step:       17180  Bead:       0 forces_component_raw{ase}  cell{ase}" pbc="T T T"
O        0.00000000       0.00000000       0.00000000       0.24199128       2.84433890       0.41818619
H        0.00000000       0.00000000       0.00000000       0.19617146      -1.39129901      -1.17076922
H        0.00000000       0.00000000       0.00000000      -0.32561094      -1.42178977       0.35465092
O        0.00000000       0.00000000       0.00000000      -0.30006087      -0.42148846      -0.08219206
H        0.00000000       0.00000000       0.00000000       0.06222500      -0.24443713       0.18758242
H        0.00000000       0.00000000       0.00000000       0.04215419       0.39332298       0.45609230
H        0.00000000       0.00000000       0.00000000       0.08312979       0.24135220      -0.16355044
7
Lattice="529.1772105638412 0.0 0.0 0.0 529.1772105638412 0.0 0.0 0.0 529.1772105638412" Properties=species:S:1:pos:R:3:forces_component_raw:R:3 ipi_comment="Step:       17200  Bead:       0 forces_component_raw{ase}  cell{ase}" pbc="T T T"
O        0.00000000       0.00000000       0.00000000      -0.37600172       0.74898613      -1.38018322
H        0.00000000       0.00000000       0.00000000      -0.01394376      -1.26330436       0.22302410
H        0.00000000       0.00000000       0.00000000       0.01375794       0.29866886       0.96948874
O        0.00000000       0.00000000       0.00000000       0.39233816      -0.28190488      -0.20246291
H        0.00000000       0.00000000       0.00000000      -0.01268640       0.28317592      -0.35873482
H        0.00000000       0.00000000       0.00000000      -0.41146955       0.74623162       0.40279532
H        0.00000000       0.00000000       0.00000000       0.40800503      -0.53185338       0.34607279
7
Lattice="529.1772105638412 0.0 0.0 0.0 529.1772105638412 0.0 0.0 0.0 529.1772105638412" Properties=species:S:1:pos:R:3:forces_component_raw:R:3 ipi_comment="Step:       17220  Bead:       0 forces_component_raw{ase}  cell{ase}" pbc="T T T"
O        0.00000000       0.00000000       0.00000000      -0.23650700       0.88085348      -0.06872952
H        0.00000000       0.00000000       0.00000000       0.18840520       0.04408050      -0.06272268
H        0.00000000       0.00000000       0.00000000      -0.19820382      -0.35487971      -0.34320694
O        0.00000000       0.00000000       0.00000000      -0.34181768       0.64327395      -0.91863740
H        0.00000000       0.00000000       0.00000000       0.09227230      -0.66111255       0.50008291
H        0.00000000       0.00000000       0.00000000      -0.08714525       0.28190947       0.18800920
H        0.00000000       0.00000000       0.00000000       0.58299625      -0.83412486       0.70520455
7
Lattice="529.1772105638412 0.0 0.0 0.0 529.1772105638412 0.0 0.0 0.0 529.1772105638412" Properties=species:S:1:pos:R:3:forces_component_raw:R:3 ipi_comment="Step:       17240  Bead:       0 forces_component_raw{ase}  cell{ase}" pbc="T T T"
O        0.00000000       0.00000000       0.00000000       0.21594720      -1.70646656       1.54764998
H        0.00000000       0.00000000       0.00000000       0.02782474       0.66463971      -0.03511447
H        0.00000000       0.00000000       0.00000000      -0.11252555       0.75457978      -0.80160475
O        0.00000000       0.00000000       0.00000000       0.05478655       0.51978392       0.25780654
H        0.00000000       0.00000000       0.00000000       0.15713957       0.79969955      -0.58824766
H        0.00000000       0.00000000       0.00000000      -0.53138197      -0.53731990      -0.57207900
H        0.00000000       0.00000000       0.00000000       0.18820947      -0.49491680       0.19158918
7
Lattice="529.1772105638412 0.0 0.0 0.0 529.1772105638412 0.0 0.0 0.0 529.1772105638412" Properties=species:S:1:pos:R:3:forces_component_raw:R:3 ipi_comment="Step:       17260  Bead:       0 forces_component_raw{ase}  cell{ase}" pbc="T T T"
O        0.00000000       0.00000000       0.00000000       0.30340466      -0.39790619       0.63077688
H        0.00000000       0.00000000       0.00000000       0.40673870       0.67758364       0.29812676
H        0.00000000       0.00000000       0.00000000      -0.15736887       0.33565083      -0.54418725
O        0.00000000       0.00000000       0.00000000      -0.83064461       1.53278351      -1.25881470
H        0.00000000       0.00000000       0.00000000      -0.02155536      -1.03521621       0.54675269
H        0.00000000       0.00000000       0.00000000       0.37004322      -1.39330876       0.62451154
H        0.00000000       0.00000000       0.00000000      -0.07061791       0.28041318      -0.29716575
7
Lattice="529.1772105638412 0.0 0.0 0.0 529.1772105638412 0.0 0.0 0.0 529.1772105638412" Properties=species:S:1:pos:R:3:forces_component_raw:R:3 ipi_comment="Step:       17280  Bead:       0 forces_component_raw{ase}  cell{ase}" pbc="T T T"
O        0.00000000       0.00000000       0.00000000       0.58892489      -1.70720113       1.50778270
H        0.00000000       0.00000000       0.00000000      -0.05408946       0.61225802      -0.28579781
H        0.00000000       0.00000000       0.00000000      -0.20479223       0.50876033      -0.90293056
O        0.00000000       0.00000000       0.00000000       1.36348272       0.47263867       1.16860128
H        0.00000000       0.00000000       0.00000000      -0.35856640       1.06433141      -0.36623490
H        0.00000000       0.00000000       0.00000000      -0.50680798      -0.88700831      -0.27602401
H        0.00000000       0.00000000       0.00000000      -0.82815153      -0.06377906      -0.84539640
7
Lattice="529.1772105638412 0.0 0.0 0.0 529.1772105638412 0.0 0.0 0.0 529.1772105638412" Properties=species:S:1:pos:R:3:forces_component_raw:R:3 ipi_comment="Step:       17300  Bead:       0 forces_component_raw{ase}  cell{ase}" pbc="T T T"
O        0.00000000       0.00000000       0.00000000      -0.85387445      -0.46448490      -1.18152237
H        0.00000000       0.00000000       0.00000000       0.29645634       0.08029473       0.50638068
H        0.00000000       0.00000000       0.00000000      -0.00671027       0.25542298      -0.02242094
O        0.00000000       0.00000000       0.00000000       1.18697989       0.84149099       0.19198263
H        0.00000000       0.00000000       0.00000000      -0.04262686      -0.59776092       0.20251371
H        0.00000000       0.00000000       0.00000000       0.17584676      -0.95287383       1.00439513
H        0.00000000       0.00000000       0.00000000      -0.75607133       0.83791101      -0.70132876
7
Lattice="529.1772105638412 0.0 0.0 0.0 529.1772105638412 0.0 0.0 0.0 529.1772105638412" Properties=species:S:1:pos:R:3:forces_component_raw:R:3 ipi_comment="Step:       17320  Bead:       0 forces_component_raw{ase}  cell{ase}" pbc="T T T"
O        0.00000000       0.00000000       0.00000000      -0.36902458       1.06460595      -0.61171806
H        0.00000000       0.00000000       0.00000000      -0.10779624      -0.37002552      -0.22798455
H        0.00000000       0.00000000       0.00000000      -0.02381549      -0.90184581       0.53424549
O        0.00000000       0.00000000       0.00000000       2.28707529      -0.64073020      -0.18850780
H        0.00000000       0.00000000       0.00000000       0.18781003       0.63072175      -0.23277018
H        0.00000000       0.00000000       0.00000000      -1.09890378      -0.55840010       0.28027916
H        0.00000000       0.00000000       0.00000000      -0.87534541       0.77567411       0.44645596
7
Lattice="529.1772105638412 0.0 0.0 0.0 529.1772105638412 0.0 0.0 0.0 529.1772105638412" Properties=species:S:1:pos:R:3:forces_component_raw:R:3 ipi_comment="Step:       17340  Bead:       0 forces_component_raw{ase}  cell{ase}" pbc="T T T"
O        0.00000000       0.00000000       0.00000000       0.04815993       2.94076682      -1.10827697
H        0.00000000       0.00000000       0.00000000      -0.14128739      -1.33838928      -0.09188351
H        0.00000000       0.00000000       0.00000000       0.05232563      -1.01154530       1.28569722
O        0.00000000       0.00000000       0.00000000      -0.45587385      -0.46863616      -0.36060590
H        0.00000000       0.00000000       0.00000000       0.52065134      -0.46617493       0.23786746
H        0.00000000       0.00000000       0.00000000       0.01534176      -0.35228735       0.03593898
H        0.00000000       0.00000000       0.00000000      -0.03931749       0.69626635       0.00126270
7
Lattice="529.1772105638412 0.0 0.0 0.0 529.1772105638412 0.0 0.0 0.0 529.1772105638412" Properties=species:S:1:pos:R:3:forces_component_raw:R:3 ipi_comment="Step:       17360  Bead:       0 forces_component_raw{ase}  cell{ase}" pbc="T T T"
O        0.00000000       0.00000000       0.00000000       0.63211107       1.08708632      -1.15421510
H        0.00000000       0.00000000       0.00000000      -0.21979064      -0.76505679      -0.03462343
H        0.00000000       0.00000000       0.00000000       0.15504429      -0.24598880       1.53062058
O        0.00000000       0.00000000       0.00000000       0.60979176      -0.42278522       0.55285812
H        0.00000000       0.00000000       0.00000000      -0.55977321       0.27351227      -0.18234420
H        0.00000000       0.00000000       0.00000000      -0.32243276       0.25264263      -0.56349242
H        0.00000000       0.00000000       0.00000000      -0.29495049      -0.17941040      -0.14880335
7
Lattice="529.1772105638412 0.0 0.0 0.0 529.1772105638412 0.0 0.0 0.0 529.1772105638412" Properties=species:S:1:pos:R:3:forces_component_raw:R:3 ipi_comment="Step:       17380  Bead:       0 forces_component_raw{ase}  cell{ase}" pbc="T T T"
O        0.00000000       0.00000000       0.00000000       0.51358158       0.35873187      -0.30679363
H        0.00000000       0.00000000       0.00000000      -0.30799031      -0.48430944       0.12052022
H        0.00000000       0.00000000       0.00000000       0.20826447       0.29135507       0.64820492
O        0.00000000       0.00000000       0.00000000      -1.09031689       0.11653654      -1.46831310
H        0.00000000       0.00000000       0.00000000      -0.25544301      -0.44611606       0.26395437
H        0.00000000       0.00000000       0.00000000       0.45869151       0.37812710       0.41209430
H        0.00000000       0.00000000       0.00000000       0.47321284      -0.21432489       0.33033300
7
Lattice="529.1772105638412 0.0 0.0 0.0 529.1772105638412 0.0 0.0 0.0 529.1772105638412" Properties=species:S:1:pos:R:3:forces_component_raw:R:3 ipi_comment="Step:       17400  Bead:       0 forces_component_raw{ase}  cell{ase}" pbc="T T T"
O        0.00000000       0.00000000       0.00000000      -0.36140966       0.62688112       0.73366845
H        0.00000000       0.00000000       0.00000000      -0.25059307      -0.50521129      -0.36629522
H        0.00000000       0.00000000       0.00000000       0.18554920      -0.40317196      -0.47078109
O        0.00000000       0.00000000       0.00000000      -0.22184405      -0.26752442      -0.20769090
H        0.00000000       0.00000000       0.00000000       0.23005545       0.04392123      -0.17096782
H        0.00000000       0.00000000       0.00000000       0.23300125       1.73531568      -0.56297845
H        0.00000000       0.00000000       0.00000000       0.18524095      -1.23021007       1.04504514
7
Lattice="529.1772105638412 0.0 0.0 0.0 529.1772105638412 0.0 0.0 0.0 529.1772105638412" Properties=species:S:1:pos:R:3:forces_component_raw:R:3 ipi_comment="Step:       17420  Bead:       0 forces_component_raw{ase}  cell{ase}" pbc="T T T"
O        0.00000000       0.00000000       0.00000000      -1.07061267      -0.25473845       0.31028426
H        0.00000000       0.00000000       0.00000000       0.27309942       0.55361557       0.48204029
H        0.00000000       0.00000000       0.00000000       0.93978447      -0.39264348      -0.98619479
O        0.00000000       0.00000000       0.00000000      -0.85197878      -1.82506800      -1.83830166
H        0.00000000       0.00000000       0.00000000      -0.36722282       0.17337412      -0.32773405
H        0.00000000       0.00000000       0.00000000       0.55000669       2.27251673       0.19711125
H        0.00000000       0.00000000       0.00000000       0.52692354      -0.52705628       2.16279459
7
Lattice="529.1772105638412 0.0 0.0 0.0 529.1772105638412 0.0 0.0 0.0 529.1772105638412" Properties=species:S:1:pos:R:3:forces_component_raw:R:3 ipi_comment="Step:       17440  Bead:       0 forces_component_raw{ase}  cell{ase}" pbc="T T T"
O        0.00000000       0.00000000       0.00000000      -1.33143914       0.76958275       0.58849710
H        0.00000000       0.00000000       0.00000000       1.11258388      -0.00154424       0.04620051
H        0.00000000       0.00000000       0.00000000       0.09144515      -0.60984814      -0.44475311
O        0.00000000       0.00000000       0.00000000      -0.08014679       0.21347976      -1.31903923
H        0.00000000       0.00000000       0.00000000       0.26752627      -0.41860861      -0.37650210
H        0.00000000       0.00000000       0.00000000       0.07859433       1.35218263      -0.48006216
H        0.00000000       0.00000000       0.00000000      -0.13856366      -1.30524421       1.98565913
7
Lattice="529.1772105638412 0.0 0.0 0.0 529.1772105638412 0.0 0.0 0.0 529.1772105638412" Properties=species:S:1:pos:R:3:forces_component_raw:R:3 ipi_comment="Step:       17460  Bead:       0 forces_component_raw{ase}  cell{ase}" pbc="T T T"
O        0.00000000       0.00000000       0.00000000      -1.04709542      -0.58724529      -1.11680448
H        0.00000000       0.00000000       0.00000000       1.22233081      -0.22938448       0.24354188
H        0.00000000       0.00000000       0.00000000      -0.35798386       0.40447003       0.16771483
O        0.00000000       0.00000000       0.00000000       0.15187085       0.33020991      -0.35074693
H        0.00000000       0.00000000       0.00000000      -0.04479969       0.26494807       0.48545286
H        0.00000000       0.00000000       0.00000000       0.07912064      -0.32407922       0.24603909
H        0.00000000       0.00000000       0.00000000      -0.00344366       0.14108092       0.32480300
7
Lattice="529.1772105638412 0.0 0.0 0.0 529.1772105638412 0.0 0.0 0.0 529.1772105638412" Properties=species:S:1:pos:R:3:forces_component_raw:R:3 ipi_comment="Step:       17480  Bead:       0 forces_component_raw{ase}  cell{ase}" pbc="T T T"
O        0.00000000       0.00000000       0.00000000      -1.72705305      -0.82742024      -1.48498965
H        0.00000000       0.00000000       0.00000000       1.33577943      -0.40872878       0.23081490
H        0.00000000       0.00000000       0.00000000       0.33729765       1.30706787       1.19262207
O        0.00000000       0.00000000       0.00000000      -0.95875597       1.48400021       1.45797420
H        0.00000000       0.00000000       0.00000000      -0.25928468      -0.27843738      -0.33268601
H        0.00000000       0.00000000       0.00000000       0.64397228      -1.35924149      -0.21585101
H        0.00000000       0.00000000       0.00000000       0.62804413       0.08275974      -0.84788454
7
Lattice="529.1772105638412 0.0 0.0 0.0 529.1772105638412 0.0 0.0 0.0 529.1772105638412" Properties=species:S:1:pos:R:3:forces_component_raw:R:3 ipi_comment="Step:       17500  Bead:       0 forces_component_raw{ase}  cell{ase}" pbc="T T T"
O        0.00000000       0.00000000       0.00000000       0.55399674      -0.92114407      -0.18237865
H        0.00000000       0.00000000       0.00000000       0.10223079      -0.67511481      -0.42380458
H        0.00000000       0.00000000       0.00000000      -0.32000393       1.97600508       1.06896007
O        0.00000000       0.00000000       0.00000000      -1.61332107       0.48449612      -0.23510158
H        0.00000000       0.00000000       0.00000000      -0.02418892       0.01437277       0.38255301
H        0.00000000       0.00000000       0.00000000       0.50625342      -1.74624038       0.72519660
H        0.00000000       0.00000000       0.00000000       0.79503316       0.86762536      -1.33542490
7
Lattice="529.1772105638412 0.0 0.0 0.0 529.1772105638412 0.0 0.0 0.0 529.1772105638412" Properties=species:S:1:pos:R:3:forces_component_raw:R:3 ipi_comment="Step:       17520  Bead:       0 forces_component_raw{ase}  cell{ase}" pbc="T T T"
O        0.00000000       0.00000000       0.00000000      -0.43787509      -1.81002272      -0.97848374
H        0.00000000       0.00000000       0.00000000       0.31556517       0.01471715       0.16734563
H        0.00000000       0.00000000       0.00000000       0.19594029       1.92334211       0.94281477
O        0.00000000       0.00000000       0.00000000      -0.72362209       1.84946895       2.35754586
H        0.00000000       0.00000000       0.00000000      -0.30128545      -0.17117652      -0.24998069
H        0.00000000       0.00000000       0.00000000       0.24687403      -2.13627959      -0.12592207
H        0.00000000       0.00000000       0.00000000       0.70440269       0.32995102      -2.11331940
7
Lattice="529.1772105638412 0.0 0.0 0.0 529.1772105638412 0.0 0.0 0.0 529.1772105638412" Properties=species:S:1:pos:R:3:forces_component_raw:R:3 ipi_comment="Step:       17540  Bead:       0 forces_component_raw{ase}  cell{ase}" pbc="T T T"
O        0.00000000       0.00000000       0.00000000       0.43131793      -1.26356745      -0.06197011
H        0.00000000       0.00000000       0.00000000      -0.26521659       0.05687698       0.00391968
H        0.00000000       0.00000000       0.00000000      -0.26382220       1.28521419       0.21235022
O        0.00000000       0.00000000       0.00000000      -0.27138174       0.53139722       1.67043686
H        0.00000000       0.00000000       0.00000000       0.41904050       0.07859510      -0.05490813
H        0.00000000       0.00000000       0.00000000      -0.42056307      -1.63014496       0.22684231
H        0.00000000       0.00000000       0.00000000       0.37062550       0.94162917      -1.99667085
7
Lattice="529.1772105638412 0.0 0.0 0.0 529.1772105638412 0.0 0.0 0.0 529.1772105638412" Properties=species:S:1:pos:R:3:forces_component_raw:R:3 ipi_comment="Step:       17560  Bead:       0 forces_component_raw{ase}  cell{ase}" pbc="T T T"
O        0.00000000       0.00000000       0.00000000       0.16040051      -0.26876593      -0.12215805
H        0.00000000       0.00000000       0.00000000       0.04076612      -0.01795881       0.13585427
H        0.00000000       0.00000000       0.00000000      -0.25745258       0.06506956      -0.32620853
O        0.00000000       0.00000000       0.00000000       0.25158501       0.28816074       1.17131043
H        0.00000000       0.00000000       0.00000000      -0.00641018      -0.09211421       0.25021455
H        0.00000000       0.00000000       0.00000000      -0.16210252      -0.25861204      -0.00676337
H        0.00000000       0.00000000       0.00000000      -0.02678621       0.28422052      -1.10224939
7
Lattice="529.1772105638412 0.0 0.0 0.0 529.1772105638412 0.0 0.0 0.0 529.1772105638412" Properties=species:S:1:pos:R:3:forces_component_raw:R:3 ipi_comment="Step:       17580  Bead:       0 forces_component_raw{ase}  cell{ase}" pbc="T T T"
O        0.00000000       0.00000000       0.00000000      -0.95750278       0.79010880       0.45421988
H        0.00000000       0.00000000       0.00000000       0.25629896       0.28961277      -0.14124337
H        0.00000000       0.00000000       0.00000000       0.53421939      -1.32094598      -0.19711751
O        0.00000000       0.00000000       0.00000000      -1.28127933      -0.98299045      -0.40436030
H        0.00000000       0.00000000       0.00000000       0.33013356       0.16106311      -0.49459097
H        0.00000000       0.00000000       0.00000000       1.09248197       1.01880944      -0.03392202
H        0.00000000       0.00000000       0.00000000       0.02564821       0.04434225       0.81701422
7
Lattice="529.1772105638412 0.0 0.0 0.0 529.1772105638412 0.0 0.0 0.0 529.1772105638412" Properties=species:S:1:pos:R:3:forces_component_raw:R:3 ipi_comment="Step:       17600  Bead:       0 forces_component_raw{ase}  cell{ase}" pbc="T T T"
O        0.00000000       0.00000000       0.00000000      -0.72943485       2.75946808       0.03814423
H        0.00000000       0.00000000       0.00000000       0.03274214      -0.07353714      -0.04271424
H        0.00000000       0.00000000       0.00000000       0.81234783      -2.81643868      -0.27119950
O        0.00000000       0.00000000       0.00000000      -0.32526356       0.07990724      -1.53587127
H        0.00000000       0.00000000       0.00000000      -0.47168982      -0.23295370       0.23804110
H        0.00000000       0.00000000       0.00000000       1.57246375       0.86522436      -0.34482390
H        0.00000000       0.00000000       0.00000000      -0.89116538      -0.58167040       1.91842342
7
Lattice="529.1772105638412 0.0 0.0 0.0 529.1772105638412 0.0 0.0 0.0 529.1772105638412" Properties=species:S:1:pos:R:3:forces_component_raw:R:3 ipi_comment="Step:       17620  Bead:       0 forces_component_raw{ase}  cell{ase}" pbc="T T T"
O        0.00000000       0.00000000       0.00000000      -1.39526761       2.09131647       0.51689285
H        0.00000000       0.00000000       0.00000000       0.36647111      -0.08131087      -0.21385780
H        0.00000000       0.00000000       0.00000000       0.70182532      -1.93961657      -0.38939831
O        0.00000000       0.00000000       0.00000000      -0.90494353      -0.38754475      -2.76107741
H        0.00000000       0.00000000       0.00000000       0.40272820      -0.00556469       0.22103898
H        0.00000000       0.00000000       0.00000000       1.45673466       0.44375306       0.10993290
H        0.00000000       0.00000000       0.00000000      -0.62754822      -0.12103277       2.51646853
7
Lattice="529.1772105638412 0.0 0.0 0.0 529.1772105638412 0.0 0.0 0.0 529.1772105638412" Properties=species:S:1:pos:R:3:forces_component_raw:R:3 ipi_comment="Step:       17640  Bead:       0 forces_component_raw{ase}  cell{ase}" pbc="T T T"
O        0.00000000       0.00000000       0.00000000      -0.20477402       0.00267696       0.47860324
H        0.00000000       0.00000000       0.00000000       0.21434021       0.26411995       0.15541677
H        0.00000000       0.00000000       0.00000000       0.32355723      -0.26241678      -0.03990167
O        0.00000000       0.00000000       0.00000000       0.96701777      -0.11513126      -1.09461248
H        0.00000000       0.00000000       0.00000000      -0.23830518       0.40128315      -0.31882101
H        0.00000000       0.00000000       0.00000000      -0.24103069      -0.08073348      -0.39792648
H        0.00000000       0.00000000       0.00000000      -0.82080549      -0.20979877       1.21724177
7
Lattice="529.1772105638412 0.0 0.0 0.0 529.1772105638412 0.0 0.0 0.0 529.1772105638412" Properties=species:S:1:pos:R:3:forces_component_raw:R:3 ipi_comment="Step:       17660  Bead:       0 forces_component_raw{ase}  cell{ase}" pbc="T T T"
O        0.00000000       0.00000000       0.00000000       0.33288997      -0.38502729       0.04434727
H        0.00000000       0.00000000       0.00000000       0.00533319      -0.04406820      -0.03706323
H        0.00000000       0.00000000       0.00000000      -0.17957737       0.72358823       0.31208128
O        0.00000000       0.00000000       0.00000000       0.38813573      -0.35722601      -1.53346277
H        0.00000000       0.00000000       0.00000000      -0.00832173       0.08632782       0.13283515
H        0.00000000       0.00000000       0.00000000      -0.99612165       0.04363561       0.65461636
H        0.00000000       0.00000000       0.00000000       0.45766190      -0.06723011       0.42664611
7
Lattice="529.1772105638412 0.0 0.0 0.0 529.1772105638412 0.0 0.0 0.0 529.1772105638412" Properties=species:S:1:pos:R:3:forces_component_raw:R:3 ipi_comment="Step:       17680  Bead:       0 forces_component_raw{ase}  cell{ase}" pbc="T T T"
O        0.00000000       0.00000000       0.00000000      -0.00804597      -0.60335136      -0.39467672
H        0.00000000       0.00000000       0.00000000       0.39546341      -0.14998668       0.16119415
H        0.00000000       0.00000000       0.00000000      -0.33264279       1.02968955       0.16437011
O        0.00000000       0.00000000       0.00000000       1.01874101      -0.94902051       1.61174620
H        0.00000000       0.00000000       0.00000000       0.00360361      -0.39224553       0.36289126
H        0.00000000       0.00000000       0.00000000      -1.17524314       0.40941835      -0.61965454
H        0.00000000       0.00000000       0.00000000       0.09812388       0.65549594      -1.28587044
7
Lattice="529.1772105638412 0.0 0.0 0.0 529.1772105638412 0.0 0.0 0.0 529.1772105638412" Properties=species:S:1:pos:R:3:forces_component_raw:R:3 ipi_comment="Step:       17700  Bead:       0 forces_component_raw{ase}  cell{ase}" pbc="T T T"
O        0.00000000       0.00000000       0.00000000       0.23077059      -1.34092844      -0.27269846
H        0.00000000       0.00000000       0.00000000       0.30591613       0.08241043       0.33936095
H        0.00000000       0.00000000       0.00000000      -0.42345560       0.75605130      -0.25302133
O        0.00000000       0.00000000       0.00000000       0.32734335      -0.96001816       2.28361130
H        0.00000000       0.00000000       0.00000000      -0.21442935       0.41002336      -0.34582594
H        0.00000000       0.00000000       0.00000000      -1.50023342       0.10319573      -0.00831683
H        0.00000000       0.00000000       0.00000000       1.27408827       0.94926602      -1.74310971
7
Lattice="529.1772105638412 0.0 0.0 0.0 529.1772105638412 0.0 0.0 0.0 529.1772105638412" Properties=species:S:1:pos:R:3:forces_component_raw:R:3 ipi_comment="Step:       17720  Bead:       0 forces_component_raw{ase}  cell{ase}" pbc="T T T"
O        0.00000000       0.00000000       0.00000000       0.37340546      -0.08560079       0.05481359
H        0.00000000       0.00000000       0.00000000      -0.34746784       0.02819669      -0.24144980
H        0.00000000       0.00000000       0.00000000      -0.09452951       0.49851817       0.05268887
O        0.00000000       0.00000000       0.00000000      -0.26090908       0.16175497       2.81086302
H        0.00000000       0.00000000       0.00000000       0.19523011      -0.66661263       0.52917689
H        0.00000000       0.00000000       0.00000000      -0.87533754      -0.04510237      -0.10819924
H        0.00000000       0.00000000       0.00000000       1.00960839       0.10884601      -3.09789348
7
Lattice="529.1772105638412 0.0 0.0 0.0 529.1772105638412 0.0 0.0 0.0 529.1772105638412" Properties=species:S:1:pos:R:3:forces_component_raw:R:3 ipi_comment="Step:       17740  Bead:       0 forces_component_raw{ase}  cell{ase}" pbc="T T T"
O        0.00000000       0.00000000       0.00000000       0.17497444       0.13049221       0.27663544
H        0.00000000       0.00000000       0.00000000       0.16418147      -0.22282270       0.27620721
H        0.00000000       0.00000000       0.00000000      -0.27806592      -0.21332800      -0.23541701
O        0.00000000       0.00000000       0.00000000      -0.66775751      -0.10210401       2.05489469
H        0.00000000       0.00000000       0.00000000       0.08666611       0.64288771      -0.22043395
H        0.00000000       0.00000000       0.00000000      -0.63968122       0.05557393       0.31671807
H        0.00000000       0.00000000       0.00000000       1.15968251      -0.29069889      -2.46860457
7
Lattice="529.1772105638412 0.0 0.0 0.0 529.1772105638412 0.0 0.0 0.0 529.1772105638412" Properties=species:S:1:pos:R:3:forces_component_raw:R:3 ipi_comment="Step:       17760  Bead:       0 forces_component_raw{ase}  cell{ase}" pbc="T T T"
O        0.00000000       0.00000000       0.00000000      -0.57863569       0.75865829       0.02875680
H        0.00000000       0.00000000       0.00000000       0.28339624      -0.24962814      -0.13586879
H        0.00000000       0.00000000       0.00000000       0.10981870      -0.15193313       0.23648070
O        0.00000000       0.00000000       0.00000000      -0.40103239       0.80434388       1.43559313
H        0.00000000       0.00000000       0.00000000       0.02988049      -0.50917417      -0.15419272
H        0.00000000       0.00000000       0.00000000       0.32547653      -0.02882187      -0.04226238
H        0.00000000       0.00000000       0.00000000       0.23109594      -0.62344498      -1.36850632
7
Lattice="529.1772105638412 0.0 0.0 0.0 529.1772105638412 0.0 0.0 0.0 529.1772105638412" Properties=species:S:1:pos:R:3:forces_component_raw:R:3 ipi_comment="Step:       17780  Bead:       0 forces_component_raw{ase}  cell{ase}" pbc="T T T"
O        0.00000000       0.00000000       0.00000000      -0.68800676       0.42051411      -1.03461123
H        0.00000000       0.00000000       0.00000000       0.33912236      -0.63955283       0.09696318
H        0.00000000       0.00000000       0.00000000      -0.04138643      -0.04722005       0.15747622
O        0.00000000       0.00000000       0.00000000      -0.76939261      -0.37548876      -0.91814017
H        0.00000000       0.00000000       0.00000000       0.24794307       0.18742508       0.52687043
H        0.00000000       0.00000000       0.00000000       0.90026945       0.21405917       0.47153279
H        0.00000000       0.00000000       0.00000000       0.01145080       0.24026322       0.69990873
7
Lattice="529.1772105638412 0.0 0.0 0.0 529.1772105638412 0.0 0.0 0.0 529.1772105638412" Properties=species:S:1:pos:R:3:forces_component_raw:R:3 ipi_comment="Step:       17800  Bead:       0 forces_component_raw{ase}  cell{ase}" pbc="T T T"
O        0.00000000       0.00000000       0.00000000      -0.06531787       0.62679547      -0.42030946
H        0.00000000       0.00000000       0.00000000       0.36358249      -0.73779565       0.72720242
H        0.00000000       0.00000000       0.00000000      -0.28574246      -0.16204852      -0.16777787
O        0.00000000       0.00000000       0.00000000       0.95404184      -0.68538052      -1.77977193
H        0.00000000       0.00000000       0.00000000       0.05563253       0.09804991      -0.54243887
H        0.00000000       0.00000000       0.00000000       1.39974368      -0.19368622      -0.16860217
H        0.00000000       0.00000000       0.00000000      -2.42194033       1.05406523       2.35169817
7
Lattice="529.1772105638412 0.0 0.0 0.0 529.1772105638412 0.0 0.0 0.0 529.1772105638412" Properties=species:S:1:pos:R:3:forces_component_raw:R:3 ipi_comment="Step:       17820  Bead:       0 forces_component_raw{ase}  cell{ase}" pbc="T T T"
O        0.00000000       0.00000000       0.00000000       0.28461850       0.63683510      -0.23968764
H        0.00000000       0.00000000       0.00000000       0.16352761       0.20875610      -0.00504881
H        0.00000000       0.00000000       0.00000000      -0.14669555      -0.59595049       0.38570917
O        0.00000000       0.00000000       0.00000000       1.52383805      -1.44303751      -3.47570062
H        0.00000000       0.00000000       0.00000000      -0.24296567      -0.29317904      -0.01579069
H        0.00000000       0.00000000       0.00000000       1.07642484       0.12294323       0.41897613
H        0.00000000       0.00000000       0.00000000      -2.65874768       1.36363244       2.93154216
7
Lattice="529.1772105638412 0.0 0.0 0.0 529.1772105638412 0.0 0.0 0.0 529.1772105638412" Properties=species:S:1:pos:R:3:forces_component_raw:R:3 ipi_comment="Step:       17840  Bead:       0 forces_component_raw{ase}  cell{ase}" pbc="T T T"
O        0.00000000       0.00000000       0.00000000       1.66728139       0.80014193       1.55191958
H        0.00000000       0.00000000       0.00000000      -0.73454869       0.29351336      -0.71451837
H        0.00000000       0.00000000       0.00000000      -0.48019478      -0.67071891      -0.05579412
O        0.00000000       0.00000000       0.00000000      -1.02429390      -0.36431238      -1.35210800
H        0.00000000       0.00000000       0.00000000      -0.12812986      -0.11673285      -0.13859889
H        0.00000000       0.00000000       0.00000000       1.43683482      -0.21722357       0.14715144
H        0.00000000       0.00000000       0.00000000      -0.73694903       0.27533239       0.56194830
7
Lattice="529.1772105638412 0.0 0.0 0.0 529.1772105638412 0.0 0.0 0.0 529.1772105638412" Properties=species:S:1:pos:R:3:forces_component_raw:R:3 ipi_comment="Step:       17860  Bead:       0 forces_component_raw{ase}  cell{ase}" pbc="T T T"
O        0.00000000       0.00000000       0.00000000       0.86416757      -0.13430616       0.44378406
H        0.00000000       0.00000000       0.00000000      -0.66248065       0.74905133      -0.92982835
H        0.00000000       0.00000000       0.00000000      -0.20024151      -0.70636994       0.42520583
O        0.00000000       0.00000000       0.00000000      -1.72730220       0.29316539       0.47020292
H        0.00000000       0.00000000       0.00000000       0.31848511       0.28811565       0.45731527
H        0.00000000       0.00000000       0.00000000       0.51093096      -0.05612025       0.23356098
H        0.00000000       0.00000000       0.00000000       0.89644093      -0.43353587      -1.10024071
7
Lattice="529.1772105638412 0.0 0.0 0.0 529.1772105638412 0.0 0.0 0.0 529.1772105638412" Properties=species:S:1:pos:R:3:forces_component_raw:R:3 ipi_comment="Step:       17880  Bead:       0 forces_component_raw{ase}  cell{ase}" pbc="T T T"
O        0.00000000       0.00000000       0.00000000       1.17426086       0.73196542       0.62855351
H        0.00000000       0.00000000       0.00000000      -0.63693983      -0.00041783      -0.52657342
H        0.00000000       0.00000000       0.00000000      -0.71219999      -0.85048461      -0.09982842
O        0.00000000       0.00000000       0.00000000      -0.65552336       0.28587782       2.00813985
H        0.00000000       0.00000000       0.00000000       0.16351718       0.15615284      -0.02724454
H        0.00000000       0.00000000       0.00000000      -0.11704189       0.13193628      -0.06690189
H        0.00000000       0.00000000       0.00000000       0.78392679      -0.45502994      -1.91614521
7
Lattice="529.1772105638412 0.0 0.0 0.0 529.1772105638412 0.0 0.0 0.0 529.1772105638412" Properties=species:S:1:pos:R:3:forces_component_raw:R:3 ipi_comment="Step:       17900  Bead:       0 forces_component_raw{ase}  cell{ase}" pbc="T T T"
O        0.00000000       0.00000000       0.00000000      -0.99779248       0.06463696      -0.88010580
H        0.00000000       0.00000000       0.00000000       0.43489087      -0.25127333       0.11630273
H        0.00000000       0.00000000       0.00000000       0.21899986      -0.08762729       0.25410533
O        0.00000000       0.00000000       0.00000000      -0.37180406       0.21008241       2.64273739
H        0.00000000       0.00000000       0.00000000      -0.18067557      -0.10563913      -0.24060875
H        0.00000000       0.00000000       0.00000000      -0.24964821       0.37018550       0.19113007
H        0.00000000       0.00000000       0.00000000       1.14602971      -0.20036489      -2.08356143
7
Lattice="529.1772105638412 0.0 0.0 0.0 529.1772105638412 0.0 0.0 0.0 529.1772105638412" Properties=species:S:1:pos:R:3:forces_component_raw:R:3 ipi_comment="Step:       17920  Bead:       0 forces_component_raw{ase}  cell{ase}" pbc="T T T"
O        0.00000000       0.00000000       0.00000000      -0.78307367       0.86227852      -1.03465319
H        0.00000000       0.00000000       0.00000000       0.48516768      -1.25004065       0.57202608
H        0.00000000       0.00000000       0.00000000      -0.01387608       0.27359825      -0.01008424
O        0.00000000       0.00000000       0.00000000       0.21287718      -0.11567795       2.21159649
H        0.00000000       0.00000000       0.00000000       0.18107697       0.04905537       0.12036383
H        0.00000000       0.00000000       0.00000000      -0.83484614       0.28519344      -0.08651721
H        0.00000000       0.00000000       0.00000000       0.75267440      -0.10440703      -1.77273190
7
Lattice="529.1772105638412 0.0 0.0 0.0 529.1772105638412 0.0 0.0 0.0 529.1772105638412" Properties=species:S:1:pos:R:3:forces_component_raw:R:3 ipi_comment="Step:       17940  Bead:       0 forces_component_raw{ase}  cell{ase}" pbc="T T T"
O        0.00000000       0.00000000       0.00000000      -1.54158795      -0.30010668      -1.16222286
H        0.00000000       0.00000000       0.00000000       0.99051041      -1.06992328       1.45846010
H        0.00000000       0.00000000       0.00000000       0.61959356       1.35977257      -0.28310883
O        0.00000000       0.00000000       0.00000000       1.39405537       0.41771484       0.65093374
H        0.00000000       0.00000000       0.00000000      -0.19226229      -0.12206852      -0.08292091
H        0.00000000       0.00000000       0.00000000      -1.14966238      -0.11743037      -0.23959833
H        0.00000000       0.00000000       0.00000000      -0.12064636      -0.16795872      -0.34154296
7
Lattice="529.1772105638412 0.0 0.0 0.0 529.1772105638412 0.0 0.0 0.0 529.1772105638412" Properties=species:S:1:pos:R:3:forces_component_raw:R:3 ipi_comment="Step:       17960  Bead:       0 forces_component_raw{ase}  cell{ase}" pbc="T T T"
O        0.00000000       0.00000000       0.00000000      -2.16004611      -1.39638496      -0.94067633
H        0.00000000       0.00000000       0.00000000       1.21490300      -0.53327990       1.50617218
H        0.00000000       0.00000000       0.00000000       0.90744984       1.88971436      -0.72999644
O        0.00000000       0.00000000       0.00000000       1.31379044       0.09878932      -1.98254121
H        0.00000000       0.00000000       0.00000000       0.13666675      -0.07896391       0.19641392
H        0.00000000       0.00000000       0.00000000      -1.09296131      -0.30652756       0.39299381
H        0.00000000       0.00000000       0.00000000      -0.31980300       0.32665253       1.55763388
7
Lattice="529.1772105638412 0.0 0.0 0.0 529.1772105638412 0.0 0.0 0.0 529.1772105638412" Properties=species:S:1:pos:R:3:forces_component_raw:R:3 ipi_comment="Step:       17980  Bead:       0 forces_component_raw{ase}  cell{ase}" pbc="T T T"
O        0.00000000       0.00000000       0.00000000      -0.45495272      -1.20713282       0.93281687
H        0.00000000       0.00000000       0.00000000       0.41931343      -0.16860613       0.74636668
H        0.00000000       0.00000000       0.00000000       0.35432541       1.32978583      -1.31474734
O        0.00000000       0.00000000       0.00000000       2.21708441       0.72420776      -1.68955517
H        0.00000000       0.00000000       0.00000000      -0.61583066      -0.08037405      -0.29070002
H        0.00000000       0.00000000       0.00000000      -0.46238047      -0.60014165      -0.46011382
H        0.00000000       0.00000000       0.00000000      -1.45755947       0.00226155       2.07593298
7
Lattice="529.1772105638412 0.0 0.0 0.0 529.1772105638412 0.0 0.0 0.0 529.1772105638412" Properties=species:S:1:pos:R:3:forces_component_raw:R:3 ipi_comment="Step:       18000  Bead:       0 forces_component_raw{ase}  cell{ase}" pbc="T T T"
O        0.00000000       0.00000000       0.00000000      -1.50798631      -0.72517419      -0.08400530
H        0.00000000       0.00000000       0.00000000       0.45861358      -0.23521274       0.22891553
H        0.00000000       0.00000000       0.00000000       0.72401750       1.05792105      -0.57693887
O        0.00000000       0.00000000       0.00000000       0.51335883      -0.38148677      -1.74951792
H        0.00000000       0.00000000       0.00000000       0.59248603      -0.30131272       0.50729865
H        0.00000000       0.00000000       0.00000000      -0.47663567      -0.13883662       0.52396876
H        0.00000000       0.00000000       0.00000000      -0.30385393       0.72410202       1.15027893
7
Lattice="529.1772105638412 0.0 0.0 0.0 529.1772105638412 0.0 0.0 0.0 529.1772105638412" Properties=species:S:1:pos:R:3:forces_component_raw:R:3 ipi_comment="Step:       18020  Bead:       0 forces_component_raw{ase}  cell{ase}" pbc="T T T"
O        0.00000000       0.00000000       0.00000000       0.05931413      -1.00213194       0.64861620
H        0.00000000       0.00000000       0.00000000      -0.26892835       0.09903041      -0.20617347
H        0.00000000       0.00000000       0.00000000       0.23924291       0.67009151      -0.43383634
O        0.00000000       0.00000000       0.00000000       0.01874506       1.02948284       1.49404264
H        0.00000000       0.00000000       0.00000000      -0.42092741       0.07242447      -0.66885597
H        0.00000000       0.00000000       0.00000000       0.41208074      -0.16514730      -0.73475766
H        0.00000000       0.00000000       0.00000000      -0.03952688      -0.70374966      -0.09903529
7
Lattice="529.1772105638412 0.0 0.0 0.0 529.1772105638412 0.0 0.0 0.0 529.1772105638412" Properties=species:S:1:pos:R:3:forces_component_raw:R:3 ipi_comment="Step:       18040  Bead:       0 forces_component_raw{ase}  cell{ase}" pbc="T T T"
O        0.00000000       0.00000000       0.00000000       0.28586137      -0.66169346      -0.02909365
H        0.00000000       0.00000000       0.00000000      -0.57091981       0.34605894      -0.48557079
H        0.00000000       0.00000000       0.00000000       0.16913173       0.26108199       0.15999083
O        0.00000000       0.00000000       0.00000000      -0.75621486      -1.51457262      -0.22575218
H        0.00000000       0.00000000       0.00000000       0.23034239      -0.10071908       0.44782099
H        0.00000000       0.00000000       0.00000000      -0.03719132       0.88025046       0.58036971
H        0.00000000       0.00000000       0.00000000       0.67899060       0.78959382      -0.44776481
7
Lattice="529.1772105638412 0.0 0.0 0.0 529.1772105638412 0.0 0.0 0.0 529.1772105638412" Properties=species:S:1:pos:R:3:forces_component_raw:R:3 ipi_comment="Step:       18060  Bead:       0 forces_component_raw{ase}  cell{ase}" pbc="T T T"
O        0.00000000       0.00000000       0.00000000       0.67096841       0.19384632       0.66966504
H        0.00000000       0.00000000       0.00000000      -0.80313015       0.57850027      -0.55672592
H        0.00000000       0.00000000       0.00000000       0.14480194      -0.86177939      -0.02233067
O        0.00000000       0.00000000       0.00000000      -1.00630677       0.58457971       2.48301101
H        0.00000000       0.00000000       0.00000000      -0.15242383       0.21937907      -0.30310756
H        0.00000000       0.00000000       0.00000000       0.56676871       0.48578024      -1.05525065
H        0.00000000       0.00000000       0.00000000       0.57932186      -1.20030618      -1.21526146
7
Lattice="529.1772105638412 0.0 0.0 0.0 529.1772105638412 0.0 0.0 0.0 529.1772105638412" Properties=species:S:1:pos:R:3:forces_component_raw:R:3 ipi_comment="Step:       18080  Bead:       0 forces_component_raw{ase}  cell{ase}" pbc="T T T"
O        0.00000000       0.00000000       0.00000000       0.76558268       1.45148158       1.65048290
H        0.00000000       0.00000000       0.00000000      -1.33720017       0.70611310      -1.02066517
H        0.00000000       0.00000000       0.00000000       0.56416643      -2.10547734      -0.53017038
O        0.00000000       0.00000000       0.00000000      -0.60474754      -1.29722905       0.02538985
H        0.00000000       0.00000000       0.00000000       0.10453603      -0.11927222       0.17529261
H        0.00000000       0.00000000       0.00000000      -0.04407142       0.35326672       0.90001703
H        0.00000000       0.00000000       0.00000000       0.55173385       1.01111698      -1.20034695
7
Lattice="529.1772105638412 0.0 0.0 0.0 529.1772105638412 0.0 0.0 0.0 529.1772105638412" Properties=species:S:1:pos:R:3:forces_component_raw:R:3 ipi_comment="Step:       18100  Bead:       0 forces_component_raw{ase}  cell{ase}" pbc="T T T"
O        0.00000000       0.00000000       0.00000000      -0.56118882       2.35121704       1.63766480
H        0.00000000       0.00000000       0.00000000      -0.66559988       0.27328098      -0.36159074
H        0.00000000       0.00000000       0.00000000       1.29733968      -2.58916426      -0.93978435
O        0.00000000       0.00000000       0.00000000       0.17661399       0.07289934       1.91959835
H        0.00000000       0.00000000       0.00000000       0.03383613       0.10318509      -0.35955834
H        0.00000000       0.00000000       0.00000000       0.05740571       0.31138110      -0.88906992
H        0.00000000       0.00000000       0.00000000      -0.33840683      -0.52279931      -1.00725937
7
Lattice="529.1772105638412 0.0 0.0 0.0 529.1772105638412 0.0 0.0 0.0 529.1772105638412" Properties=species:S:1:pos:R:3:forces_component_raw:R:3 ipi_comment="Step:       18120  Bead:       0 forces_component_raw{ase}  cell{ase}" pbc="T T T"
O        0.00000000       0.00000000       0.00000000      -1.99888969       1.01729250      -0.10576892
H        0.00000000       0.00000000       0.00000000       0.71145934      -0.05872466       0.40646100
H        0.00000000       0.00000000       0.00000000       1.01973009      -1.14603877      -0.80367190
O        0.00000000       0.00000000       0.00000000      -0.77805096      -0.60324657      -1.36912442
H        0.00000000       0.00000000       0.00000000       0.47666723       0.00387010       0.79531455
H        0.00000000       0.00000000       0.00000000       0.28154838       0.32909769       0.73393005
H        0.00000000       0.00000000       0.00000000       0.28753573       0.45774940       0.34285975
7
Lattice="529.1772105638412 0.0 0.0 0.0 529.1772105638412 0.0 0.0 0.0 529.1772105638412" Properties=species:S:1:pos:R:3:forces_component_raw:R:3 ipi_comment="Step:       18140  Bead:       0 forces_component_raw{ase}  cell{ase}" pbc="T T T"
O        0.00000000       0.00000000       0.00000000      -0.10815759      -0.27698201      -0.77253521
H        0.00000000       0.00000000       0.00000000       0.79734123       0.06942703       0.71791715
H        0.00000000       0.00000000       0.00000000      -0.32512769       0.21891406       0.39721656
O        0.00000000       0.00000000       0.00000000       0.93702001       1.28498876      -0.31422424
H        0.00000000       0.00000000       0.00000000      -0.39097184       0.11010550      -0.84667671
H        0.00000000       0.00000000       0.00000000      -0.29841840      -0.08251816      -0.90211404
H        0.00000000       0.00000000       0.00000000      -0.61168575      -1.32393515       1.72041643
7
Lattice="529.1772105638412 0.0 0.0 0.0 529.1772105638412 0.0 0.0 0.0 529.1772105638412" Properties=species:S:1:pos:R:3:forces_component_raw:R:3 ipi_comment="Step:       18160  Bead:       0 forces_component_raw{ase}  cell{ase}" pbc="T T T"
O        0.00000000       0.00000000       0.00000000       0.41935572      -0.03254998      -1.64191592
H        0.00000000       0.00000000       0.00000000       0.89038193      -0.25756162       0.24619804
H        0.00000000       0.00000000       0.00000000      -0.93441552       0.46852225       1.86850584
O        0.00000000       0.00000000       0.00000000      -0.06768674       1.66497803      -3.98594547
H        0.00000000       0.00000000       0.00000000      -0.14311351       0.00330454       0.19481343
H        0.00000000       0.00000000       0.00000000      -0.19624323      -0.51880115       0.54806137
H        0.00000000       0.00000000       0.00000000       0.03172123      -1.32789219       2.77028275
7
Lattice="529.1772105638412 0.0 0.0 0.0 529.1772105638412 0.0 0.0 0.0 529.1772105638412" Properties=species:S:1:pos:R:3:forces_component_raw:R:3 ipi_comment="Step:       18180  Bead:       0 forces_component_raw{ase}  cell{ase}" pbc="T T T"
O        0.00000000       0.00000000       0.00000000       1.23779559       0.67073214      -2.60479427
H        0.00000000       0.00000000       0.00000000      -0.11569405      -0.12141943       0.02151739
H        0.00000000       0.00000000       0.00000000      -0.80880082      -0.31813204       2.54080606
O        0.00000000       0.00000000       0.00000000       0.42381513       1.57620347      -1.68725264
H        0.00000000       0.00000000       0.00000000      -0.51380867      -0.40779865       0.37765861
H        0.00000000       0.00000000       0.00000000       0.14024437       0.59270108      -0.70361626
H        0.00000000       0.00000000       0.00000000      -0.36355135      -1.99228633       2.05568123
7
Lattice="529.1772105638412 0.0 0.0 0.0 529.1772105638412 0.0 0.0 0.0 529.1772105638412" Properties=species:S:1:pos:R:3:forces_component_raw:R:3 ipi_comment="Step:       18200  Bead:       0 forces_component_raw{ase}  cell{ase}" pbc="T T T"
O        0.00000000       0.00000000       0.00000000       0.88637018       0.10100460      -1.56217099
H        0.00000000       0.00000000       0.00000000      -0.35863578       0.08418691      -0.48925799
H        0.00000000       0.00000000       0.00000000      -0.56029397      -0.31074947       2.64378930
O        0.00000000       0.00000000       0.00000000      -1.83634425      -1.13665414      -1.73805547
H        0.00000000       0.00000000       0.00000000       0.09771162       0.74111682      -0.37457192
H        0.00000000       0.00000000       0.00000000       1.25167060       0.78175450       0.41930720
H        0.00000000       0.00000000       0.00000000       0.51952154      -0.26065916       1.10095990
7
Lattice="529.1772105638412 0.0 0.0 0.0 529.1772105638412 0.0 0.0 0.0 529.1772105638412" Properties=species:S:1:pos:R:3:forces_component_raw:R:3 ipi_comment="Step:       18220  Bead:       0 forces_component_raw{ase}  cell{ase}" pbc="T T T"
O        0.00000000       0.00000000       0.00000000       1.46917463       0.27737129      -2.17831135
H        0.00000000       0.00000000       0.00000000      -0.78253472       0.25664693      -0.01083184
H        0.00000000       0.00000000       0.00000000      -0.67577195      -0.40318042       1.99158955
O        0.00000000       0.00000000       0.00000000      -0.53116506      -1.39071930       1.29666674
H        0.00000000       0.00000000       0.00000000      -0.24876726      -0.43594569       0.03743029
H        0.00000000       0.00000000       0.00000000       1.38094700       1.42272783      -0.23683435
H        0.00000000       0.00000000       0.00000000      -0.61188257       0.27309966      -0.89970899
7
Lattice="529.1772105638412 0.0 0.0 0.0 529.1772105638412 0.0 0.0 0.0 529.1772105638412" Properties=species:S:1:pos:R:3:forces_component_raw:R:3 ipi_comment="Step:       18240  Bead:       0 forces_component_raw{ase}  cell{ase}" pbc="T T T"
O        0.00000000       0.00000000       0.00000000       1.43253625      -0.30914497      -1.44059992
H        0.00000000       0.00000000       0.00000000      -1.16921211       0.32987237      -0.06417796
H        0.00000000       0.00000000       0.00000000      -0.55268324      -0.12850302       0.96395415
O        0.00000000       0.00000000       0.00000000      -1.01776159      -1.88512898       0.98031217
H        0.00000000       0.00000000       0.00000000       0.18091643       0.07090932       0.08461416
H        0.00000000       0.00000000       0.00000000       0.73287666       0.05129793       0.22304973
H        0.00000000       0.00000000       0.00000000       0.39332771       1.87069738      -0.74715233
7
Lattice="529.1772105638412 0.0 0.0 0.0 529.1772105638412 0.0 0.0 0.0 529.1772105638412" Properties=species:S:1:pos:R:3:forces_component_raw:R:3 ipi_comment="Step:       18260  Bead:       0 forces_component_raw{ase}  cell{ase}" pbc="T T T"
O        0.00000000       0.00000000       0.00000000      -0.22190297      -0.04200655       1.16728139
H        0.00000000       0.00000000       0.00000000      -0.56133765       0.13992146      -0.17778644
H        0.00000000       0.00000000       0.00000000       0.53104532      -0.03347667      -1.10967541
O        0.00000000       0.00000000       0.00000000       1.46685958      -1.46951938       0.72252393
H        0.00000000       0.00000000       0.00000000       0.35783446      -0.16351205      -0.19793399
H        0.00000000       0.00000000       0.00000000      -0.93539757      -0.09768760       0.12234807
H        0.00000000       0.00000000       0.00000000      -0.63710123       1.66628111      -0.52675760
7
Lattice="529.1772105638412 0.0 0.0 0.0 529.1772105638412 0.0 0.0 0.0 529.1772105638412" Properties=species:S:1:pos:R:3:forces_component_raw:R:3 ipi_comment="Step:       18280  Bead:       0 forces_component_raw{ase}  cell{ase}" pbc="T T T"
O        0.00000000       0.00000000       0.00000000      -1.55962301       0.31248885       2.48295594
H        0.00000000       0.00000000       0.00000000       0.11025834       0.08544621       0.32189882
H        0.00000000       0.00000000       0.00000000       1.58713603      -0.39796907      -2.72261835
O        0.00000000       0.00000000       0.00000000       0.83865166       0.22949398      -1.22914291
H        0.00000000       0.00000000       0.00000000       0.02060205       0.18850192       0.37222323
H        0.00000000       0.00000000       0.00000000      -1.20565605      -1.08947468       0.75133383
H        0.00000000       0.00000000       0.00000000       0.20863074       0.67151296       0.02334929
7
Lattice="529.1772105638412 0.0 0.0 0.0 529.1772105638412 0.0 0.0 0.0 529.1772105638412" Properties=species:S:1:pos:R:3:forces_component_raw:R:3 ipi_comment="Step:       18300  Bead:       0 forces_component_raw{ase}  cell{ase}" pbc="T T T"
O        0.00000000       0.00000000       0.00000000      -1.90501690       1.06431353       3.44602681
H        0.00000000       0.00000000       0.00000000       1.18634963      -0.34614897      -0.15563989
H        0.00000000       0.00000000       0.00000000       0.91458893      -0.53625697      -2.91570044
O        0.00000000       0.00000000       0.00000000       2.08776904       1.65761829       0.53808725
H        0.00000000       0.00000000       0.00000000      -0.24021673      -0.38522238      -0.70085299
H        0.00000000       0.00000000       0.00000000      -1.77426291      -0.88751865      -0.22725171
H        0.00000000       0.00000000       0.00000000      -0.26921099      -0.56678480       0.01533079
7
Lattice="529.1772105638412 0.0 0.0 0.0 529.1772105638412 0.0 0.0 0.0 529.1772105638412" Properties=species:S:1:pos:R:3:forces_component_raw:R:3 ipi_comment="Step:       18320  Bead:       0 forces_component_raw{ase}  cell{ase}" pbc="T T T"
O        0.00000000       0.00000000       0.00000000      -1.50573659       0.82799030       1.63804412
H        0.00000000       0.00000000       0.00000000       1.69774938      -0.64035303       0.04618412
H        0.00000000       0.00000000       0.00000000       0.47037065      -0.15974398      -1.19445288
O        0.00000000       0.00000000       0.00000000      -0.53063345       1.20808411      -1.56514120
H        0.00000000       0.00000000       0.00000000      -0.34627104       0.42638067       0.40482968
H        0.00000000       0.00000000       0.00000000      -0.48089624      -0.99403405      -0.03328471
H        0.00000000       0.00000000       0.00000000       0.69541705      -0.66832400       0.70382130
7
Lattice="529.1772105638412 0.0 0.0 0.0 529.1772105638412 0.0 0.0 0.0 529.1772105638412" Properties=species:S:1:pos:R:3:forces_component_raw:R:3 ipi_comment="Step:       18340  Bead:       0 forces_component_raw{ase}  cell{ase}" pbc="T T T"
O        0.00000000       0.00000000       0.00000000      -0.73019350       0.33749485       0.36428821
H        0.00000000       0.00000000       0.00000000       0.69468045      -0.49334705      -0.82240582
H        0.00000000       0.00000000       0.00000000      -0.29807872       0.34357357       0.80910868
O        0.00000000       0.00000000       0.00000000      -0.09696960      -0.35413921       0.58150000
H        0.00000000       0.00000000       0.00000000       0.35575920      -0.28461495      -0.60031158
H        0.00000000       0.00000000       0.00000000       0.33496052       1.04080153      -0.26253027
H        0.00000000       0.00000000       0.00000000      -0.26015818      -0.58976871      -0.06964916
7
Lattice="529.1772105638412 0.0 0.0 0.0 529.1772105638412 0.0 0.0 0.0 529.1772105638412" Properties=species:S:1:pos:R:3:forces_component_raw:R:3 ipi_comment="Step:       18360  Bead:       0 forces_component_raw{ase}  cell{ase}" pbc="T T T"
O        0.00000000       0.00000000       0.00000000      -0.28141204      -0.35242236      -3.02661706
H        0.00000000       0.00000000       0.00000000       0.56365442      -0.06913704       0.14800590
H        0.00000000       0.00000000       0.00000000      -0.59374696       0.11007769       1.77904594
O        0.00000000       0.00000000       0.00000000      -0.46518290      -2.15010477       0.66874421
H        0.00000000       0.00000000       0.00000000      -0.47534442      -0.02213323       0.60922253
H        0.00000000       0.00000000       0.00000000       1.48908925       1.79636372       0.23855521
H        0.00000000       0.00000000       0.00000000      -0.23705715       0.68735606      -0.41695657
7
Lattice="529.1772105638412 0.0 0.0 0.0 529.1772105638412 0.0 0.0 0.0 529.1772105638412" Properties=species:S:1:pos:R:3:forces_component_raw:R:3 ipi_comment="Step:       18380  Bead:       0 forces_component_raw{ase}  cell{ase}" pbc="T T T"
O        0.00000000       0.00000000       0.00000000       0.26621652      -0.41604540      -2.38667107
H        0.00000000       0.00000000       0.00000000      -0.97797454       0.16362134       0.03845911
H        0.00000000       0.00000000       0.00000000      -0.23815648       0.02516459       1.93909574
O        0.00000000       0.00000000       0.00000000      -0.20788455      -2.58875180       1.46908450
H        0.00000000       0.00000000       0.00000000       0.56629121       0.17850226      -0.32665736
H        0.00000000       0.00000000       0.00000000       1.27791345       2.16604233      -0.33055323
H        0.00000000       0.00000000       0.00000000      -0.68640572       0.47146678      -0.40275753
7
Lattice="529.1772105638412 0.0 0.0 0.0 529.1772105638412 0.0 0.0 0.0 529.1772105638412" Properties=species:S:1:pos:R:3:forces_component_raw:R:3 ipi_comment="Step:       18400  Bead:       0 forces_component_raw{ase}  cell{ase}" pbc="T T T"
O        0.00000000       0.00000000       0.00000000       3.73076154      -0.33132637      -0.83539015
H        0.00000000       0.00000000       0.00000000      -2.52311183       0.45348233       0.26348430
H        0.00000000       0.00000000       0.00000000      -0.76192719      -0.07842335       0.57683790
O        0.00000000       0.00000000       0.00000000      -0.87623692      -1.00329900      -0.30173671
H        0.00000000       0.00000000       0.00000000      -0.25503960      -0.11263534       0.37333548
H        0.00000000       0.00000000       0.00000000       0.78192634       0.68596208       0.05097464
H        0.00000000       0.00000000       0.00000000      -0.09637231       0.38623965      -0.12750557
7
Lattice="529.1772105638412 0.0 0.0 0.0 529.1772105638412 0.0 0.0 0.0 529.1772105638412" Properties=species:S:1:pos:R:3:forces_component_raw:R:3 ipi_comment="Step:       18420  Bead:       0 forces_component_raw{ase}  cell{ase}" pbc="T T T"
O        0.00000000       0.00000000       0.00000000       1.70859838      -0.21643353       0.09103674
H        0.00000000       0.00000000       0.00000000      -2.17937971       0.13550794       1.08685374
H        0.00000000       0.00000000       0.00000000       0.76000375       0.16727477      -0.79491234
O        0.00000000       0.00000000       0.00000000       0.33333635      -0.69798166       0.35054636
H        0.00000000       0.00000000       0.00000000       0.00160944       0.12839836      -0.44753480
H        0.00000000       0.00000000       0.00000000      -0.25870758       0.28185594      -0.26953226
H        0.00000000       0.00000000       0.00000000      -0.36546090       0.20137829      -0.01645742
7
Lattice="529.1772105638412 0.0 0.0 0.0 529.1772105638412 0.0 0.0 0.0 529.1772105638412" Properties=species:S:1:pos:R:3:forces_component_raw:R:3 ipi_comment="Step:       18440  Bead:       0 forces_component_raw{ase}  cell{ase}" pbc="T T T"
O        0.00000000       0.00000000       0.00000000       1.44403124      -0.87186730       2.43178154
H        0.00000000       0.00000000       0.00000000      -0.70004475       0.31732002      -0.34973225
H        0.00000000       0.00000000       0.00000000      -0.41387647       0.95103872      -1.77149773
O        0.00000000       0.00000000       0.00000000      -0.53528988       0.85414064      -0.65974474
H        0.00000000       0.00000000       0.00000000      -0.01513416      -0.43293846       0.01241553
H        0.00000000       0.00000000       0.00000000      -0.30294913      -0.85844469       0.27426839
H        0.00000000       0.00000000       0.00000000       0.52326346       0.04075062       0.06250939
7
Lattice="529.1772105638412 0.0 0.0 0.0 529.1772105638412 0.0 0.0 0.0 529.1772105638412" Properties=species:S:1:pos:R:3:forces_component_raw:R:3 ipi_comment="Step:       18460  Bead:       0 forces_component_raw{ase}  cell{ase}" pbc="T T T"
O        0.00000000       0.00000000       0.00000000      -2.06162787      -0.99482072       0.87343633
H        0.00000000       0.00000000       0.00000000       0.53706968      -0.32468951       0.41609514
H        0.00000000       0.00000000       0.00000000       0.65702170       0.83921790      -1.87090791
O        0.00000000       0.00000000       0.00000000       1.93673480       1.07793045      -0.40238190
H        0.00000000       0.00000000       0.00000000       0.65560544       0.63508701       0.45639646
H        0.00000000       0.00000000       0.00000000      -1.55639577      -0.40484125       0.10446447
H        0.00000000       0.00000000       0.00000000      -0.16840825      -0.82788396       0.42289737
7
Lattice="529.1772105638412 0.0 0.0 0.0 529.1772105638412 0.0 0.0 0.0 529.1772105638412" Properties=species:S:1:pos:R:3:forces_component_raw:R:3 ipi_comment="Step:       18480  Bead:       0 forces_component_raw{ase}  cell{ase}" pbc="T T T"
O        0.00000000       0.00000000       0.00000000       0.22176039      -0.34903586       1.12252116
H        0.00000000       0.00000000       0.00000000       0.18507981       0.18234667      -1.17199111
H        0.00000000       0.00000000       0.00000000      -0.71068329       0.26164973      -0.25172061
O        0.00000000       0.00000000       0.00000000       1.70876229       2.61099148       0.02223641
H        0.00000000       0.00000000       0.00000000      -0.96239639      -0.77699626      -0.55922419
H        0.00000000       0.00000000       0.00000000      -0.87606740      -1.61035157       0.82888603
H        0.00000000       0.00000000       0.00000000       0.43354455      -0.31860435       0.00929242
7
Lattice="529.1772105638412 0.0 0.0 0.0 529.1772105638412 0.0 0.0 0.0 529.1772105638412" Properties=species:S:1:pos:R:3:forces_component_raw:R:3 ipi_comment="Step:       18500  Bead:       0 forces_component_raw{ase}  cell{ase}" pbc="T T T"
O        0.00000000       0.00000000       0.00000000      -2.81938601       0.37323964      -1.10001433
H        0.00000000       0.00000000       0.00000000       0.85404211      -0.47911167       0.29529387
H        0.00000000       0.00000000       0.00000000       1.08835292      -0.26563871       0.41736072
O        0.00000000       0.00000000       0.00000000       1.47425926       0.50322551       0.69245857
H        0.00000000       0.00000000       0.00000000       0.85345519       0.37212733       0.22588170
H        0.00000000       0.00000000       0.00000000      -1.21324325      -0.94399345      -0.22736484
H        0.00000000       0.00000000       0.00000000      -0.23748025       0.44015139      -0.30361563
7
Lattice="529.1772105638412 0.0 0.0 0.0 529.1772105638412 0.0 0.0 0.0 529.1772105638412" Properties=species:S:1:pos:R:3:forces_component_raw:R:3 ipi_comment="Step:       18520  Bead:       0 forces_component_raw{ase}  cell{ase}" pbc="T T T"
O        0.00000000       0.00000000       0.00000000       1.03033626       0.49732232       0.32898673
H        0.00000000       0.00000000       0.00000000       0.57434750       0.37193683      -0.80060023
H        0.00000000       0.00000000       0.00000000      -0.95968533      -0.35187298       0.60263062
O        0.00000000       0.00000000       0.00000000       0.30592835      -1.04487419       0.41331208
H        0.00000000       0.00000000       0.00000000      -0.28735489      -0.48186958       0.17289487
H        0.00000000       0.00000000       0.00000000      -0.33308256      -0.15608096      -0.23993592
H        0.00000000       0.00000000       0.00000000      -0.33048943       1.16543818      -0.47728816
7
Lattice="529.1772105638412 0.0 0.0 0.0 529.1772105638412 0.0 0.0 0.0 529.1772105638412" Properties=species:S:1:pos:R:3:forces_component_raw:R:3 ipi_comment="Step:       18540  Bead:       0 forces_component_raw{ase}  cell{ase}" pbc="T T T"
O        0.00000000       0.00000000       0.00000000      -0.86860174       0.70196402      -1.02209604
H        0.00000000       0.00000000       0.00000000       0.21177727      -0.25186923       0.37161321
H        0.00000000       0.00000000       0.00000000       0.56234276      -0.47941709       1.05330611
O        0.00000000       0.00000000       0.00000000      -0.81665129      -2.30226326       0.01341597
H        0.00000000       0.00000000       0.00000000       0.53913301       0.21356773      -0.28029901
H        0.00000000       0.00000000       0.00000000       0.75252098       1.07118130       0.14071646
H        0.00000000       0.00000000       0.00000000      -0.38052100       1.04683674      -0.27665657
7
Lattice="529.1772105638412 0.0 0.0 0.0 529.1772105638412 0.0 0.0 0.0 529.1772105638412" Properties=species:S:1:pos:R:3:forces_component_raw:R:3 ipi_comment="Step:       18560  Bead:       0 forces_component_raw{ase}  cell{ase}" pbc="T T T"
O        0.00000000       0.00000000       0.00000000       1.34454227       0.24696183      -0.66349781
H        0.00000000       0.00000000       0.00000000      -0.35465610       0.24769789      -0.03175882
H        0.00000000       0.00000000       0.00000000      -0.66281623      -0.27350313       0.39411044
O        0.00000000       0.00000000       0.00000000      -0.85679090      -1.85743869      -0.27364934
H        0.00000000       0.00000000       0.00000000      -0.38734308      -0.29979861       0.38612059
H        0.00000000       0.00000000       0.00000000       1.08502221       1.69157029       0.24427854
H        0.00000000       0.00000000       0.00000000      -0.16795820       0.24451059      -0.05560326
7
Lattice="529.1772105638412 0.0 0.0 0.0 529.1772105638412 0.0 0.0 0.0 529.1772105638412" Properties=species:S:1:pos:R:3:forces_component_raw:R:3 ipi_comment="Step:       18580  Bead:       0 forces_component_raw{ase}  cell{ase}" pbc="T T T"
O        0.00000000       0.00000000       0.00000000      -0.08224624      -0.35507500      -0.12825662
H        0.00000000       0.00000000       0.00000000      -0.72087842       0.04038408       0.14678724
H        0.00000000       0.00000000       0.00000000       0.24499194       0.10544390      -0.23423553
O        0.00000000       0.00000000       0.00000000      -0.57528949      -0.93605691       0.16092217
H        0.00000000       0.00000000       0.00000000       0.14111874       0.37019327      -0.20530984
H        0.00000000       0.00000000       0.00000000       0.53657633       1.14342249       0.03534320
H        0.00000000       0.00000000       0.00000000       0.45572716      -0.36831188       0.22474936
7
Lattice="529.1772105638412 0.0 0.0 0.0 529.1772105638412 0.0 0.0 0.0 529.1772105638412" Properties=species:S:1:pos:R:3:forces_component_raw:R:3 ipi_comment="Step:       18600  Bead:       0 forces_component_raw{ase}  cell{ase}" pbc="T T T"
O        0.00000000       0.00000000       0.00000000       0.26208103      -0.21221769       1.33797980
H        0.00000000       0.00000000       0.00000000      -0.73992735       0.01392928      -0.01787254
H        0.00000000       0.00000000       0.00000000       0.21091014       0.20846564      -1.42276240
O        0.00000000       0.00000000       0.00000000      -0.52863193      -0.09221464       0.00696909
H        0.00000000       0.00000000       0.00000000      -0.24414319      -0.36880446      -0.29110992
H        0.00000000       0.00000000       0.00000000       0.16913715       1.49698854       0.34092662
H        0.00000000       0.00000000       0.00000000       0.87057400      -1.04614663       0.04586953
7
Lattice="529.1772105638412 0.0 0.0 0.0 529.1772105638412 0.0 0.0 0.0 529.1772105638412" Properties=species:S:1:pos:R:3:forces_component_raw:R:3 ipi_comment="Step:       18620  Bead:       0 forces_component_raw{ase}  cell{ase}" pbc="T T T"
O        0.00000000       0.00000000       0.00000000      -1.17164111       0.16132993       1.40757132
H        0.00000000       0.00000000       0.00000000       0.47780109       0.07792568       0.25957787
H        0.00000000       0.00000000       0.00000000       0.76919723      -0.29396916      -1.70747042
O        0.00000000       0.00000000       0.00000000      -0.71716798      -1.27457691      -0.64440960
H        0.00000000       0.00000000       0.00000000      -0.02535737       0.28256595       0.32643414
H        0.00000000       0.00000000       0.00000000       0.16756120       1.16262698       0.21324042
H        0.00000000       0.00000000       0.00000000       0.49960661      -0.11590251       0.14505629
7
Lattice="529.1772105638412 0.0 0.0 0.0 529.1772105638412 0.0 0.0 0.0 529.1772105638412" Properties=species:S:1:pos:R:3:forces_component_raw:R:3 ipi_comment="Step:       18640  Bead:       0 forces_component_raw{ase}  cell{ase}" pbc="T T T"
O        0.00000000       0.00000000       0.00000000      -1.63677597       0.41849661       1.60617280
H        0.00000000       0.00000000       0.00000000       1.49195552       0.48241228      -0.10078834
H        0.00000000       0.00000000       0.00000000       0.55478752      -0.71675748      -1.18489909
O        0.00000000       0.00000000       0.00000000      -0.09053314      -0.18230695      -0.01171717
H        0.00000000       0.00000000       0.00000000      -0.04558291      -0.24792138      -0.09559357
H        0.00000000       0.00000000       0.00000000      -0.17748028       0.48972380       0.10571057
H        0.00000000       0.00000000       0.00000000      -0.09637094      -0.24364668      -0.31888524
7
Lattice="529.1772105638412 0.0 0.0 0.0 529.1772105638412 0.0 0.0 0.0 529.1772105638412" Properties=species:S:1:pos:R:3:forces_component_raw:R:3 ipi_comment="Step:       18660  Bead:       0 forces_component_raw{ase}  cell{ase}" pbc="T T T"
O        0.00000000       0.00000000       0.00000000      -0.97980768      -2.31631852       0.34382242
H        0.00000000       0.00000000       0.00000000       1.24909115       1.51765931      -0.15079486
H        0.00000000       0.00000000       0.00000000      -0.08016378       0.63266230      -0.03372619
O        0.00000000       0.00000000       0.00000000       0.04496515       0.14635313       0.33356339
H        0.00000000       0.00000000       0.00000000       0.02406162       0.14975187      -0.15370652
H        0.00000000       0.00000000       0.00000000       0.49799872      -0.53956032      -0.15495235
H        0.00000000       0.00000000       0.00000000      -0.75614512       0.40945223      -0.18420593
7
Lattice="529.1772105638412 0.0 0.0 0.0 529.1772105638412 0.0 0.0 0.0 529.1772105638412" Properties=species:S:1:pos:R:3:forces_component_raw:R:3 ipi_comment="Step:       18680  Bead:       0 forces_component_raw{ase}  cell{ase}" pbc="T T T"
O        0.00000000       0.00000000       0.00000000      -1.08638287      -1.07968521      -0.12398598
H        0.00000000       0.00000000       0.00000000       1.55801082       0.71271259      -0.80969387
H        0.00000000       0.00000000       0.00000000      -0.81752193       0.19601673       0.34784845
O        0.00000000       0.00000000       0.00000000       0.76792395       1.11062336       1.66270805
H        0.00000000       0.00000000       0.00000000       0.10630325      -0.02387039       0.11775464
H        0.00000000       0.00000000       0.00000000       0.01525205      -0.95515669      -0.93663919
H        0.00000000       0.00000000       0.00000000      -0.54358548       0.03935915      -0.25799215
7
Lattice="529.1772105638412 0.0 0.0 0.0 529.1772105638412 0.0 0.0 0.0 529.1772105638412" Properties=species:S:1:pos:R:3:forces_component_raw:R:3 ipi_comment="Step:       18700  Bead:       0 forces_component_raw{ase}  cell{ase}" pbc="T T T"
O        0.00000000       0.00000000       0.00000000      -0.57071543      -1.33825016      -1.28267944
H        0.00000000       0.00000000       0.00000000       1.02652741       0.62428087      -0.13354653
H        0.00000000       0.00000000       0.00000000      -0.68381691       1.02000499       1.15816844
O        0.00000000       0.00000000       0.00000000      -0.00923789       1.28160095       0.97674728
H        0.00000000       0.00000000       0.00000000      -0.00188778      -0.42452690       0.20086743
H        0.00000000       0.00000000       0.00000000       0.15283158      -1.31749177      -1.15961862
H        0.00000000       0.00000000       0.00000000       0.08629918       0.15438223       0.24006136
7
Lattice="529.1772105638412 0.0 0.0 0.0 529.1772105638412 0.0 0.0 0.0 529.1772105638412" Properties=species:S:1:pos:R:3:forces_component_raw:R:3 ipi_comment="Step:       18720  Bead:       0 forces_component_raw{ase}  cell{ase}" pbc="T T T"
O        0.00000000       0.00000000       0.00000000      -0.31380564      -0.66410983      -0.06359071
H        0.00000000       0.00000000       0.00000000       0.29866648       0.07524616      -0.43816102
H        0.00000000       0.00000000       0.00000000      -0.43265042       0.52827495       0.85244101
O        0.00000000       0.00000000       0.00000000      -0.09096646       0.75571788       0.58673650
H        0.00000000       0.00000000       0.00000000       0.24976516       0.54678172      -0.43773121
H        0.00000000       0.00000000       0.00000000      -0.05809680      -1.41332364      -0.86752421
H        0.00000000       0.00000000       0.00000000       0.34708750       0.17141312       0.36782968
7
Lattice="529.1772105638412 0.0 0.0 0.0 529.1772105638412 0.0 0.0 0.0 529.1772105638412" Properties=species:S:1:pos:R:3:forces_component_raw:R:3 ipi_comment="Step:       18740  Bead:       0 forces_component_raw{ase}  cell{ase}" pbc="T T T"
O        0.00000000       0.00000000       0.00000000       0.92721242       0.57491768       0.19763358
H        0.00000000       0.00000000       0.00000000      -0.35639709      -0.22440982       0.01867717
H        0.00000000       0.00000000       0.00000000      -0.25229725      -0.04980046       0.00050008
O        0.00000000       0.00000000       0.00000000       0.04004395       1.04802704      -0.96547425
H        0.00000000       0.00000000       0.00000000      -0.14629453      -0.68176437       0.36006838
H        0.00000000       0.00000000       0.00000000      -0.09733599      -0.45805383       0.39125857
H        0.00000000       0.00000000       0.00000000      -0.11493158      -0.20891628      -0.00266369
7
Lattice="529.1772105638412 0.0 0.0 0.0 529.1772105638412 0.0 0.0 0.0 529.1772105638412" Properties=species:S:1:pos:R:3:forces_component_raw:R:3 ipi_comment="Step:       18760  Bead:       0 forces_component_raw{ase}  cell{ase}" pbc="T T T"
O        0.00000000       0.00000000       0.00000000       0.99405003       0.65054631       1.21278942
H        0.00000000       0.00000000       0.00000000      -1.10019422      -0.38580260      -0.00134042
H        0.00000000       0.00000000       0.00000000       0.54541862      -0.43055439      -0.77954221
O        0.00000000       0.00000000       0.00000000      -0.17484784      -0.84734869      -0.36809397
H        0.00000000       0.00000000       0.00000000      -0.12959152       0.64824772       0.04625627
H        0.00000000       0.00000000       0.00000000      -0.04728228       0.51309651      -0.02694982
H        0.00000000       0.00000000       0.00000000      -0.08755267      -0.14818472      -0.08311935
7
Lattice="529.1772105638412 0.0 0.0 0.0 529.1772105638412 0.0 0.0 0.0 529.1772105638412" Properties=species:S:1:pos:R:3:forces_component_raw:R:3 ipi_comment="Step:       18780  Bead:       0 forces_component_raw{ase}  cell{ase}" pbc="T T T"
O        0.00000000       0.00000000       0.00000000       0.54310453       0.76935429       0.81526154
H        0.00000000       0.00000000       0.00000000      -1.75257218      -0.55685604      -0.13469096
H        0.00000000       0.00000000       0.00000000       0.95732159      -0.33870301      -0.83525503
O        0.00000000       0.00000000       0.00000000      -0.29037511      -0.11925286       0.53048718
H        0.00000000       0.00000000       0.00000000       0.36868632      -0.35793179      -0.40805450
H        0.00000000       0.00000000       0.00000000       0.18086109       0.72432566       0.21352610
H        0.00000000       0.00000000       0.00000000      -0.00702631      -0.12093598      -0.18127428
7
Lattice="529.1772105638412 0.0 0.0 0.0 529.1772105638412 0.0 0.0 0.0 529.1772105638412" Properties=species:S:1:pos:R:3:forces_component_raw:R:3 ipi_comment="Step:       18800  Bead:       0 forces_component_raw{ase}  cell{ase}" pbc="T T T"
O        0.00000000       0.00000000       0.00000000      -0.12886214       0.67088771       0.37318415
H        0.00000000       0.00000000       0.00000000      -0.61190307      -0.46552450      -0.10119576
H        0.00000000       0.00000000       0.00000000       0.61429739      -0.56449527      -1.23505259
O        0.00000000       0.00000000       0.00000000       0.96404565      -0.88799167       0.36261475
H        0.00000000       0.00000000       0.00000000      -0.30354694       0.46114677       0.50649256
H        0.00000000       0.00000000       0.00000000       0.07578504       0.30447823       0.05781338
H        0.00000000       0.00000000       0.00000000      -0.60981590       0.48149848       0.03614362
7
Lattice="529.1772105638412 0.0 0.0 0.0 529.1772105638412 0.0 0.0 0.0 529.1772105638412" Properties=species:S:1:pos:R:3:forces_component_raw:R:3 ipi_comment="Step:       18820  Bead:       0 forces_component_raw{ase}  cell{ase}" pbc="T T T"
O        0.00000000       0.00000000       0.00000000      -1.23650348       0.12276101       0.30113101
H        0.00000000       0.00000000       0.00000000      -0.23833650       0.08474082       0.05866493
H        0.00000000       0.00000000       0.00000000       0.94239295      -0.25173158      -0.66811597
O        0.00000000       0.00000000       0.00000000       0.82153666       0.15845150       0.75370735
H        0.00000000       0.00000000       0.00000000       0.50043136      -0.18142504      -0.11034676
H        0.00000000       0.00000000       0.00000000      -0.18295908      -0.37731421      -0.06274901
H        0.00000000       0.00000000       0.00000000      -0.60656166       0.44451746      -0.27229160
7
Lattice="529.1772105638412 0.0 0.0 0.0 529.1772105638412 0.0 0.0 0.0 529.1772105638412" Properties=species:S:1:pos:R:3:forces_component_raw:R:3 ipi_comment="Step:       18840  Bead:       0 forces_component_raw{ase}  cell{ase}" pbc="T T T"
O        0.00000000       0.00000000       0.00000000       1.32899642       0.48435021       0.00560846
H        0.00000000       0.00000000       0.00000000      -0.59119344      -0.47073895      -0.02241145
H        0.00000000       0.00000000       0.00000000      -0.38128394       0.08608931       0.16984215
O        0.00000000       0.00000000       0.00000000       0.62633252      -0.52529633       0.16606228
H        0.00000000       0.00000000       0.00000000      -0.58579874       0.04725130      -0.01500489
H        0.00000000       0.00000000       0.00000000      -0.05576068      -0.51240635      -0.02809574
H        0.00000000       0.00000000       0.00000000      -0.34129202       0.89075059      -0.27600062
7
Lattice="529.1772105638412 0.0 0.0 0.0 529.1772105638412 0.0 0.0 0.0 529.1772105638412" Properties=species:S:1:pos:R:3:forces_component_raw:R:3 ipi_comment="Step:       18860  Bead:       0 forces_component_raw{ase}  cell{ase}" pbc="T T T"
O        0.00000000       0.00000000       0.00000000       1.28941942      -0.02444196      -0.38040382
H        0.00000000       0.00000000       0.00000000      -0.97561640      -0.43073601       0.19131728
H        0.00000000       0.00000000       0.00000000      -0.28447658       0.71668393       0.82981497
O        0.00000000       0.00000000       0.00000000       0.37524414      -0.46210942       0.24354744
H        0.00000000       0.00000000       0.00000000       0.19626123      -0.04688495      -0.02421027
H        0.00000000       0.00000000       0.00000000      -0.22288823      -0.02817565      -0.26632768
H        0.00000000       0.00000000       0.00000000      -0.37794352       0.27566433      -0.59373802
7
Lattice="529.1772105638412 0.0 0.0 0.0 529.1772105638412 0.0 0.0 0.0 529.1772105638412" Properties=species:S:1:pos:R:3:forces_component_raw:R:3 ipi_comment="Step:       18880  Bead:       0 forces_component_raw{ase}  cell{ase}" pbc="T T T"
O        0.00000000       0.00000000       0.00000000       1.20132995      -0.08141351       0.27134991
H        0.00000000       0.00000000       0.00000000       0.28636116      -0.06063354      -0.15621179
H        0.00000000       0.00000000       0.00000000      -1.11338341       0.29797286       0.54092187
O        0.00000000       0.00000000       0.00000000      -0.84134281      -0.91182649      -0.99292898
H        0.00000000       0.00000000       0.00000000      -0.23911119       0.24457246       0.02622116
H        0.00000000       0.00000000       0.00000000       0.52122951       0.36339641       0.18452722
H        0.00000000       0.00000000       0.00000000       0.18491674       0.14793217       0.12612057
7
Lattice="529.1772105638412 0.0 0.0 0.0 529.1772105638412 0.0 0.0 0.0 529.1772105638412" Properties=species:S:1:pos:R:3:forces_component_raw:R:3 ipi_comment="Step:       18900  Bead:       0 forces_component_raw{ase}  cell{ase}" pbc="T T T"
O        0.00000000       0.00000000       0.00000000      -1.29731989      -1.48767627      -0.23178914
H        0.00000000       0.00000000       0.00000000       1.38141632       1.31147492       0.40286890
H        0.00000000       0.00000000       0.00000000       0.03912288       0.46451318       0.39338029
O        0.00000000       0.00000000       0.00000000      -0.12514591       0.33537436      -1.11684764
H        0.00000000       0.00000000       0.00000000       0.08784053      -0.04628623      -0.01655963
H        0.00000000       0.00000000       0.00000000       0.09604615       0.28700101      -0.29564571
H        0.00000000       0.00000000       0.00000000      -0.18196023      -0.86440081       0.86459279
7
Lattice="529.1772105638412 0.0 0.0 0.0 529.1772105638412 0.0 0.0 0.0 529.1772105638412" Properties=species:S:1:pos:R:3:forces_component_raw:R:3 ipi_comment="Step:       18920  Bead:       0 forces_component_raw{ase}  cell{ase}" pbc="T T T"
O        0.00000000       0.00000000       0.00000000      -1.69137264      -0.38744986       0.19544733
H        0.00000000       0.00000000       0.00000000       1.41737449       0.61058229      -0.03259245
H        0.00000000       0.00000000       0.00000000       0.20256037      -0.42612010      -0.38929093
O        0.00000000       0.00000000       0.00000000      -0.22963345       0.73267979      -1.04261089
H        0.00000000       0.00000000       0.00000000      -0.02844256       0.09848493      -0.35936818
H        0.00000000       0.00000000       0.00000000       0.00754416      -0.16155008       0.33752874
H        0.00000000       0.00000000       0.00000000       0.32196948      -0.46662665       1.29088640
7
Lattice="529.1772105638412 0.0 0.0 0.0 529.1772105638412 0.0 0.0 0.0 529.1772105638412" Properties=species:S:1:pos:R:3:forces_component_raw:R:3 ipi_comment="Step:       18940  Bead:       0 forces_component_raw{ase}  cell{ase}" pbc="T T T"
O        0.00000000       0.00000000       0.00000000      -1.85250664      -0.83001554      -1.03003335
H        0.00000000       0.00000000       0.00000000       1.05337596       0.70980585       0.44396669
H        0.00000000       0.00000000       0.00000000       0.73627412      -0.39193288      -0.49790728
O        0.00000000       0.00000000       0.00000000       0.64769817       1.33832693       0.45387071
H        0.00000000       0.00000000       0.00000000      -0.13175970       0.08468747       0.20268416
H        0.00000000       0.00000000       0.00000000      -0.38669002      -0.39657879      -0.25072813
H        0.00000000       0.00000000       0.00000000      -0.06639206      -0.51429278       0.67814744
7
Lattice="529.1772105638412 0.0 0.0 0.0 529.1772105638412 0.0 0.0 0.0 529.1772105638412" Properties=species:S:1:pos:R:3:forces_component_raw:R:3 ipi_comment="Step:       18960  Bead:       0 forces_component_raw{ase}  cell{ase}" pbc="T T T"
O        0.00000000       0.00000000       0.00000000      -0.09744155       0.69756270       0.38023755
H        0.00000000       0.00000000       0.00000000      -0.58275527      -0.36142981      -0.20883231
H        0.00000000       0.00000000       0.00000000       0.52974230      -0.43166643      -0.35894451
O        0.00000000       0.00000000       0.00000000       0.02364218       0.08488761       0.99991989
H        0.00000000       0.00000000       0.00000000       0.19457485      -0.01234561      -0.24306265
H        0.00000000       0.00000000       0.00000000      -0.26583648      -0.76263964       0.17412725
H        0.00000000       0.00000000       0.00000000       0.19807392       0.78563124      -0.74344528
7
Lattice="529.1772105638412 0.0 0.0 0.0 529.1772105638412 0.0 0.0 0.0 529.1772105638412" Properties=species:S:1:pos:R:3:forces_component_raw:R:3 ipi_comment="Step:       18980  Bead:       0 forces_component_raw{ase}  cell{ase}" pbc="T T T"
O        0.00000000       0.00000000       0.00000000       2.48086691       1.64341522       0.81447780
H        0.00000000       0.00000000       0.00000000      -2.17904091      -1.09086645      -0.23075411
H        0.00000000       0.00000000       0.00000000      -0.01265109       0.05520624       0.04649159
O        0.00000000       0.00000000       0.00000000       0.22516286      -1.52761090       1.44079852
H        0.00000000       0.00000000       0.00000000      -0.19523478      -0.16385698       0.11746426
H        0.00000000       0.00000000       0.00000000       0.05565596      -0.04798460      -0.13852878
H        0.00000000       0.00000000       0.00000000      -0.37475896       1.13169742      -2.04994917
7
Lattice="529.1772105638412 0.0 0.0 0.0 529.1772105638412 0.0 0.0 0.0 529.1772105638412" Properties=species:S:1:pos:R:3:forces_component_raw:R:3 ipi_comment="Step:       19000  Bead:       0 forces_component_raw{ase}  cell{ase}" pbc="T T T"
O        0.00000000       0.00000000       0.00000000       2.74573947       1.97349704       1.13317502
H        0.00000000       0.00000000       0.00000000      -2.49741746      -1.66160655      -0.35493773
H        0.00000000       0.00000000       0.00000000      -0.24545229       0.16508812       0.13167238
O        0.00000000       0.00000000       0.00000000       0.79159099      -2.83009244       1.56211174
H        0.00000000       0.00000000       0.00000000       0.12484035       0.31805837      -0.36198038
H        0.00000000       0.00000000       0.00000000       0.11449856       0.91594875      -0.15430313
H        0.00000000       0.00000000       0.00000000      -1.03379965       1.11910641      -1.95573760
7
Lattice="529.1772105638412 0.0 0.0 0.0 529.1772105638412 0.0 0.0 0.0 529.1772105638412" Properties=species:S:1:pos:R:3:forces_component_raw:R:3 ipi_comment="Step:       19020  Bead:       0 forces_component_raw{ase}  cell{ase}" pbc="T T T"
O        0.00000000       0.00000000       0.00000000       1.80782366       1.13885701      -0.24007070
H        0.00000000       0.00000000       0.00000000      -1.33509195      -1.15000808      -0.10650717
H        0.00000000       0.00000000       0.00000000      -0.32156640      -0.09724855      -0.08939486
O        0.00000000       0.00000000       0.00000000       0.91979766      -0.69704688       1.05604315
H        0.00000000       0.00000000       0.00000000      -0.01320032       0.06638142       0.74946761
H        0.00000000       0.00000000       0.00000000      -0.03096984       0.53096902       0.05511102
H        0.00000000       0.00000000       0.00000000      -1.02679253       0.20809600      -1.42464900
7
Lattice="529.1772105638412 0.0 0.0 0.0 529.1772105638412 0.0 0.0 0.0 529.1772105638412" Properties=species:S:1:pos:R:3:forces_component_raw:R:3 ipi_comment="Step:       19040  Bead:       0 forces_component_raw{ase}  cell{ase}" pbc="T T T"
O        0.00000000       0.00000000       0.00000000      -0.36427841      -0.34160125       0.20742238
H        0.00000000       0.00000000       0.00000000      -0.15155524       0.23803937       0.02315348
H        0.00000000       0.00000000       0.00000000       0.57773769      -0.05330169      -0.21629070
O        0.00000000       0.00000000       0.00000000       0.36228991       0.46884620       0.75995815
H        0.00000000       0.00000000       0.00000000      -0.01480120      -0.04504152      -0.41073370
H        0.00000000       0.00000000       0.00000000      -0.00252292      -0.14913321      -0.01512891
H        0.00000000       0.00000000       0.00000000      -0.40686971      -0.11780781      -0.34838066
7
Lattice="529.1772105638412 0.0 0.0 0.0 529.1772105638412 0.0 0.0 0.0 529.1772105638412" Properties=species:S:1:pos:R:3:forces_component_raw:R:3 ipi_comment="Step:       19060  Bead:       0 forces_component_raw{ase}  cell{ase}" pbc="T T T"
O        0.00000000       0.00000000       0.00000000      -1.96839738       0.16089582       1.10779107
H        0.00000000       0.00000000       0.00000000       0.77674443       0.39414328      -0.42771763
H        0.00000000       0.00000000       0.00000000       1.09913302      -0.77838934      -0.45646042
O        0.00000000       0.00000000       0.00000000      -0.95267058      -0.40053499      -1.07123327
H        0.00000000       0.00000000       0.00000000      -0.02743417       0.13728559      -0.17473796
H        0.00000000       0.00000000       0.00000000       0.19185478       0.00966895       0.44664788
H        0.00000000       0.00000000       0.00000000       0.88076979       0.47693059       0.57571030
7
Lattice="529.1772105638412 0.0 0.0 0.0 529.1772105638412 0.0 0.0 0.0 529.1772105638412" Properties=species:S:1:pos:R:3:forces_component_raw:R:3 ipi_comment="Step:       19080  Bead:       0 forces_component_raw{ase}  cell{ase}" pbc="T T T"
O        0.00000000       0.00000000       0.00000000      -2.01695896      -1.11792791       0.10645187
H        0.00000000       0.00000000       0.00000000       1.04175723       1.40858031       0.08008400
H        0.00000000       0.00000000       0.00000000       1.15431190      -0.37690732      -0.43149144
O        0.00000000       0.00000000       0.00000000      -1.38085258       0.36952698      -1.17670846
H        0.00000000       0.00000000       0.00000000      -0.21693009      -0.09625419       0.32368749
H        0.00000000       0.00000000       0.00000000      -0.13177532      -0.48831934       0.23127636
H        0.00000000       0.00000000       0.00000000       1.55044771       0.30130142       0.86670029
7
Lattice="529.1772105638412 0.0 0.0 0.0 529.1772105638412 0.0 0.0 0.0 529.1772105638412" Properties=species:S:1:pos:R:3:forces_component_raw:R:3 ipi_comment="Step:       19100  Bead:       0 forces_component_raw{ase}  cell{ase}" pbc="T T T"
O        0.00000000       0.00000000       0.00000000      -1.88702655      -1.08141446       0.29168466
H        0.00000000       0.00000000       0.00000000       1.18047321       1.13069988      -0.10736059
H        0.00000000       0.00000000       0.00000000       0.52859289      -0.24443692      -0.12979980
O        0.00000000       0.00000000       0.00000000      -1.38522041      -1.11504817      -0.84800554
H        0.00000000       0.00000000       0.00000000       0.26155555       0.25954706      -0.22315702
H        0.00000000       0.00000000       0.00000000       0.38094139       0.23047072       0.23865967
H        0.00000000       0.00000000       0.00000000       0.92068386       0.82018167       0.77797866
7
Lattice="529.1772105638412 0.0 0.0 0.0 529.1772105638412 0.0 0.0 0.0 529.1772105638412" Properties=species:S:1:pos:R:3:forces_component_raw:R:3 ipi_comment="Step:       19120  Bead:       0 forces_component_raw{ase}  cell{ase}" pbc="T T T"
O        0.00000000       0.00000000       0.00000000       0.31765765      -0.50476247      -0.39717102
H        0.00000000       0.00000000       0.00000000       0.02517277       0.64201838       0.35367414
H        0.00000000       0.00000000       0.00000000      -0.10371661       0.21999371       0.04993318
O        0.00000000       0.00000000       0.00000000       0.32762346       0.63592637       0.67027873
H        0.00000000       0.00000000       0.00000000      -0.40054867      -0.50739455      -0.04892060
H        0.00000000       0.00000000       0.00000000      -0.79337543      -0.14522854      -0.46405876
H        0.00000000       0.00000000       0.00000000       0.62718678      -0.34055299      -0.16373563
7
Lattice="529.1772105638412 0.0 0.0 0.0 529.1772105638412 0.0 0.0 0.0 529.1772105638412" Properties=species:S:1:pos:R:3:forces_component_raw:R:3 ipi_comment="Step:       19140  Bead:       0 forces_component_raw{ase}  cell{ase}" pbc="T T T"
O        0.00000000       0.00000000       0.00000000       1.53842998       0.56716776      -0.83806539
H        0.00000000       0.00000000       0.00000000      -0.18391725      -0.83928418      -0.02204475
H        0.00000000       0.00000000       0.00000000      -1.51665783      -0.05324525       0.56057173
O        0.00000000       0.00000000       0.00000000       1.68263233      -0.89402753      -1.07143212
H        0.00000000       0.00000000       0.00000000       0.30088401       0.63197494       0.39046437
H        0.00000000       0.00000000       0.00000000      -0.84321875       0.41558305       1.03910589
H        0.00000000       0.00000000       0.00000000      -0.97815263       0.17183118      -0.05859971
7
Lattice="529.1772105638412 0.0 0.0 0.0 529.1772105638412 0.0 0.0 0.0 529.1772105638412" Properties=species:S:1:pos:R:3:forces_component_raw:R:3 ipi_comment="Step:       19160  Bead:       0 forces_component_raw{ase}  cell{ase}" pbc="T T T"
O        0.00000000       0.00000000       0.00000000       2.93901349       1.65832448      -0.77923203
H        0.00000000       0.00000000       0.00000000      -0.66781235      -1.51352811       0.39641851
H        0.00000000       0.00000000       0.00000000      -2.09710384       0.23759697       0.69804347
O        0.00000000       0.00000000       0.00000000       1.98579514      -0.54963946       0.83989793
H        0.00000000       0.00000000       0.00000000      -0.46118930      -0.08337382      -0.29779649
H        0.00000000       0.00000000       0.00000000      -1.63944698      -0.05384523       0.16195405
H        0.00000000       0.00000000       0.00000000      -0.05925649       0.30446500      -1.01928556
7
Lattice="529.1772105638412 0.0 0.0 0.0 529.1772105638412 0.0 0.0 0.0 529.1772105638412" Properties=species:S:1:pos:R:3:forces_component_raw:R:3 ipi_comment="Step:       19180  Bead:       0 forces_component_raw{ase}  cell{ase}" pbc="T T T"
O        0.00000000       0.00000000       0.00000000       1.92906106       1.42298818      -1.19164801
H        0.00000000       0.00000000       0.00000000      -0.38251662      -1.15618766       0.39818457
H        0.00000000       0.00000000       0.00000000      -1.65057755       0.15643391       0.86144507
O        0.00000000       0.00000000       0.00000000       0.53191161      -0.37838245      -1.27747679
H        0.00000000       0.00000000       0.00000000       0.38537610      -0.22793737       0.28319484
H        0.00000000       0.00000000       0.00000000       0.11876386       0.24275252       0.74186766
H        0.00000000       0.00000000       0.00000000      -0.93201864      -0.05966717       0.18443251
7
Lattice="529.1772105638412 0.0 0.0 0.0 529.1772105638412 0.0 0.0 0.0 529.1772105638412" Properties=species:S:1:pos:R:3:forces_component_raw:R:3 ipi_comment="Step:       19200  Bead:       0 forces_component_raw{ase}  cell{ase}" pbc="T T T"
O        0.00000000       0.00000000       0.00000000       0.12538874       0.04319966      -0.26739484
H        0.00000000       0.00000000       0.00000000      -0.01260304      -0.44603211      -0.06158683
H        0.00000000       0.00000000       0.00000000      -0.32975113       0.15846378       0.49492365
O        0.00000000       0.00000000       0.00000000      -0.05137220       0.56943411       1.61057222
H        0.00000000       0.00000000       0.00000000       0.05269593       0.27304542      -0.08797652
H        0.00000000       0.00000000       0.00000000      -0.16427928      -0.50861299      -1.08841360
H        0.00000000       0.00000000       0.00000000       0.37992108      -0.08949792      -0.60012400
7
Lattice="529.1772105638412 0.0 0.0 0.0 529.1772105638412 0.0 0.0 0.0 529.1772105638412" Properties=species:S:1:pos:R:3:forces_component_raw:R:3 ipi_comment="Step:       19220  Bead:       0 forces_component_raw{ase}  cell{ase}" pbc="T T T"
O        0.00000000       0.00000000       0.00000000      -0.46591747      -0.74383605       0.01031888
H        0.00000000       0.00000000       0.00000000       0.15793519       0.47470766      -0.09865448
H        0.00000000       0.00000000       0.00000000       0.37614685      -0.11973563      -0.43939039
O        0.00000000       0.00000000       0.00000000      -1.46326459      -0.17449087       0.41940188
H        0.00000000       0.00000000       0.00000000      -0.40724960       0.03105888       0.40622199
H        0.00000000       0.00000000       0.00000000       1.44491625      -0.08453642      -1.07222748
H        0.00000000       0.00000000       0.00000000       0.35743380       0.61683232       0.77432954
7
Lattice="529.1772105638412 0.0 0.0 0.0 529.1772105638412 0.0 0.0 0.0 529.1772105638412" Properties=species:S:1:pos:R:3:forces_component_raw:R:3 ipi_comment="Step:       19240  Bead:       0 forces_component_raw{ase}  cell{ase}" pbc="T T T"
O        0.00000000       0.00000000       0.00000000      -1.38803363      -1.28416264       1.01437044
H        0.00000000       0.00000000       0.00000000       0.15458041       0.97575867      -0.10028462
H        0.00000000       0.00000000       0.00000000       1.03895259       0.07489269      -1.09363163
O        0.00000000       0.00000000       0.00000000      -1.71984303       0.69159258       1.59187591
H        0.00000000       0.00000000       0.00000000       0.58941293      -0.24087396      -0.30736223
H        0.00000000       0.00000000       0.00000000       0.48583841      -0.29881594      -0.97340954
H        0.00000000       0.00000000       0.00000000       0.83909249       0.08160858      -0.13155824
7
Lattice="529.1772105638412 0.0 0.0 0.0 529.1772105638412 0.0 0.0 0.0 529.1772105638412" Properties=species:S:1:pos:R:3:forces_component_raw:R:3 ipi_comment="Step:       19260  Bead:       0 forces_component_raw{ase}  cell{ase}" pbc="T T T"
O        0.00000000       0.00000000       0.00000000      -0.89555848      -0.76679409       1.47208071
H        0.00000000       0.00000000       0.00000000       0.12065721       0.46502829      -0.06316280
H        0.00000000       0.00000000       0.00000000       1.00553513       0.10621778      -1.40754855
O        0.00000000       0.00000000       0.00000000      -0.12689519      -0.45448971      -0.00147915
H        0.00000000       0.00000000       0.00000000      -0.57835734       0.41792581      -0.09326571
H        0.00000000       0.00000000       0.00000000       0.01752245      -0.09997314      -0.11581361
H        0.00000000       0.00000000       0.00000000       0.45709622       0.33208501       0.20918930
7
Lattice="529.1772105638412 0.0 0.0 0.0 529.1772105638412 0.0 0.0 0.0 529.1772105638412" Properties=species:S:1:pos:R:3:forces_component_raw:R:3 ipi_comment="Step:       19280  Bead:       0 forces_component_raw{ase}  cell{ase}" pbc="T T T"
O        0.00000000       0.00000000       0.00000000      -0.58569473      -0.05333269       1.32110668
H        0.00000000       0.00000000       0.00000000       0.00138715       0.31693184       0.06176180
H        0.00000000       0.00000000       0.00000000       0.57439649       0.13328263      -1.24885917
O        0.00000000       0.00000000       0.00000000      -0.62355900      -0.44266695      -0.75658107
H        0.00000000       0.00000000       0.00000000       0.19727004      -0.16424531       0.04565269
H        0.00000000       0.00000000       0.00000000      -0.27016276       0.05423342       0.36160827
H        0.00000000       0.00000000       0.00000000       0.70636302       0.15579702       0.21531057
7
Lattice="529.1772105638412 0.0 0.0 0.0 529.1772105638412 0.0 0.0 0.0 529.1772105638412" Properties=species:S:1:pos:R:3:forces_component_raw:R:3 ipi_comment="Step:       19300  Bead:       0 forces_component_raw{ase}  cell{ase}" pbc="T T T"
O        0.00000000       0.00000000       0.00000000      -0.12096417       0.66522849       0.54701507
H        0.00000000       0.00000000       0.00000000       0.12637901      -0.46947670       0.16427976
H        0.00000000       0.00000000       0.00000000       0.11288202       0.04574937      -0.68634504
O        0.00000000       0.00000000       0.00000000       1.49332905       0.53685832      -0.25536609
H        0.00000000       0.00000000       0.00000000      -0.24589133      -0.54604387      -0.10137680
H        0.00000000       0.00000000       0.00000000      -0.73043794      -0.13196048       0.68130696
H        0.00000000       0.00000000       0.00000000      -0.63529647      -0.10035525      -0.34951395
7
Lattice="529.1772105638412 0.0 0.0 0.0 529.1772105638412 0.0 0.0 0.0 529.1772105638412" Properties=species:S:1:pos:R:3:forces_component_raw:R:3 ipi_comment="Step:       19320  Bead:       0 forces_component_raw{ase}  cell{ase}" pbc="T T T"
O        0.00000000       0.00000000       0.00000000      -0.35086382       0.48159579      -0.99171269
H        0.00000000       0.00000000       0.00000000       0.24960381      -0.88743186       0.24321340
H        0.00000000       0.00000000       0.00000000       0.12829113       0.27621281       0.96238250
O        0.00000000       0.00000000       0.00000000       1.46353507      -0.59393799      -0.38980961
H        0.00000000       0.00000000       0.00000000       0.12805861       0.56060386      -0.15560371
H        0.00000000       0.00000000       0.00000000      -0.94770295       0.13052398       0.90407658
H        0.00000000       0.00000000       0.00000000      -0.67092186       0.03243369      -0.57254630
7
Lattice="529.1772105638412 0.0 0.0 0.0 529.1772105638412 0.0 0.0 0.0 529.1772105638412" Properties=species:S:1:pos:R:3:forces_component_raw:R:3 ipi_comment="Step:       19340  Bead:       0 forces_component_raw{ase}  cell{ase}" pbc="T T T"
O        0.00000000       0.00000000       0.00000000      -0.60453236       1.25996590      -1.76649857
H        0.00000000       0.00000000       0.00000000       0.12160227      -0.46271253      -0.23151353
H        0.00000000       0.00000000       0.00000000       0.52950806      -0.57632494       1.65553666
O        0.00000000       0.00000000       0.00000000       1.71083987       0.66683173       0.21394873
H        0.00000000       0.00000000       0.00000000      -0.16282928      -0.63515121       0.48560631
H        0.00000000       0.00000000       0.00000000      -0.85983539      -0.07897523       0.42455417
H        0.00000000       0.00000000       0.00000000      -0.73475313      -0.17363352      -0.78163350
7
Lattice="529.1772105638412 0.0 0.0 0.0 529.1772105638412 0.0 0.0 0.0 529.1772105638412" Properties=species:S:1:pos:R:3:forces_component_raw:R:3 ipi_comment="Step:       19360  Bead:       0 forces_component_raw{ase}  cell{ase}" pbc="T T T"
O        0.00000000       0.00000000       0.00000000      -0.36010170      -2.17579508      -1.83524990
H        0.00000000       0.00000000       0.00000000      -0.08522263       0.71658546       0.13708316
H        0.00000000       0.00000000       0.00000000       0.55785555       0.80558062       1.84188390
O        0.00000000       0.00000000       0.00000000       1.11847329      -0.46532664       0.02433443
H        0.00000000       0.00000000       0.00000000       0.05772150       0.93093926      -0.33534485
H        0.00000000       0.00000000       0.00000000      -0.27601868       0.32235009       0.57740677
H        0.00000000       0.00000000       0.00000000      -1.01270771      -0.13433374      -0.41011345
7
Lattice="529.1772105638412 0.0 0.0 0.0 529.1772105638412 0.0 0.0 0.0 529.1772105638412" Properties=species:S:1:pos:R:3:forces_component_raw:R:3 ipi_comment="Step:       19380  Bead:       0 forces_component_raw{ase}  cell{ase}" pbc="T T T"
O        0.00000000       0.00000000       0.00000000      -0.36167702       0.29425973      -0.35810489
H        0.00000000       0.00000000       0.00000000      -0.72514159       1.22134114      -0.85851836
H        0.00000000       0.00000000       0.00000000       0.84500826      -1.02785778       1.12917471
O        0.00000000       0.00000000       0.00000000       0.23159194       0.71465540       0.73472440
H        0.00000000       0.00000000       0.00000000       0.44552809      -0.66359878       0.26142269
H        0.00000000       0.00000000       0.00000000      -0.25822175      -0.15492503      -0.27340329
H        0.00000000       0.00000000       0.00000000      -0.17708796      -0.38387460      -0.63529521
7
Lattice="529.1772105638412 0.0 0.0 0.0 529.1772105638412 0.0 0.0 0.0 529.1772105638412" Properties=species:S:1:pos:R:3:forces_component_raw:R:3 ipi_comment="Step:       19400  Bead:       0 forces_component_raw{ase}  cell{ase}" pbc="T T T"
O        0.00000000       0.00000000       0.00000000       0.06747484      -2.07644845      -0.29451883
H        0.00000000       0.00000000       0.00000000       0.00673464       1.68612600       0.09061667
H        0.00000000       0.00000000       0.00000000       0.14983755       0.58386564       0.27785915
O        0.00000000       0.00000000       0.00000000      -0.48616365      -0.63126385      -0.96101946
H        0.00000000       0.00000000       0.00000000      -0.73128873       0.29206485       0.15041515
H        0.00000000       0.00000000       0.00000000       0.77563739      -0.43062416       0.00968444
H        0.00000000       0.00000000       0.00000000       0.21776807       0.57628012       0.72696257
7
Lattice="529.1772105638412 0.0 0.0 0.0 529.1772105638412 0.0 0.0 0.0 529.1772105638412" Properties=species:S:1:pos:R:3:forces_component_raw:R:3 ipi_comment="Step:       19420  Bead:       0 forces_component_raw{ase}  cell{ase}" pbc="T T T"
O        0.00000000       0.00000000       0.00000000       0.76898170       0.65857101       1.76788104
H        0.00000000       0.00000000       0.00000000      -0.19323193      -0.18895352      -0.23585331
H        0.00000000       0.00000000       0.00000000      -1.03224683      -0.38253281      -1.13045228
O        0.00000000       0.00000000       0.00000000      -2.00743723       0.46270746      -0.15802693
H        0.00000000       0.00000000       0.00000000       1.24694741      -0.21447849      -0.51890731
H        0.00000000       0.00000000       0.00000000       0.01296264      -0.06243020      -0.19181180
H        0.00000000       0.00000000       0.00000000       1.20402408      -0.27288336       0.46717078
7
Lattice="529.1772105638412 0.0 0.0 0.0 529.1772105638412 0.0 0.0 0.0 529.1772105638412" Properties=species:S:1:pos:R:3:forces_component_raw:R:3 ipi_comment="Step:       19440  Bead:       0 forces_component_raw{ase}  cell{ase}" pbc="T T T"
O        0.00000000       0.00000000       0.00000000       1.06628633       0.53959215      -0.20429349
H        0.00000000       0.00000000       0.00000000       0.28849569      -1.42855013       0.83702880
H        0.00000000       0.00000000       0.00000000      -1.14168298       0.11694196      -1.14604855
O        0.00000000       0.00000000       0.00000000       0.99886084      -0.47532898      -0.82976520
H        0.00000000       0.00000000       0.00000000      -0.77161038       0.38634637       0.27465534
H        0.00000000       0.00000000       0.00000000      -1.02550721       0.48827797       0.50865442
H        0.00000000       0.00000000       0.00000000       0.58515793       0.37272072       0.55976862
7
Lattice="529.1772105638412 0.0 0.0 0.0 529.1772105638412 0.0 0.0 0.0 529.1772105638412" Properties=species:S:1:pos:R:3:forces_component_raw:R:3 ipi_comment="Step:       19460  Bead:       0 forces_component_raw{ase}  cell{ase}" pbc="T T T"
O        0.00000000       0.00000000       0.00000000      -0.26790059       3.28746510      -2.01197958
H        0.00000000       0.00000000       0.00000000       0.30318409      -3.26111079       1.98914981
H        0.00000000       0.00000000       0.00000000      -0.25604957      -0.09417051      -0.45764661
O        0.00000000       0.00000000       0.00000000       1.22372568      -0.20611592      -0.53280866
H        0.00000000       0.00000000       0.00000000       0.40990433      -0.39883378       0.48556560
H        0.00000000       0.00000000       0.00000000      -1.10971380       0.73611564       0.72454268
H        0.00000000       0.00000000       0.00000000      -0.30314994      -0.06334984      -0.19682372
7
Lattice="529.1772105638412 0.0 0.0 0.0 529.1772105638412 0.0 0.0 0.0 529.1772105638412" Properties=species:S:1:pos:R:3:forces_component_raw:R:3 ipi_comment="Step:       19480  Bead:       0 forces_component_raw{ase}  cell{ase}" pbc="T T T"
O        0.00000000       0.00000000       0.00000000      -0.10495150       1.89597679      -1.18119061
H        0.00000000       0.00000000       0.00000000      -0.14258117      -2.81292701       1.45595920
H        0.00000000       0.00000000       0.00000000       0.31959695       0.48285014       0.51590300
O        0.00000000       0.00000000       0.00000000       0.69966769      -1.01907420       0.99065733
H        0.00000000       0.00000000       0.00000000       0.15080720       0.91143501      -1.19906438
H        0.00000000       0.00000000       0.00000000      -0.88948387       0.52072471       0.08154047
H        0.00000000       0.00000000       0.00000000      -0.03305525       0.02101459      -0.66380507
7
Lattice="529.1772105638412 0.0 0.0 0.0 529.1772105638412 0.0 0.0 0.0 529.1772105638412" Properties=species:S:1:pos:R:3:forces_component_raw:R:3 ipi_comment="Step:       19500  Bead:       0 forces_component_raw{ase}  cell{ase}" pbc="T T T"
O        0.00000000       0.00000000       0.00000000       0.11655450       1.54019332      -1.40172077
H        0.00000000       0.00000000       0.00000000      -0.22685927      -0.61275351       0.58434248
H        0.00000000       0.00000000       0.00000000       0.10170835      -0.52818143       0.01888877
O        0.00000000       0.00000000       0.00000000       0.83803904      -0.14671640      -0.39658547
H        0.00000000       0.00000000       0.00000000      -0.31437564      -0.42258996       1.27722526
H        0.00000000       0.00000000       0.00000000       0.23688620      -0.12154657       0.18935764
H        0.00000000       0.00000000       0.00000000      -0.75195301       0.29159483      -0.27150792
7
Lattice="529.1772105638412 0.0 0.0 0.0 529.1772105638412 0.0 0.0 0.0 529.1772105638412" Properties=species:S:1:pos:R:3:forces_component_raw:R:3 ipi_comment="Step:       19520  Bead:       0 forces_component_raw{ase}  cell{ase}" pbc="T T T"
O        0.00000000       0.00000000       0.00000000      -0.52046299      -1.10087097       1.48295272
H        0.00000000       0.00000000       0.00000000       0.46102792       0.88726413      -0.77325416
H        0.00000000       0.00000000       0.00000000      -0.05618840       0.20923786      -0.17950672
O        0.00000000       0.00000000       0.00000000      -0.55411965       0.64575821       1.16172135
H        0.00000000       0.00000000       0.00000000       0.17554480       0.15824299      -0.77549446
H        0.00000000       0.00000000       0.00000000       0.78053725      -0.77252543      -0.40873435
H        0.00000000       0.00000000       0.00000000      -0.28633899      -0.02710676      -0.50768435
7
Lattice="529.1772105638412 0.0 0.0 0.0 529.1772105638412 0.0 0.0 0.0 529.1772105638412" Properties=species:S:1:pos:R:3:forces_component_raw:R:3 ipi_comment="Step:       19540  Bead:       0 forces_component_raw{ase}  cell{ase}" pbc="T T T"
O        0.00000000       0.00000000       0.00000000      -0.34610045      -1.53438187       0.69628024
H        0.00000000       0.00000000       0.00000000       0.12203339       1.49739611      -1.14913631
H        0.00000000       0.00000000       0.00000000       0.13297981       0.10099815       0.44855452
O        0.00000000       0.00000000       0.00000000      -1.04427743       0.85662806       0.23492611
H        0.00000000       0.00000000       0.00000000       0.51179081      -0.07274552       0.25949213
H        0.00000000       0.00000000       0.00000000       1.00944865      -0.59465873       0.03171861
H        0.00000000       0.00000000       0.00000000      -0.38587427      -0.25323612      -0.52183521
7
Lattice="529.1772105638412 0.0 0.0 0.0 529.1772105638412 0.0 0.0 0.0 529.1772105638412" Properties=species:S:1:pos:R:3:forces_component_raw:R:3 ipi_comment="Step:       19560  Bead:       0 forces_component_raw{ase}  cell{ase}" pbc="T T T"
O        0.00000000       0.00000000       0.00000000      -0.03520940      -1.21431220      -0.35915065
H        0.00000000       0.00000000       0.00000000      -0.13497132       1.39185918      -1.28743220
H        0.00000000       0.00000000       0.00000000       0.65831679       0.08705401       1.60715902
O        0.00000000       0.00000000       0.00000000      -0.31587136       0.71209723      -0.12101889
H        0.00000000       0.00000000       0.00000000      -1.12939894       0.08329695       0.19747186
H        0.00000000       0.00000000       0.00000000       1.12051201      -1.28117776       0.08548334
H        0.00000000       0.00000000       0.00000000      -0.16337752       0.22118229      -0.12251234
7
Lattice="529.1772105638412 0.0 0.0 0.0 529.1772105638412 0.0 0.0 0.0 529.1772105638412" Properties=species:S:1:pos:R:3:forces_component_raw:R:3 ipi_comment="Step:       19580  Bead:       0 forces_component_raw{ase}  cell{ase}" pbc="T T T"
O        0.00000000       0.00000000       0.00000000      -0.52592123      -1.84104014      -1.52066899
H        0.00000000       0.00000000       0.00000000      -0.12664990       0.95224250      -0.07779151
H        0.00000000       0.00000000       0.00000000       0.40517417       0.78733683       1.49848557
O        0.00000000       0.00000000       0.00000000      -1.53047264       1.16603387      -0.58490944
H        0.00000000       0.00000000       0.00000000       0.67576718      -0.06864658       0.28315973
H        0.00000000       0.00000000       0.00000000       1.16412640      -0.85570920       0.42171481
H        0.00000000       0.00000000       0.00000000      -0.06202397      -0.14021723      -0.01999009
7
Lattice="529.1772105638412 0.0 0.0 0.0 529.1772105638412 0.0 0.0 0.0 529.1772105638412" Properties=species:S:1:pos:R:3:forces_component_raw:R:3 ipi_comment="Step:       19600  Bead:       0 forces_component_raw{ase}  cell{ase}" pbc="T T T"
O        0.00000000       0.00000000       0.00000000      -0.39219904      -0.00609183      -0.27856290
H        0.00000000       0.00000000       0.00000000       0.00851658      -0.28164369      -0.17447151
H        0.00000000       0.00000000       0.00000000       0.25727412      -0.08140340       0.57663953
O        0.00000000       0.00000000       0.00000000      -0.27837539       1.14924896      -0.03804499
H        0.00000000       0.00000000       0.00000000      -0.02584997      -0.35502723      -0.79659456
H        0.00000000       0.00000000       0.00000000       0.38207364      -0.69999445       0.29582131
H        0.00000000       0.00000000       0.00000000       0.04856023       0.27491179       0.41521335
7
Lattice="529.1772105638412 0.0 0.0 0.0 529.1772105638412 0.0 0.0 0.0 529.1772105638412" Properties=species:S:1:pos:R:3:forces_component_raw:R:3 ipi_comment="Step:       19620  Bead:       0 forces_component_raw{ase}  cell{ase}" pbc="T T T"
O        0.00000000       0.00000000       0.00000000      -0.65667623       0.00298828      -0.79130340
H        0.00000000       0.00000000       0.00000000       0.62375480      -0.35514009       0.34354585
H        0.00000000       0.00000000       0.00000000       0.02308088       0.07897659       0.01453483
O        0.00000000       0.00000000       0.00000000       0.03092682       0.25515482      -0.89492721
H        0.00000000       0.00000000       0.00000000      -0.16876648       0.23539271       0.93114972
H        0.00000000       0.00000000       0.00000000       0.22526854      -0.15083277       0.38775671
H        0.00000000       0.00000000       0.00000000      -0.07758856      -0.06653932       0.00924361
7
Lattice="529.1772105638412 0.0 0.0 0.0 529.1772105638412 0.0 0.0 0.0 529.1772105638412" Properties=species:S:1:pos:R:3:forces_component_raw:R:3 ipi_comment="Step:       19640  Bead:       0 forces_component_raw{ase}  cell{ase}" pbc="T T T"
O        0.00000000       0.00000000       0.00000000       0.16300708       1.44005299       1.58703733
H        0.00000000       0.00000000       0.00000000       0.51146823      -0.58873117       0.10848151
H        0.00000000       0.00000000       0.00000000      -0.44424439      -0.35698515      -1.32531226
O        0.00000000       0.00000000       0.00000000       0.18213344      -1.26695848       1.25948334
H        0.00000000       0.00000000       0.00000000      -0.13564070       0.18962558      -0.37779743
H        0.00000000       0.00000000       0.00000000      -0.41504020       0.63477838      -0.62140155
H        0.00000000       0.00000000       0.00000000       0.13831645      -0.05178231      -0.63049072
7
Lattice="529.1772105638412 0.0 0.0 0.0 529.1772105638412 0.0 0.0 0.0 529.1772105638412" Properties=species:S:1:pos:R:3:forces_component_raw:R:3 ipi_comment="Step:       19660  Bead:       0 forces_component_raw{ase}  cell{ase}" pbc="T T T"
O        0.00000000       0.00000000       0.00000000       0.67251372       2.02814842       2.90892125
H        0.00000000       0.00000000       0.00000000       0.21945947      -0.08121344       0.17323825
H        0.00000000       0.00000000       0.00000000      -1.07353211      -1.16702497      -3.12982679
O        0.00000000       0.00000000       0.00000000      -0.42263723      -1.38268948       1.18005371
H        0.00000000       0.00000000       0.00000000       0.71495050      -0.23414901       0.18958479
H        0.00000000       0.00000000       0.00000000      -0.34101874       0.94723964      -0.95811433
H        0.00000000       0.00000000       0.00000000       0.23026407      -0.11031112      -0.36385679
7
Lattice="529.1772105638412 0.0 0.0 0.0 529.1772105638412 0.0 0.0 0.0 529.1772105638412" Properties=species:S:1:pos:R:3:forces_component_raw:R:3 ipi_comment="Step:       19680  Bead:       0 forces_component_raw{ase}  cell{ase}" pbc="T T T"
O        0.00000000       0.00000000       0.00000000       1.49375820       2.18696142       2.70874954
H        0.00000000       0.00000000       0.00000000       0.21177554      -0.56298232       0.36311659
H        0.00000000       0.00000000       0.00000000      -1.00308657      -1.03419316      -2.92011595
O        0.00000000       0.00000000       0.00000000       0.82300019      -1.96741367       0.88828385
H        0.00000000       0.00000000       0.00000000      -0.86158705       0.07356825      -0.10456812
H        0.00000000       0.00000000       0.00000000      -0.46597454       1.06630528      -1.04573131
H        0.00000000       0.00000000       0.00000000      -0.19788599       0.23775432       0.11026520
7
Lattice="529.1772105638412 0.0 0.0 0.0 529.1772105638412 0.0 0.0 0.0 529.1772105638412" Properties=species:S:1:pos:R:3:forces_component_raw:R:3 ipi_comment="Step:       19700  Bead:       0 forces_component_raw{ase}  cell{ase}" pbc="T T T"
O        0.00000000       0.00000000       0.00000000      -0.31946433       0.96731395       0.64137477
H        0.00000000       0.00000000       0.00000000       0.25725204       0.35931853       0.14103025
H        0.00000000       0.00000000       0.00000000      -0.55372608      -0.68983042      -1.20505262
O        0.00000000       0.00000000       0.00000000      -0.81973863      -0.63488650       0.14908874
H        0.00000000       0.00000000       0.00000000       1.18024111      -0.02475995       0.53236580
H        0.00000000       0.00000000       0.00000000       0.08341211       0.08037174      -0.40929288
H        0.00000000       0.00000000       0.00000000       0.17202377      -0.05752745       0.15048617
7
Lattice="529.1772105638412 0.0 0.0 0.0 529.1772105638412 0.0 0.0 0.0 529.1772105638412" Properties=species:S:1:pos:R:3:forces_component_raw:R:3 ipi_comment="Step:       19720  Bead:       0 forces_component_raw{ase}  cell{ase}" pbc="T T T"
O        0.00000000       0.00000000       0.00000000      -0.09913981      -0.55064023      -0.11223722
H        0.00000000       0.00000000       0.00000000      -0.13085568      -0.36611551      -0.24080193
H        0.00000000       0.00000000       0.00000000       0.65805668       0.43039411       0.81175369
O        0.00000000       0.00000000       0.00000000       0.06699061       0.59600097       0.02710062
H        0.00000000       0.00000000       0.00000000      -0.77827418       0.46114743      -0.70707435
H        0.00000000       0.00000000       0.00000000       0.07763517      -0.44680250       0.64546085
H        0.00000000       0.00000000       0.00000000       0.20558733      -0.12398452      -0.42420179
7
Lattice="529.1772105638412 0.0 0.0 0.0 529.1772105638412 0.0 0.0 0.0 529.1772105638412" Properties=species:S:1:pos:R:3:forces_component_raw:R:3 ipi_comment="Step:       19740  Bead:       0 forces_component_raw{ase}  cell{ase}" pbc="T T T"
O        0.00000000       0.00000000       0.00000000      -1.34413922      -1.98198533      -2.23090649
H        0.00000000       0.00000000       0.00000000       0.38856852      -0.01007348       0.42125854
H        0.00000000       0.00000000       0.00000000       0.69846666       1.05833781       1.70843256
O        0.00000000       0.00000000       0.00000000       0.90078926       2.05202151      -1.52460075
H        0.00000000       0.00000000       0.00000000      -0.32637531      -0.96176946       0.32417175
H        0.00000000       0.00000000       0.00000000      -0.13999309      -0.22772694       1.33295059
H        0.00000000       0.00000000       0.00000000      -0.17731667       0.07119584      -0.03130639
7
Lattice="529.1772105638412 0.0 0.0 0.0 529.1772105638412 0.0 0.0 0.0 529.1772105638412" Properties=species:S:1:pos:R:3:forces_component_raw:R:3 ipi_comment="Step:       19760  Bead:       0 forces_component_raw{ase}  cell{ase}" pbc="T T T"
O        0.00000000       0.00000000       0.00000000      -1.24236191      -0.75053585      -1.23715449
H        0.00000000       0.00000000       0.00000000      -0.30544889       0.19730020      -0.67372465
H        0.00000000       0.00000000       0.00000000       1.04119051      -0.18944356       1.86373675
O        0.00000000       0.00000000       0.00000000      -0.41582573       0.87326956      -0.30243635
H        0.00000000       0.00000000       0.00000000       0.69105482       0.39745343      -0.29787001
H        0.00000000       0.00000000       0.00000000       0.02677932      -0.54944027       0.52737641
H        0.00000000       0.00000000       0.00000000       0.20461172       0.02139652       0.12007239
7
Lattice="529.1772105638412 0.0 0.0 0.0 529.1772105638412 0.0 0.0 0.0 529.1772105638412" Properties=species:S:1:pos:R:3:forces_component_raw:R:3 ipi_comment="Step:       19780  Bead:       0 forces_component_raw{ase}  cell{ase}" pbc="T T T"
O        0.00000000       0.00000000       0.00000000       0.42708194      -0.80966652      -1.17195511
H        0.00000000       0.00000000       0.00000000      -0.30950064       0.68211615      -0.07853422
H        0.00000000       0.00000000       0.00000000       0.30497336       0.85649520       1.12842298
O        0.00000000       0.00000000       0.00000000       0.33627296      -0.72789884      -0.58764780
H        0.00000000       0.00000000       0.00000000      -0.67929650       0.18950015       0.37127104
H        0.00000000       0.00000000       0.00000000      -0.12012485       0.19037977       0.41551042
H        0.00000000       0.00000000       0.00000000       0.04059356      -0.38092584      -0.07706720
7
Lattice="529.1772105638412 0.0 0.0 0.0 529.1772105638412 0.0 0.0 0.0 529.1772105638412" Properties=species:S:1:pos:R:3:forces_component_raw:R:3 ipi_comment="Step:       19800  Bead:       0 forces_component_raw{ase}  cell{ase}" pbc="T T T"
O        0.00000000       0.00000000       0.00000000       0.34673798       0.81071311      -0.11689472
H        0.00000000       0.00000000       0.00000000      -0.47804350       0.17555040      -0.38235200
H        0.00000000       0.00000000       0.00000000       0.13256809      -0.16765118       0.27293116
O        0.00000000       0.00000000       0.00000000      -1.03871775       0.61612249       0.24396896
H        0.00000000       0.00000000       0.00000000       0.66218275      -0.81346071      -0.10168719
H        0.00000000       0.00000000       0.00000000      -0.10023814      -0.44383454       0.04448938
H        0.00000000       0.00000000       0.00000000       0.47551024      -0.17743981       0.03954449
7
Lattice="529.1772105638412 0.0 0.0 0.0 529.1772105638412 0.0 0.0 0.0 529.1772105638412" Properties=species:S:1:pos:R:3:forces_component_raw:R:3 ipi_comment="Step:       19820  Bead:       0 forces_component_raw{ase}  cell{ase}" pbc="T T T"
O        0.00000000       0.00000000       0.00000000       1.70586765       1.36293078       1.22737301
H        0.00000000       0.00000000       0.00000000      -0.53232396       0.13545918      -0.05056861
H        0.00000000       0.00000000       0.00000000      -0.42219102      -0.61786372      -1.19481445
O        0.00000000       0.00000000       0.00000000      -0.28561908      -1.44696069       0.71169371
H        0.00000000       0.00000000       0.00000000      -0.77765066       0.26402903       0.02659124
H        0.00000000       0.00000000       0.00000000       0.60473395       0.31241256      -0.74697232
H        0.00000000       0.00000000       0.00000000      -0.29281694      -0.01000708       0.02669731
7
Lattice="529.1772105638412 0.0 0.0 0.0 529.1772105638412 0.0 0.0 0.0 529.1772105638412" Properties=species:S:1:pos:R:3:forces_component_raw:R:3 ipi_comment="Step:       19840  Bead:       0 forces_component_raw{ase}  cell{ase}" pbc="T T T"
O        0.00000000       0.00000000       0.00000000       0.03901446       0.53121728       1.53404260
H        0.00000000       0.00000000       0.00000000      -0.00422716       0.21062374      -0.11300781
H        0.00000000       0.00000000       0.00000000      -0.45963130      -1.36850512      -1.53218878
O        0.00000000       0.00000000       0.00000000      -1.33876562      -0.73669380       1.11628247
H        0.00000000       0.00000000       0.00000000       0.52259183       0.77421308       0.18414635
H        0.00000000       0.00000000       0.00000000       1.86840249       0.16318917      -1.34314776
H        0.00000000       0.00000000       0.00000000      -0.62738443       0.42595577       0.15387303
7
Lattice="529.1772105638412 0.0 0.0 0.0 529.1772105638412 0.0 0.0 0.0 529.1772105638412" Properties=species:S:1:pos:R:3:forces_component_raw:R:3 ipi_comment="Step:       19860  Bead:       0 forces_component_raw{ase}  cell{ase}" pbc="T T T"
O        0.00000000       0.00000000       0.00000000       0.01821005       1.34141147       1.18249905
H        0.00000000       0.00000000       0.00000000       0.08483419      -0.06089598       0.28161162
H        0.00000000       0.00000000       0.00000000      -0.24494478      -1.21045041      -1.44237709
O        0.00000000       0.00000000       0.00000000      -0.63342792      -0.28651571       1.00051713
H        0.00000000       0.00000000       0.00000000       0.07770611      -0.82379854      -0.02302212
H        0.00000000       0.00000000       0.00000000       1.39086581       0.03986287      -0.71407318
H        0.00000000       0.00000000       0.00000000      -0.69324345       1.00038624      -0.28515539
7
Lattice="529.1772105638412 0.0 0.0 0.0 529.1772105638412 0.0 0.0 0.0 529.1772105638412" Properties=species:S:1:pos:R:3:forces_component_raw:R:3 ipi_comment="Step:       19880  Bead:       0 forces_component_raw{ase}  cell{ase}" pbc="T T T"
O        0.00000000       0.00000000       0.00000000       0.00675642       0.00072265       0.14460984
H        0.00000000       0.00000000       0.00000000       0.06872118       0.04802197       0.19097006
H        0.00000000       0.00000000       0.00000000      -0.04685473      -0.45225310      -0.31948993
O        0.00000000       0.00000000       0.00000000       0.33595267      -0.90738601       0.74570882
H        0.00000000       0.00000000       0.00000000      -0.60137922       0.36116141      -0.06870475
H        0.00000000       0.00000000       0.00000000       0.80157417       0.36239401      -0.37998581
H        0.00000000       0.00000000       0.00000000      -0.56477076       0.58733916      -0.31310830
7
Lattice="529.1772105638412 0.0 0.0 0.0 529.1772105638412 0.0 0.0 0.0 529.1772105638412" Properties=species:S:1:pos:R:3:forces_component_raw:R:3 ipi_comment="Step:       19900  Bead:       0 forces_component_raw{ase}  cell{ase}" pbc="T T T"
O        0.00000000       0.00000000       0.00000000      -0.30247200      -0.10656863      -0.64050812
H        0.00000000       0.00000000       0.00000000       0.12188196      -0.32434198       0.15640318
H        0.00000000       0.00000000       0.00000000      -0.19022393       0.23212147       0.64079815
O        0.00000000       0.00000000       0.00000000      -0.68823618      -0.40142912       0.65857768
H        0.00000000       0.00000000       0.00000000       0.75144822      -0.16519466      -0.13149396
H        0.00000000       0.00000000       0.00000000       0.77572155      -0.07702361      -0.19936115
H        0.00000000       0.00000000       0.00000000      -0.46811968       0.84243655      -0.48441589
7
Lattice="529.1772105638412 0.0 0.0 0.0 529.1772105638412 0.0 0.0 0.0 529.1772105638412" Properties=species:S:1:pos:R:3:forces_component_raw:R:3 ipi_comment="Step:       19920  Bead:       0 forces_component_raw{ase}  cell{ase}" pbc="T T T"
O        0.00000000       0.00000000       0.00000000       1.38931859      -0.83301926      -0.18321216
H        0.00000000       0.00000000       0.00000000      -0.27053401       0.45518142      -0.06411868
H        0.00000000       0.00000000       0.00000000      -0.69304061       0.59587395      -0.05681783
O        0.00000000       0.00000000       0.00000000       0.16273063      -0.68414915       0.50963140
H        0.00000000       0.00000000       0.00000000      -0.33773857       0.22707009       0.10548537
H        0.00000000       0.00000000       0.00000000       0.12149423       0.00309393      -0.03591204
H        0.00000000       0.00000000       0.00000000      -0.37223065       0.23594892      -0.27505618
7
Lattice="529.1772105638412 0.0 0.0 0.0 529.1772105638412 0.0 0.0 0.0 529.1772105638412" Properties=species:S:1:pos:R:3:forces_component_raw:R:3 ipi_comment="Step:       19940  Bead:       0 forces_component_raw{ase}  cell{ase}" pbc="T T T"
O        0.00000000       0.00000000       0.00000000      -0.14917910       0.59994877       0.65550274
H        0.00000000       0.00000000       0.00000000       0.10791875      -0.50423288      -0.78517544
H        0.00000000       0.00000000       0.00000000      -0.01739991       0.37684548       0.24215213
O        0.00000000       0.00000000       0.00000000      -0.31346181       0.15599048      -0.41681111
H        0.00000000       0.00000000       0.00000000       0.45551843      -0.13219410      -0.29302305
H        0.00000000       0.00000000       0.00000000      -0.32109475      -0.14329660       0.18226898
H        0.00000000       0.00000000       0.00000000       0.23769841      -0.35306123       0.41508567
7
Lattice="529.1772105638412 0.0 0.0 0.0 529.1772105638412 0.0 0.0 0.0 529.1772105638412" Properties=species:S:1:pos:R:3:forces_component_raw:R:3 ipi_comment="Step:       19960  Bead:       0 forces_component_raw{ase}  cell{ase}" pbc="T T T"
O        0.00000000       0.00000000       0.00000000      -0.26809317       1.01330507       0.36018825
H        0.00000000       0.00000000       0.00000000       0.29204133      -0.15366745      -0.62035811
H        0.00000000       0.00000000       0.00000000       0.27649954      -0.63170838      -0.02001904
O        0.00000000       0.00000000       0.00000000       0.13450640      -0.28314275      -0.32556176
H        0.00000000       0.00000000       0.00000000      -0.21076042       0.37374562       0.13183878
H        0.00000000       0.00000000       0.00000000      -0.75737918       0.13358754       0.09506232
H        0.00000000       0.00000000       0.00000000       0.53318566      -0.45211953       0.37884933
7
Lattice="529.1772105638412 0.0 0.0 0.0 529.1772105638412 0.0 0.0 0.0 529.1772105638412" Properties=species:S:1:pos:R:3:forces_component_raw:R:3 ipi_comment="Step:       19980  Bead:       0 forces_component_raw{ase}  cell{ase}" pbc="T T T"
O        0.00000000       0.00000000       0.00000000      -0.69090432       0.69135809       0.55435419
H        0.00000000       0.00000000       0.00000000       0.19711238      -0.29561317      -0.44008088
H        0.00000000       0.00000000       0.00000000       0.24133971      -0.41909182      -0.00423789
O        0.00000000       0.00000000       0.00000000       0.60860068       1.47196448      -1.14668620
H        0.00000000       0.00000000       0.00000000       0.02650326      -1.04695142       0.38497478
H        0.00000000       0.00000000       0.00000000      -0.86059046      -0.12598267       0.28346896
H        0.00000000       0.00000000       0.00000000       0.47793886      -0.27568367       0.36820704
7
Lattice="529.1772105638412 0.0 0.0 0.0 529.1772105638412 0.0 0.0 0.0 529.1772105638412" Properties=species:S:1:pos:R:3:forces_component_raw:R:3 ipi_comment="Step:       20000  Bead:       0 forces_component_raw{ase}  cell{ase}" pbc="T T T"
O        0.00000000       0.00000000       0.00000000      -0.92251486      -0.32942894       0.11222816
H        0.00000000       0.00000000       0.00000000       0.10142785       0.02711788       0.01958537
H        0.00000000       0.00000000       0.00000000       0.30392590      -0.62548751       0.20759898
O        0.00000000       0.00000000       0.00000000       0.25050515       0.33019495      -0.91704393
H        0.00000000       0.00000000       0.00000000       0.07683972       0.77197361      -0.09313402
H        0.00000000       0.00000000       0.00000000       0.09850568       0.19971407       0.07148212
H        0.00000000       0.00000000       0.00000000       0.09131056      -0.37408400       0.59928322
