7
# CELL(abcABC):  529.17722   529.17722   529.17722    90.00000    90.00000    90.00000  Step:           0  Bead:       0 forces{eV/ang}  cell{angstrom}
       O -1.23526e+00 -1.36295e+00 -1.12264e+00
       H  2.00286e+00  1.68173e+00  1.48958e+00
       H -7.00178e-01  5.53386e-01  3.60763e-01
       O -1.47918e-03 -2.38512e-01  1.02946e-01
       H -1.25277e-01 -5.03547e-01 -5.33986e-01
       H  4.42534e-01  7.69645e-02 -1.75397e-01
       H -3.83196e-01 -2.07067e-01 -1.21265e-01
7
# CELL(abcABC):  529.17722   529.17722   529.17722    90.00000    90.00000    90.00000  Step:          20  Bead:       0 forces{eV/ang}  cell{angstrom}
       O  6.61902e-01 -1.04347e+00 -1.72716e+00
       H  1.00368e+00  4.13122e-01  5.32763e-01
       H -1.82529e+00  4.35290e-01  8.20012e-01
       O -6.59683e-01  2.62889e-01  6.72872e-01
       H  6.46718e-01  7.20579e-02  2.71083e-01
       H  7.05963e-01  2.78944e-01 -3.48453e-01
       H -5.33287e-01 -4.18837e-01 -2.21115e-01
7
# CELL(abcABC):  529.17722   529.17722   529.17722    90.00000    90.00000    90.00000  Step:          40  Bead:       0 forces{eV/ang}  cell{angstrom}
       O  1.09383e+00 -4.34267e-02 -3.44452e-02
       H -2.23062e-01 -1.24823e-01 -3.01643e-01
       H -5.25375e-01 -1.24979e-01  1.18004e-01
       O -4.22301e-02  3.46424e-01  5.25050e-01
       H -6.59977e-01  1.54460e-01  1.64714e-01
       H  1.35837e-01 -2.97915e-01 -3.80160e-01
       H  2.20974e-01  9.02596e-02 -9.15201e-02
7
# CELL(abcABC):  529.17722   529.17722   529.17722    90.00000    90.00000    90.00000  Step:          60  Bead:       0 forces{eV/ang}  cell{angstrom}
       O  8.71531e-03  7.16645e-01  1.87483e+00
       H -1.23437e+00 -8.42871e-01 -1.42932e+00
       H  6.65908e-01  4.74226e-01 -1.08362e-01
       O -1.30814e+00 -1.10961e+00  4.52435e-01
       H  6.38471e-01 -4.19333e-01 -5.02458e-01
       H  6.64241e-01  1.57573e-01 -4.70451e-01
       H  5.65174e-01  1.02337e+00  1.83321e-01
7
# CELL(abcABC):  529.17722   529.17722   529.17722    90.00000    90.00000    90.00000  Step:          80  Bead:       0 forces{eV/ang}  cell{angstrom}
       O  5.47931e-01 -2.11406e-01  2.02734e+00
       H -1.60917e+00 -6.10046e-01 -1.97620e+00
       H  1.37386e+00  5.18413e-01 -6.11200e-01
       O -2.84602e-01 -1.02637e+00 -1.34753e-01
       H -5.06951e-01 -1.09458e-01  6.24844e-01
       H -1.40466e-01  5.34183e-02  1.17414e-01
       H  6.19392e-01  1.38545e+00 -4.74390e-02
7
# CELL(abcABC):  529.17722   529.17722   529.17722    90.00000    90.00000    90.00000  Step:         100  Bead:       0 forces{eV/ang}  cell{angstrom}
       O  4.93582e-01 -4.85788e-01  2.77500e+00
       H -1.86573e+00  1.29137e-02 -1.90659e+00
       H  1.41784e+00  4.95893e-01 -6.43799e-01
       O -3.36341e-01 -1.76394e+00 -1.29142e-01
       H -1.09469e-01  6.46248e-01  1.18563e-01
       H -7.18546e-01 -3.92568e-01  6.66090e-01
       H  1.11866e+00  1.48724e+00 -8.80121e-01
7
# CELL(abcABC):  529.17722   529.17722   529.17722    90.00000    90.00000    90.00000  Step:         120  Bead:       0 forces{eV/ang}  cell{angstrom}
       O  2.21789e-01  7.63580e-01  2.19712e+00
       H -1.81113e+00  6.24041e-02 -1.39170e+00
       H  1.43628e+00 -1.20446e-01 -3.83487e-01
       O  1.47402e+00 -2.30438e+00 -1.73241e+00
       H  1.11849e-01 -5.63398e-01 -1.11868e-01
       H -1.10394e+00  5.24123e-01  9.91215e-01
       H -3.28869e-01  1.63812e+00  4.31130e-01
7
# CELL(abcABC):  529.17722   529.17722   529.17722    90.00000    90.00000    90.00000  Step:         140  Bead:       0 forces{eV/ang}  cell{angstrom}
       O -9.11987e-01 -2.28296e-01  5.37633e-01
       H -5.39060e-01  8.20401e-02 -4.41679e-01
       H  1.52211e+00 -5.01108e-01 -4.03472e-01
       O -4.27566e-01  1.44077e+00  5.34803e-01
       H  2.55400e-01  8.03582e-02 -4.99452e-03
       H -3.27526e-01 -1.05782e+00  1.51754e-01
       H  4.28630e-01  1.84049e-01 -3.74045e-01
7
# CELL(abcABC):  529.17722   529.17722   529.17722    90.00000    90.00000    90.00000  Step:         160  Bead:       0 forces{eV/ang}  cell{angstrom}
       O -9.37320e-01 -2.58662e-01 -6.73925e-01
       H  4.48871e-01  1.47279e-01  9.11725e-01
       H  7.86632e-01 -5.53036e-01 -2.90540e-01
       O  4.14343e-01  4.19521e-01 -7.85787e-01
       H -3.68705e-01  5.08676e-01  2.19142e-01
       H  1.55958e-01  6.27419e-01 -1.26816e-01
       H -4.99780e-01 -8.91197e-01  7.46201e-01
7
# CELL(abcABC):  529.17722   529.17722   529.17722    90.00000    90.00000    90.00000  Step:         180  Bead:       0 forces{eV/ang}  cell{angstrom}
       O -6.14988e-01 -2.50757e-01 -2.39666e+00
       H  3.89209e-01 -6.99857e-03  2.18405e+00
       H -1.17861e-01  1.03466e-01  4.85364e-02
       O -2.47358e+00  8.50342e-01  2.28557e+00
       H  6.54707e-01 -1.26079e-01 -3.05928e-02
       H  1.68103e+00  1.54969e-01 -1.75448e+00
       H  4.81476e-01 -7.24943e-01 -3.36428e-01
7
# CELL(abcABC):  529.17722   529.17722   529.17722    90.00000    90.00000    90.00000  Step:         200  Bead:       0 forces{eV/ang}  cell{angstrom}
       O  6.71789e-01  1.83120e-01 -2.02143e+00
       H -3.17107e-01  3.53025e-02  2.44294e+00
       H -3.98154e-01  2.46573e-01 -7.01751e-02
       O -5.90505e-01 -9.73626e-01  3.54563e-03
       H -2.41097e-01  3.13598e-01  2.46545e-01
       H  1.34028e+00  1.03745e+00 -1.59038e+00
       H -4.65205e-01 -8.42414e-01  9.88944e-01
7
# CELL(abcABC):  529.17722   529.17722   529.17722    90.00000    90.00000    90.00000  Step:         220  Bead:       0 forces{eV/ang}  cell{angstrom}
       O  1.29854e+00  3.78030e-01 -7.35589e-01
       H -5.03358e-01 -4.30876e-01  1.82783e+00
       H -7.13320e-01  6.77418e-01 -8.18198e-01
       O -8.93250e-01  1.43487e+00  2.55840e-01
       H -5.92977e-01 -1.76226e-01 -2.15228e-01
       H  7.90115e-01 -5.87736e-01 -3.17739e-01
       H  6.14254e-01 -1.29548e+00  3.08498e-03
7
# CELL(abcABC):  529.17722   529.17722   529.17722    90.00000    90.00000    90.00000  Step:         240  Bead:       0 forces{eV/ang}  cell{angstrom}
       O  1.09565e+00 -7.07690e-01 -3.41127e-01
       H -6.59528e-01 -6.22908e-02  9.31194e-01
       H -9.18900e-01  1.01044e+00 -5.74896e-01
       O  6.24854e-01 -1.58719e-01 -5.57791e-01
       H  5.78719e-01  2.24077e-02 -4.75926e-02
       H -2.87793e-01  7.77983e-01 -1.82299e-01
       H -4.32997e-01 -8.82130e-01  7.72510e-01
7
# CELL(abcABC):  529.17722   529.17722   529.17722    90.00000    90.00000    90.00000  Step:         260  Bead:       0 forces{eV/ang}  cell{angstrom}
       O  4.75372e-01 -1.30600e+00  1.07206e+00
       H  3.72482e-01 -9.89430e-02  8.30652e-02
       H -5.02729e-01  1.03831e+00 -1.18784e+00
       O  2.56773e-01  2.50129e+00 -3.54299e-01
       H -5.74193e-01 -3.19064e-01 -2.93030e-01
       H -6.29089e-01 -1.04110e+00  5.21630e-01
       H  6.01383e-01 -7.74483e-01  1.58421e-01
7
# CELL(abcABC):  529.17722   529.17722   529.17722    90.00000    90.00000    90.00000  Step:         280  Bead:       0 forces{eV/ang}  cell{angstrom}
       O -3.63426e-01 -1.61313e+00  8.82045e-01
       H  7.18354e-01  7.09301e-01 -1.23615e+00
       H -2.74107e-01  1.76896e-01 -5.42308e-02
       O  9.05576e-01 -1.05731e+00 -4.77390e-01
       H  3.54116e-01  3.72729e-01  4.37713e-01
       H -6.49322e-01  7.52347e-01  1.95105e-01
       H -6.91190e-01  6.59170e-01  2.52912e-01
7
# CELL(abcABC):  529.17722   529.17722   529.17722    90.00000    90.00000    90.00000  Step:         300  Bead:       0 forces{eV/ang}  cell{angstrom}
       O -7.67328e-01  7.22402e-01  1.05074e+00
       H  7.98533e-01 -2.77746e-01 -1.54098e+00
       H  1.80415e-01 -6.56036e-01  1.26450e-01
       O -8.50003e-01  4.29888e-01  8.94570e-01
       H -5.40092e-02 -4.78567e-01  1.79176e-02
       H -1.95200e-02 -7.46947e-01  2.68007e-01
       H  7.11912e-01  1.00700e+00 -8.16706e-01
7
# CELL(abcABC):  529.17722   529.17722   529.17722    90.00000    90.00000    90.00000  Step:         320  Bead:       0 forces{eV/ang}  cell{angstrom}
       O -1.82499e-01  7.34294e-01  2.41080e-01
       H  3.63746e-01  3.01562e-01 -1.16580e+00
       H -1.98112e-01 -1.06795e+00  9.74128e-01
       O  4.44443e-01 -2.74075e+00  1.07382e+00
       H  5.83662e-02  3.50081e-01 -6.39220e-02
       H  3.41924e-01  8.58819e-01 -3.79750e-01
       H -8.27868e-01  1.56394e+00 -6.79558e-01
7
# CELL(abcABC):  529.17722   529.17722   529.17722    90.00000    90.00000    90.00000  Step:         340  Bead:       0 forces{eV/ang}  cell{angstrom}
       O  3.13064e-01  2.79423e+00 -8.28645e-01
       H -1.52293e-01 -3.89914e-01  7.44491e-01
       H -4.32120e-01 -1.71671e+00  3.89984e-01
       O -1.48923e+00 -7.54240e-01  6.16338e-01
       H -7.77233e-02 -3.12355e-01 -7.01495e-02
       H  8.95662e-01 -7.25003e-01 -3.02312e-01
       H  9.42638e-01  1.10399e+00 -5.49707e-01
7
# CELL(abcABC):  529.17722   529.17722   529.17722    90.00000    90.00000    90.00000  Step:         360  Bead:       0 forces{eV/ang}  cell{angstrom}
       O  8.47814e-01  3.09061e-01 -2.04384e+00
       H -1.41594e-01  5.98662e-02  1.84658e+00
       H -5.99938e-01 -5.73903e-01  3.55571e-01
       O  1.15226e-01 -9.06471e-01 -3.85446e-01
       H -8.89246e-02  5.32136e-01 -2.10475e-01
       H  2.19184e-01  4.36906e-01  1.34398e-01
       H -3.51768e-01  1.42405e-01  3.03207e-01
7
# CELL(abcABC):  529.17722   529.17722   529.17722    90.00000    90.00000    90.00000  Step:         380  Bead:       0 forces{eV/ang}  cell{angstrom}
       O  3.80225e-01  3.96621e-01 -1.87390e+00
       H  2.93400e-02 -4.18339e-01  2.17971e+00
       H -2.75734e-01  2.27726e-01 -1.87603e-01
       O -1.23434e-01  1.21967e+00  7.82049e-01
       H  3.59147e-02 -5.27979e-01 -4.72500e-01
       H  4.47311e-02 -3.05632e-01 -1.64326e-01
       H -9.10419e-02 -5.92065e-01 -2.63427e-01
7
# CELL(abcABC):  529.17722   529.17722   529.17722    90.00000    90.00000    90.00000  Step:         400  Bead:       0 forces{eV/ang}  cell{angstrom}
       O -7.58109e-01 -2.39651e+00 -2.83065e+00
       H  5.08890e-01 -2.65192e-01  1.72007e+00
       H  6.87623e-01  1.37614e+00 -9.39641e-02
       O  9.88006e-02  2.02654e+00  1.16187e+00
       H  2.22070e-01  3.65933e-01  6.58960e-01
       H  4.76164e-01  2.38077e-01 -1.87462e-01
       H -1.23544e+00 -1.34499e+00 -4.28818e-01
7
# CELL(abcABC):  529.17722   529.17722   529.17722    90.00000    90.00000    90.00000  Step:         420  Bead:       0 forces{eV/ang}  cell{angstrom}
       O -2.33814e-01 -2.21242e+00 -3.90509e-01
       H -3.58251e-02 -4.09371e-01  6.17855e-01
       H  5.32728e-01  2.55014e+00 -2.93099e-01
       O  1.12524e+00  2.00449e+00  1.41288e+00
       H -1.80617e-01 -5.64386e-01 -1.43521e-01
       H  6.60785e-01 -2.69145e-02 -2.73081e-01
       H -1.86850e+00 -1.34153e+00 -9.30526e-01
7
# CELL(abcABC):  529.17722   529.17722   529.17722    90.00000    90.00000    90.00000  Step:         440  Bead:       0 forces{eV/ang}  cell{angstrom}
       O -7.89417e-01 -2.05215e+00  4.40261e-01
       H -6.30739e-02  2.51811e-01  3.27415e-01
       H  5.69580e-01  1.96611e+00 -1.08309e-01
       O  3.69905e-01  1.14104e+00  1.31228e+00
       H  4.88093e-01 -3.95507e-01 -6.66256e-01
       H  9.42384e-01 -3.72396e-02 -3.33252e-01
       H -1.51747e+00 -8.74064e-01 -9.72144e-01
7
# CELL(abcABC):  529.17722   529.17722   529.17722    90.00000    90.00000    90.00000  Step:         460  Bead:       0 forces{eV/ang}  cell{angstrom}
       O -1.44767e-01 -3.63670e-01  6.91857e-01
       H -2.61294e-02  2.51181e-02 -4.41271e-01
       H  1.52616e-01  6.64407e-01 -1.01747e-01
       O -5.09763e-01 -1.05960e+00 -2.75609e-02
       H -4.72436e-01  8.59135e-01  6.75407e-01
       H  1.32114e+00 -1.04743e-01 -5.66392e-01
       H -3.20661e-01 -2.06426e-02 -2.30293e-01
7
# CELL(abcABC):  529.17722   529.17722   529.17722    90.00000    90.00000    90.00000  Step:         480  Bead:       0 forces{eV/ang}  cell{angstrom}
       O -1.00317e-01  2.74795e+00  6.42791e-01
       H  1.78124e-01 -1.93090e-01 -5.34868e-01
       H -5.88527e-01 -1.22076e+00  6.71187e-01
       O -1.58854e+00 -4.16505e-01 -8.39962e-01
       H  4.95192e-01 -1.00165e+00 -5.91443e-01
       H  8.97527e-01 -3.49384e-02 -3.33052e-01
       H  7.06541e-01  1.18997e-01  9.85347e-01
7
# CELL(abcABC):  529.17722   529.17722   529.17722    90.00000    90.00000    90.00000  Step:         500  Bead:       0 forces{eV/ang}  cell{angstrom}
       O  7.41849e-01  1.65906e+00 -1.25197e+00
       H  1.18873e-01  7.61548e-02 -2.34338e-01
       H -9.61634e-01 -2.10798e+00  1.27328e+00
       O -1.20379e+00  3.56346e-01 -1.41297e+00
       H  4.92679e-01  2.43050e-01 -1.97751e-01
       H -5.46329e-01 -1.50952e-01  1.29341e-01
       H  1.35835e+00 -7.56799e-02  1.69441e+00
7
# CELL(abcABC):  529.17722   529.17722   529.17722    90.00000    90.00000    90.00000  Step:         520  Bead:       0 forces{eV/ang}  cell{angstrom}
       O  7.69760e-01  2.06138e+00 -5.01910e-01
       H -1.89842e-02 -4.99864e-01 -1.25425e-01
       H -5.94492e-01 -1.86040e+00  1.87939e-01
       O  3.10001e-01  1.36965e+00 -1.79390e+00
       H -2.55888e-01 -2.20270e-01  1.11378e-01
       H -1.89341e+00 -4.51585e-01  4.55074e-01
       H  1.68301e+00 -3.98914e-01  1.66684e+00
7
# CELL(abcABC):  529.17722   529.17722   529.17722    90.00000    90.00000    90.00000  Step:         540  Bead:       0 forces{eV/ang}  cell{angstrom}
       O  1.31919e-01 -8.28665e-01 -6.16440e-02
       H  1.33037e-01  4.58715e-01 -6.43792e-01
       H -2.73564e-02 -5.03632e-01  2.86967e-01
       O -1.35869e-01 -2.89079e-01 -2.02633e+00
       H  1.62395e-01  4.35849e-01 -4.21991e-01
       H -1.69212e+00  8.54363e-01  1.51261e+00
       H  1.42800e+00 -1.27550e-01  1.35419e+00
7
# CELL(abcABC):  529.17722   529.17722   529.17722    90.00000    90.00000    90.00000  Step:         560  Bead:       0 forces{eV/ang}  cell{angstrom}
       O -4.21811e-02 -2.16218e+00  1.02871e+00
       H -4.85595e-03  2.15546e-02 -1.19296e+00
       H  3.39792e-01  2.18960e+00 -2.14356e-01
       O  2.22229e+00 -1.25286e+00 -8.81767e-01
       H -5.11301e-01 -3.45414e-03  5.63171e-01
       H -2.37228e+00  1.22732e+00  7.87137e-01
       H  3.68536e-01 -1.99838e-02 -8.99303e-02
7
# CELL(abcABC):  529.17722   529.17722   529.17722    90.00000    90.00000    90.00000  Step:         580  Bead:       0 forces{eV/ang}  cell{angstrom}
       O -3.54453e-01 -2.00266e+00  1.48459e+00
       H -3.13934e-02  1.43852e-02  2.78672e-01
       H  1.18151e-01  2.35998e+00 -5.20470e-01
       O  2.98888e+00 -7.70694e-01  3.34955e-01
       H  4.32817e-01 -1.82745e-01 -1.06971e+00
       H -1.72946e+00  1.11630e+00  7.15611e-01
       H -1.42454e+00 -5.34571e-01 -1.22364e+00
7
# CELL(abcABC):  529.17722   529.17722   529.17722    90.00000    90.00000    90.00000  Step:         600  Bead:       0 forces{eV/ang}  cell{angstrom}
       O -1.03907e+00  1.69370e-01 -2.50533e+00
       H  7.30574e-01 -7.96156e-02  1.58783e+00
       H  1.76957e-01  2.40222e-01  5.35418e-01
       O  2.99356e+00  4.96421e-02  1.33324e+00
       H -6.15382e-02 -1.35717e-01  7.81585e-01
       H -1.59468e+00  4.20084e-01 -1.55031e-01
       H -1.20581e+00 -6.63986e-01 -1.57771e+00
7
# CELL(abcABC):  529.17722   529.17722   529.17722    90.00000    90.00000    90.00000  Step:         620  Bead:       0 forces{eV/ang}  cell{angstrom}
       O -8.74233e-01  2.08917e+00 -1.80141e+00
       H  1.06525e+00 -9.39031e-01  1.91583e+00
       H -5.29907e-01 -1.50659e+00 -4.06641e-01
       O  1.93870e-01  4.15003e-01  1.46100e+00
       H  3.57890e-01  2.18779e-01 -1.10266e-01
       H  4.11393e-01 -2.12111e-01 -1.88109e-01
       H -6.24266e-01 -6.52242e-02 -8.70413e-01
7
# CELL(abcABC):  529.17722   529.17722   529.17722    90.00000    90.00000    90.00000  Step:         640  Bead:       0 forces{eV/ang}  cell{angstrom}
       O -1.49811e+00  7.31683e-01 -3.44934e+00
       H  1.14135e+00  3.64431e-01  1.45203e+00
       H  2.29571e-01 -1.38926e+00  1.51790e+00
       O -2.46412e+00  8.99730e-01  2.42839e-01
       H  2.51607e-01  1.16844e-02  1.96968e-01
       H  2.20170e+00 -5.69630e-01 -2.91378e-01
       H  1.37997e-01 -4.86432e-02  3.30976e-01
7
# CELL(abcABC):  529.17722   529.17722   529.17722    90.00000    90.00000    90.00000  Step:         660  Bead:       0 forces{eV/ang}  cell{angstrom}
       O  8.65867e-01  1.93432e+00  1.19982e-01
       H -1.83845e-01 -6.40702e-01  2.48766e-01
       H -4.93634e-01 -1.36234e+00 -1.10873e-01
       O -3.08699e+00  2.36912e+00 -5.99698e-01
       H -3.40195e-01 -2.06956e-01 -3.12917e-01
       H  2.98627e+00 -1.12207e+00 -6.67064e-01
       H  2.52529e-01 -9.71379e-01  1.32180e+00
7
# CELL(abcABC):  529.17722   529.17722   529.17722    90.00000    90.00000    90.00000  Step:         680  Bead:       0 forces{eV/ang}  cell{angstrom}
       O  6.18853e-01 -1.30468e+00  1.59641e+00
       H -6.85664e-01  6.80451e-01 -1.59122e+00
       H  2.85720e-01  5.03082e-01  4.01576e-01
       O -4.21053e+00  2.05311e+00 -2.46667e-01
       H  2.37494e-01  5.45354e-01  1.10869e-01
       H  2.37865e+00 -1.02708e+00 -1.19157e+00
       H  1.37548e+00 -1.45024e+00  9.20605e-01
7
# CELL(abcABC):  529.17722   529.17722   529.17722    90.00000    90.00000    90.00000  Step:         700  Bead:       0 forces{eV/ang}  cell{angstrom}
       O -2.13468e-02  1.29502e+00  3.07949e+00
       H  3.57612e-04 -1.42636e+00 -1.85466e+00
       H -5.94476e-02  8.49969e-01 -1.05006e+00
       O -9.53947e-01 -6.15749e-01 -2.13865e+00
       H -2.00259e-01 -6.27589e-01 -1.84578e-01
       H -3.97573e-01  4.49673e-01  4.32577e-01
       H  1.63222e+00  7.50316e-02  1.71588e+00
7
# CELL(abcABC):  529.17722   529.17722   529.17722    90.00000    90.00000    90.00000  Step:         720  Bead:       0 forces{eV/ang}  cell{angstrom}
       O  2.42768e-01 -2.52597e+00  2.20007e+00
       H -9.89034e-02  6.24946e-01 -2.23566e+00
       H -1.12519e-01  1.73294e+00 -1.23715e-01
       O  4.79605e-01 -1.12409e+00 -9.67731e-01
       H -4.74558e-02  1.74872e-01  5.13140e-02
       H -1.81428e+00  5.87745e-01  3.42653e-01
       H  1.35078e+00  5.29559e-01  7.33065e-01
7
# CELL(abcABC):  529.17722   529.17722   529.17722    90.00000    90.00000    90.00000  Step:         740  Bead:       0 forces{eV/ang}  cell{angstrom}
       O -6.47272e-02 -3.91298e-01  2.04091e+00
       H  5.67105e-02 -7.38649e-01 -1.14735e+00
       H -1.40213e-01  5.44777e-01 -1.11109e+00
       O  2.19119e+00 -5.48860e-01 -3.48305e-01
       H  4.86145e-01 -1.44302e-01 -1.77654e-01
       H -2.66635e+00  7.55203e-01  4.65174e-01
       H  1.37242e-01  5.23128e-01  2.78310e-01
7
# CELL(abcABC):  529.17722   529.17722   529.17722    90.00000    90.00000    90.00000  Step:         760  Bead:       0 forces{eV/ang}  cell{angstrom}
       O  4.32890e-01 -4.19483e-01 -1.54675e+00
       H -2.70963e-01  6.74406e-01  3.13559e-01
       H -3.66087e-02 -8.74903e-01  8.35324e-01
       O  3.85557e+00  6.68663e-01  1.52087e-01
       H -7.21657e-01  1.63335e-01  4.15951e-01
       H -2.77193e+00  5.23229e-02 -1.96650e-01
       H -4.87295e-01 -2.64341e-01  2.64818e-02
7
# CELL(abcABC):  529.17722   529.17722   529.17722    90.00000    90.00000    90.00000  Step:         780  Bead:       0 forces{eV/ang}  cell{angstrom}
       O -8.91251e-01  2.40574e+00 -5.01098e-01
       H -1.83411e-01 -7.55679e-01  1.33435e+00
       H  7.89513e-01 -1.07722e+00 -5.18681e-01
       O  1.81168e+00 -8.75070e-01 -1.07955e-01
       H  8.79780e-01 -3.81299e-01 -4.92077e-02
       H -2.12687e+00  1.13655e+00 -6.54890e-02
       H -2.79441e-01 -4.53023e-01 -9.19201e-02
7
# CELL(abcABC):  529.17722   529.17722   529.17722    90.00000    90.00000    90.00000  Step:         800  Bead:       0 forces{eV/ang}  cell{angstrom}
       O  1.43261e+00  5.94544e-01 -2.83138e+00
       H -1.46695e+00  2.28827e-01  2.11251e+00
       H  1.40403e-01 -4.01970e-01  9.78683e-01
       O  1.75475e+00 -8.53014e-01  4.41752e-02
       H -7.74898e-01  5.11699e-01  1.19918e-01
       H -1.13399e+00  1.03893e-01 -3.94670e-01
       H  4.80715e-02 -1.83978e-01 -2.92319e-02
7
# CELL(abcABC):  529.17722   529.17722   529.17722    90.00000    90.00000    90.00000  Step:         820  Bead:       0 forces{eV/ang}  cell{angstrom}
       O -8.03003e-01  1.33043e+00 -7.92901e-01
       H -5.80318e-02 -2.91362e-01  1.06322e+00
       H  7.01745e-01  1.63781e-03 -3.43109e-02
       O -1.44855e+00 -6.90022e-02  4.09620e-01
       H  2.28808e-01 -7.29015e-01 -1.97782e-01
       H  1.23860e+00 -3.99812e-01 -3.95411e-02
       H  1.40433e-01  1.57123e-01 -4.08303e-01
7
# CELL(abcABC):  529.17722   529.17722   529.17722    90.00000    90.00000    90.00000  Step:         840  Bead:       0 forces{eV/ang}  cell{angstrom}
       O  6.61212e-01 -1.40612e+00  3.78396e-01
       H -4.61529e-02  3.10941e-01 -3.40364e-01
       H -4.69786e-01  4.93314e-01 -1.49375e-01
       O -3.03309e+00  1.00979e+00  5.46760e-01
       H  7.00115e-02  3.85654e-01 -1.33005e-01
       H  2.05418e+00 -1.09076e+00 -6.00529e-02
       H  7.63619e-01  2.97184e-01 -2.42359e-01
7
# CELL(abcABC):  529.17722   529.17722   529.17722    90.00000    90.00000    90.00000  Step:         860  Bead:       0 forces{eV/ang}  cell{angstrom}
       O  1.70111e-01 -8.07681e-01  2.00842e+00
       H  6.43980e-01 -5.23120e-01 -1.07824e+00
       H -5.74968e-01  8.21611e-01 -1.12019e+00
       O -1.92652e+00 -1.75654e-01  3.88829e-01
       H -5.88709e-01  3.62695e-01  2.45200e-01
       H  1.67372e+00 -5.62191e-01 -5.66137e-01
       H  6.02381e-01  8.84338e-01  1.22111e-01
7
# CELL(abcABC):  529.17722   529.17722   529.17722    90.00000    90.00000    90.00000  Step:         880  Bead:       0 forces{eV/ang}  cell{angstrom}
       O  3.86804e-01 -1.30991e+00  1.18390e+00
       H -7.07573e-02 -4.33076e-01 -1.33376e+00
       H -5.74807e-01  8.90581e-01 -5.30233e-01
       O -2.90936e-01  4.71365e-01  1.01341e-01
       H  8.77722e-01  3.91870e-02  4.31032e-01
       H -3.28274e-01  1.09473e-01  1.60619e-01
       H  2.48633e-04  2.32378e-01 -1.28968e-02
7
# CELL(abcABC):  529.17722   529.17722   529.17722    90.00000    90.00000    90.00000  Step:         900  Bead:       0 forces{eV/ang}  cell{angstrom}
       O  2.32987e-01 -1.38264e-01  1.41190e-01
       H -1.40586e-01  5.58883e-01  2.47804e-01
       H  8.24227e-02 -3.01684e-01  2.35896e-01
       O  2.05480e+00  8.60123e-01 -2.16789e+00
       H -4.93248e-01 -4.10143e-01 -6.22054e-01
       H -9.74419e-01 -2.77964e-01  1.87591e+00
       H -7.61959e-01 -2.90951e-01  2.89145e-01
7
# CELL(abcABC):  529.17722   529.17722   529.17722    90.00000    90.00000    90.00000  Step:         920  Bead:       0 forces{eV/ang}  cell{angstrom}
       O -1.55707e+00  1.12902e+00 -2.19243e+00
       H  6.79403e-01  2.26359e-01  1.96914e+00
       H  5.44677e-01 -1.03321e+00  2.04933e-01
       O  3.51624e-01  4.51295e-01 -2.36884e+00
       H  7.72064e-01  4.80045e-01  5.34108e-01
       H -9.77936e-01 -7.34020e-01  2.11395e+00
       H  1.87239e-01 -5.19487e-01 -2.60860e-01
7
# CELL(abcABC):  529.17722   529.17722   529.17722    90.00000    90.00000    90.00000  Step:         940  Bead:       0 forces{eV/ang}  cell{angstrom}
       O -1.03776e+00  6.44378e-01 -1.26263e+00
       H  4.85057e-01  7.78169e-01  1.55089e+00
       H  8.54695e-01 -8.19807e-01  3.97750e-01
       O  1.37069e+00 -1.03315e-01 -2.57972e+00
       H -6.91763e-01 -3.74351e-01 -7.13843e-01
       H -9.67160e-01 -2.75011e-01  2.35312e+00
       H -1.37525e-02  1.49936e-01  2.54431e-01
7
# CELL(abcABC):  529.17722   529.17722   529.17722    90.00000    90.00000    90.00000  Step:         960  Bead:       0 forces{eV/ang}  cell{angstrom}
       O -9.29512e-01  6.49629e-01 -6.75586e-01
       H  1.06742e-01 -2.31304e-01  1.82394e-01
       H  2.77376e-01  2.38862e-01  3.05461e-01
       O  6.14417e-01 -1.62060e-01 -1.15241e+00
       H  5.80467e-01 -5.26188e-01  3.35679e-01
       H -8.20912e-01 -1.73155e-02  1.06928e+00
       H  1.71421e-01  4.83767e-02 -6.48106e-02
7
# CELL(abcABC):  529.17722   529.17722   529.17722    90.00000    90.00000    90.00000  Step:         980  Bead:       0 forces{eV/ang}  cell{angstrom}
       O -1.73780e-01 -1.57435e-01  6.18010e-01
       H  1.23719e-01 -1.47831e-01 -4.10404e-01
       H  1.51225e-01 -1.28972e-02 -2.28766e-01
       O -5.17077e-01 -7.40657e-01  6.08160e-01
       H -2.23329e-01  7.35647e-01 -1.44031e-02
       H  4.11164e-01  9.42356e-02 -5.25293e-01
       H  2.28078e-01  2.28938e-01 -4.73044e-02
7
# CELL(abcABC):  529.17722   529.17722   529.17722    90.00000    90.00000    90.00000  Step:        1000  Bead:       0 forces{eV/ang}  cell{angstrom}
       O  4.55610e-01 -5.04348e-01  1.99032e-01
       H -5.51895e-01  9.35999e-02 -4.51582e-01
       H  1.33365e-01  1.29001e-01  2.19931e-01
       O -1.77901e+00  2.21382e-01  2.03610e+00
       H -7.12486e-03 -2.03432e-01 -2.09582e-01
       H  1.63905e+00 -6.08681e-02 -1.88251e+00
       H  1.10011e-01  3.24666e-01  8.86136e-02
7
# CELL(abcABC):  529.17722   529.17722   529.17722    90.00000    90.00000    90.00000  Step:        1020  Bead:       0 forces{eV/ang}  cell{angstrom}
       O  1.06628e+00 -6.66540e-01 -1.16606e-01
       H -4.30686e-01 -1.33138e-02 -5.56864e-01
       H -5.18030e-01  9.30595e-03  6.59229e-02
       O -2.17204e+00 -1.08330e-02  2.50654e+00
       H -1.02773e-02 -1.01641e-01  4.42454e-01
       H  2.04771e+00  1.80036e-01 -2.56778e+00
       H  1.70367e-02  6.02986e-01  2.26339e-01
7
# CELL(abcABC):  529.17722   529.17722   529.17722    90.00000    90.00000    90.00000  Step:        1040  Bead:       0 forces{eV/ang}  cell{angstrom}
       O  1.39555e+00 -1.54858e+00 -7.95729e-01
       H  7.20871e-02  2.21385e-01  1.29015e-01
       H -1.20903e+00  2.62202e-01  3.55443e-01
       O -1.48931e+00  5.03943e-01  2.42303e+00
       H  1.73200e-01  3.10861e-01 -3.53677e-01
       H  9.73981e-01  1.55489e-01 -1.61381e+00
       H  8.35246e-02  9.47013e-02 -1.44270e-01
7
# CELL(abcABC):  529.17722   529.17722   529.17722    90.00000    90.00000    90.00000  Step:        1060  Bead:       0 forces{eV/ang}  cell{angstrom}
       O  6.51875e-01 -6.62742e-01 -1.03088e+00
       H  6.69849e-01  4.65880e-03  5.12302e-01
       H -1.50267e+00  6.03896e-01  3.17471e-01
       O  6.26714e-01 -1.58213e-01 -5.95829e-01
       H  2.50091e-02  2.28369e-01  5.05031e-01
       H  1.88174e-01  2.97076e-01 -8.40435e-02
       H -6.58949e-01 -3.13045e-01  3.75948e-01
7
# CELL(abcABC):  529.17722   529.17722   529.17722    90.00000    90.00000    90.00000  Step:        1080  Bead:       0 forces{eV/ang}  cell{angstrom}
       O -6.20800e-01  7.24276e-01 -3.88755e-01
       H  6.46646e-01  3.99728e-01  9.17593e-01
       H -1.29785e-01  1.59779e-01  1.89627e-01
       O  1.17325e+00  5.41218e-01 -1.04298e+00
       H -2.19059e-02 -6.42128e-01 -3.12257e-01
       H -3.63887e-01 -4.14616e-01  8.09932e-01
       H -6.83514e-01 -7.68256e-01 -1.73164e-01
7
# CELL(abcABC):  529.17722   529.17722   529.17722    90.00000    90.00000    90.00000  Step:        1100  Bead:       0 forces{eV/ang}  cell{angstrom}
       O -9.81230e-01  1.02294e+00  2.86333e-01
       H  3.83008e-01 -2.49176e-02  2.78770e-01
       H  6.36186e-01 -4.66046e-01 -1.12139e-01
       O  1.04234e+00 -1.14340e-01 -2.59808e+00
       H -1.26461e-01  6.06382e-01 -2.20620e-01
       H  7.42532e-02 -9.88995e-02  2.06470e+00
       H -1.02809e+00 -9.25114e-01  3.01038e-01
7
# CELL(abcABC):  529.17722   529.17722   529.17722    90.00000    90.00000    90.00000  Step:        1120  Bead:       0 forces{eV/ang}  cell{angstrom}
       O -1.14221e+00  2.75967e-01 -7.82381e-01
       H  1.06352e-01 -2.89459e-02  1.43762e-01
       H  9.30977e-01 -2.29306e-01  4.12676e-01
       O  5.45402e-01  1.67830e+00 -1.61724e+00
       H -5.41336e-02 -5.40569e-01  3.50720e-01
       H -2.56305e-01 -1.11950e+00  1.73134e+00
       H -1.30079e-01 -3.59482e-02 -2.38874e-01
7
# CELL(abcABC):  529.17722   529.17722   529.17722    90.00000    90.00000    90.00000  Step:        1140  Bead:       0 forces{eV/ang}  cell{angstrom}
       O -2.93981e-01  6.52557e-01  7.51445e-01
       H -1.80361e-01 -8.05988e-01 -9.01474e-01
       H  4.47741e-01 -5.62661e-01 -9.41437e-02
       O -8.46083e-01 -9.60612e-01 -5.67392e-01
       H  1.07472e-01  2.93496e-01 -6.28526e-01
       H  6.86880e-02  2.02675e-01  1.53254e+00
       H  6.96524e-01  1.18053e+00 -9.24516e-02
7
# CELL(abcABC):  529.17722   529.17722   529.17722    90.00000    90.00000    90.00000  Step:        1160  Bead:       0 forces{eV/ang}  cell{angstrom}
       O  1.26801e+00 -6.49745e-01  1.48969e+00
       H -8.45248e-01  1.55470e-01 -1.89391e+00
       H -3.43986e-01  1.82271e-01  1.78310e-01
       O -1.63178e-01 -9.22646e-01  4.25627e-01
       H -1.05288e-01 -1.35806e-01  2.13727e-01
       H -3.44489e-02 -5.49947e-01  4.38674e-01
       H  2.24144e-01  1.92040e+00 -8.52120e-01
7
# CELL(abcABC):  529.17722   529.17722   529.17722    90.00000    90.00000    90.00000  Step:        1180  Bead:       0 forces{eV/ang}  cell{angstrom}
       O  6.88390e-02 -2.85961e-01  2.55685e+00
       H -3.08660e-01  9.84832e-01 -1.83565e+00
       H  1.61119e-01 -2.26864e-02 -1.05597e-02
       O  2.53990e-01 -2.64473e+00 -7.26307e-01
       H  1.19695e-01 -1.49572e-01 -2.47141e-01
       H -3.10147e-02  2.27930e-01  6.22939e-01
       H -2.63969e-01  1.89018e+00 -3.60131e-01
7
# CELL(abcABC):  529.17722   529.17722   529.17722    90.00000    90.00000    90.00000  Step:        1200  Bead:       0 forces{eV/ang}  cell{angstrom}
       O -1.60477e-02 -7.37298e-01  1.96605e+00
       H -2.42569e-01  1.14897e+00 -1.82288e+00
       H  1.65403e-01 -2.93022e-02  1.20559e-01
       O -1.62871e-01 -1.12141e+00  4.80252e-01
       H  1.36686e-01  3.78364e-01  4.85896e-01
       H  2.52569e-01 -3.13487e-01 -4.37374e-01
       H -1.33171e-01  6.74170e-01 -7.92504e-01
7
# CELL(abcABC):  529.17722   529.17722   529.17722    90.00000    90.00000    90.00000  Step:        1220  Bead:       0 forces{eV/ang}  cell{angstrom}
       O  5.84044e-01  7.14555e-02  9.13787e-01
       H  1.23313e-01 -2.59017e-02 -6.26931e-01
       H -3.76812e-01  2.39108e-01 -3.36031e-01
       O -4.67512e-01  6.11574e-01  1.09523e+00
       H -5.86033e-01 -3.12584e-01  1.07118e-01
       H  4.84259e-01  2.63069e-01 -1.79184e+00
       H  2.38740e-01 -8.46720e-01  6.38666e-01
7
# CELL(abcABC):  529.17722   529.17722   529.17722    90.00000    90.00000    90.00000  Step:        1240  Bead:       0 forces{eV/ang}  cell{angstrom}
       O  9.54530e-01 -1.48133e+00 -1.52294e+00
       H -2.51358e-01  6.00403e-02  7.61600e-01
       H -9.94344e-01  1.05921e+00  2.18276e-01
       O -1.47521e+00  1.95763e+00  1.08085e+00
       H  3.67295e-01  4.11558e-02 -5.12461e-02
       H  7.49297e-01  2.90836e-01 -1.35468e+00
       H  6.49784e-01 -1.92754e+00  8.68140e-01
7
# CELL(abcABC):  529.17722   529.17722   529.17722    90.00000    90.00000    90.00000  Step:        1260  Bead:       0 forces{eV/ang}  cell{angstrom}
       O -4.18307e-01  2.23670e-01 -1.15289e+00
       H  6.82410e-01 -6.60796e-01  1.65559e+00
       H -3.02063e-01  1.34909e-01 -8.06354e-01
       O -1.05367e+00  1.88833e+00  1.24599e-01
       H  1.07681e-01  1.99900e-01  2.42947e-01
       H  5.56415e-01  1.24198e-01 -7.29656e-01
       H  4.27539e-01 -1.91021e+00  6.65762e-01
7
# CELL(abcABC):  529.17722   529.17722   529.17722    90.00000    90.00000    90.00000  Step:        1280  Bead:       0 forces{eV/ang}  cell{angstrom}
       O  1.46517e-01 -1.16880e+00 -1.89345e+00
       H  2.19722e-01  4.38924e-01  1.57103e+00
       H -1.76340e-02 -5.34661e-02  3.28218e-01
       O -2.57822e-01  2.18585e+00  6.81207e-01
       H -6.67685e-01  3.90192e-01 -5.26733e-01
       H  3.27037e-01  3.35321e-02 -5.60647e-01
       H  2.49864e-01 -1.82623e+00  4.00380e-01
7
# CELL(abcABC):  529.17722   529.17722   529.17722    90.00000    90.00000    90.00000  Step:        1300  Bead:       0 forces{eV/ang}  cell{angstrom}
       O -1.11546e+00  1.18396e+00 -1.89865e+00
       H  4.57110e-01 -3.13804e-01  1.39306e+00
       H  2.06021e-01 -8.13123e-02  3.65695e-01
       O  1.37836e-01  3.63490e-01 -4.42545e-01
       H  6.17588e-01 -1.11466e+00  1.40302e-01
       H -2.02687e-01 -1.01749e-01  1.98879e-01
       H -1.00404e-01  6.40722e-02  2.43259e-01
7
# CELL(abcABC):  529.17722   529.17722   529.17722    90.00000    90.00000    90.00000  Step:        1320  Bead:       0 forces{eV/ang}  cell{angstrom}
       O -3.61044e-01  5.73344e-01 -1.69854e-01
       H  3.11127e-01 -1.04184e-01  6.98646e-01
       H  2.20351e-01 -5.24747e-01 -1.78750e-01
       O -4.28947e-02 -1.37952e+00 -1.67683e-01
       H -7.74290e-02  1.43756e+00  2.39608e-02
       H -2.10719e-01 -4.16311e-01  7.81288e-01
       H  1.60609e-01  4.13858e-01 -9.87608e-01
7
# CELL(abcABC):  529.17722   529.17722   529.17722    90.00000    90.00000    90.00000  Step:        1340  Bead:       0 forces{eV/ang}  cell{angstrom}
       O  5.56039e-01  5.57233e-01  2.69125e-01
       H -3.28744e-01  1.46391e-01 -4.61295e-01
       H -2.89316e-01  3.13548e-01  4.07910e-01
       O  1.94083e+00 -1.47967e+00 -1.37952e+00
       H -1.19934e-01 -1.32910e+00  1.32677e-01
       H -1.20913e+00  3.83369e-01  8.78103e-01
       H -5.49744e-01  1.40823e+00  1.52995e-01
7
# CELL(abcABC):  529.17722   529.17722   529.17722    90.00000    90.00000    90.00000  Step:        1360  Bead:       0 forces{eV/ang}  cell{angstrom}
       O  9.93207e-02 -1.64857e+00  1.17068e+00
       H  1.91974e-01  6.49634e-01 -8.97151e-01
       H -3.18442e-01  2.43800e-01 -3.92357e-01
       O -2.04800e-01 -8.22714e-01  7.40488e-01
       H  4.11764e-01  7.44459e-01 -7.26867e-01
       H -6.94718e-01 -1.28705e-01  1.29166e+00
       H  5.14903e-01  9.62095e-01 -1.18646e+00
7
# CELL(abcABC):  529.17722   529.17722   529.17722    90.00000    90.00000    90.00000  Step:        1380  Bead:       0 forces{eV/ang}  cell{angstrom}
       O  8.27937e-01 -1.50827e+00  3.89580e-01
       H -1.41868e-01  7.87571e-01 -1.05476e+00
       H -4.66698e-01  3.67529e-01  4.13269e-02
       O -4.48231e-02 -8.53120e-01 -9.47850e-01
       H -6.75554e-01 -3.45517e-02  1.30443e+00
       H  1.53011e-01  7.48934e-02 -1.79533e-01
       H  3.47996e-01  1.16595e+00  4.46802e-01
7
# CELL(abcABC):  529.17722   529.17722   529.17722    90.00000    90.00000    90.00000  Step:        1400  Bead:       0 forces{eV/ang}  cell{angstrom}
       O  1.75706e-01  9.69222e-01  3.04191e+00
       H -3.85383e-02  3.76400e-01 -1.44307e+00
       H  8.32481e-03  1.47507e-01 -2.09142e-01
       O -8.96840e-01  4.45883e-01  2.36829e+00
       H  3.14870e-02 -1.46239e+00 -1.67582e+00
       H  7.33527e-01 -1.58888e-01 -1.68534e+00
       H -1.36666e-02 -3.17739e-01 -3.96825e-01
7
# CELL(abcABC):  529.17722   529.17722   529.17722    90.00000    90.00000    90.00000  Step:        1420  Bead:       0 forces{eV/ang}  cell{angstrom}
       O -2.03602e-01 -4.99303e-01 -5.19171e-01
       H -2.67684e-01  2.01386e-01 -5.64342e-01
       H  4.42208e-01 -2.58567e-01  3.05226e-01
       O  2.80404e-01  7.78084e-01  1.87814e+00
       H -2.23075e-01  2.19324e-01  4.14570e-01
       H  1.21357e+00  3.82773e-01 -1.88531e+00
       H -1.24182e+00 -8.23697e-01  3.70888e-01
7
# CELL(abcABC):  529.17722   529.17722   529.17722    90.00000    90.00000    90.00000  Step:        1440  Bead:       0 forces{eV/ang}  cell{angstrom}
       O -1.12221e+00  1.22265e+00 -8.89369e-01
       H  2.08511e-01 -4.20375e-01  6.60534e-01
       H  8.03518e-01 -7.74589e-01 -6.30624e-02
       O  9.10103e-01  4.51601e-01  1.94286e+00
       H  2.97967e-01  7.75534e-02  3.84895e-01
       H  5.78806e-01  2.33793e-01 -1.55098e+00
       H -1.67670e+00 -7.90631e-01 -4.84875e-01
7
# CELL(abcABC):  529.17722   529.17722   529.17722    90.00000    90.00000    90.00000  Step:        1460  Bead:       0 forces{eV/ang}  cell{angstrom}
       O -1.11440e-01  2.19833e+00 -5.63035e-01
       H  3.61980e-01 -7.57938e-01  2.13175e+00
       H  1.62012e-01 -6.43606e-01 -1.45353e-01
       O  8.58115e-01  5.18739e-01 -8.02339e-01
       H -6.98173e-02 -4.67224e-01 -1.00015e+00
       H  6.44666e-01 -1.63528e-01  3.96342e-01
       H -1.84552e+00 -6.84772e-01 -1.72119e-02
7
# CELL(abcABC):  529.17722   529.17722   529.17722    90.00000    90.00000    90.00000  Step:        1480  Bead:       0 forces{eV/ang}  cell{angstrom}
       O  7.25847e-03  7.15794e-01 -1.48335e+00
       H  4.62822e-01 -8.06911e-01  1.97566e+00
       H -2.15874e-01  3.88905e-01  1.61159e-02
       O  1.25558e+00  7.08386e-02 -6.00750e-01
       H -4.37368e-01  3.85686e-01  9.58183e-01
       H -5.57546e-01 -6.80212e-01 -3.20851e-01
       H -5.14876e-01 -7.41003e-02 -5.45002e-01
7
# CELL(abcABC):  529.17722   529.17722   529.17722    90.00000    90.00000    90.00000  Step:        1500  Bead:       0 forces{eV/ang}  cell{angstrom}
       O  6.41725e-01 -1.24826e+00 -3.21200e-01
       H  2.68033e-01 -4.64968e-01  5.10781e-01
       H -9.65522e-01  1.33135e+00 -1.85562e-01
       O -6.01265e-01 -7.46824e-02 -1.00494e+00
       H  3.98698e-01  1.99720e-01 -5.22414e-01
       H  1.25217e-02  2.69949e-01  1.03351e+00
       H  2.45810e-01 -1.31080e-02  4.89831e-01
7
# CELL(abcABC):  529.17722   529.17722   529.17722    90.00000    90.00000    90.00000  Step:        1520  Bead:       0 forces{eV/ang}  cell{angstrom}
       O  1.56395e+00 -2.63318e+00 -1.50546e-01
       H -3.51451e-01  6.86665e-01 -1.26110e+00
       H -1.54558e+00  2.02261e+00  5.69464e-01
       O -1.96685e-01  7.69143e-02 -6.38273e-01
       H  2.30913e-02 -7.13658e-01  4.68900e-01
       H -9.21342e-01 -4.24776e-02  5.32352e-01
       H  1.42802e+00  6.03127e-01  4.79199e-01
7
# CELL(abcABC):  529.17722   529.17722   529.17722    90.00000    90.00000    90.00000  Step:        1540  Bead:       0 forces{eV/ang}  cell{angstrom}
       O  4.18273e-01 -3.16471e+00  2.36749e+00
       H  9.27694e-01  8.25197e-01 -1.47173e+00
       H -1.43450e+00  1.67982e+00 -6.38838e-01
       O -7.25204e-01 -8.11415e-01 -8.05964e-01
       H -2.48011e-01  4.02325e-01 -7.34818e-01
       H  1.74271e-02  1.76915e-01  2.49804e-01
       H  1.04432e+00  8.91863e-01  1.03406e+00
7
# CELL(abcABC):  529.17722   529.17722   529.17722    90.00000    90.00000    90.00000  Step:        1560  Bead:       0 forces{eV/ang}  cell{angstrom}
       O  5.10806e-01 -1.92833e+00  9.68293e-01
       H -2.42173e-01  5.82708e-01 -2.28959e+00
       H -6.26183e-01  1.18084e+00  3.65605e-01
       O -7.12998e-01  2.65500e-01  3.23572e-01
       H  9.82142e-02 -3.55565e-01  5.12624e-01
       H  2.34039e-01 -1.56012e-01 -1.51467e-01
       H  7.38295e-01  4.10853e-01  2.70967e-01
7
# CELL(abcABC):  529.17722   529.17722   529.17722    90.00000    90.00000    90.00000  Step:        1580  Bead:       0 forces{eV/ang}  cell{angstrom}
       O  3.77583e-01 -1.55022e-01  2.14822e+00
       H  1.03756e-02 -4.16320e-01 -1.02374e+00
       H -2.20227e-01  5.70658e-01 -7.13484e-01
       O -6.57620e-01 -3.60328e-01 -6.85220e-01
       H  1.43224e-01  8.46016e-01  4.30499e-01
       H  2.49308e-01 -3.62438e-01 -9.81301e-02
       H  9.73565e-02 -1.22567e-01 -5.81402e-02
7
# CELL(abcABC):  529.17722   529.17722   529.17722    90.00000    90.00000    90.00000  Step:        1600  Bead:       0 forces{eV/ang}  cell{angstrom}
       O -2.53699e-01  1.58445e+00 -4.72354e-01
       H  4.50353e-01 -1.58281e-03  1.15072e+00
       H  1.26279e-01 -2.93894e-01  4.61984e-01
       O -7.89989e-01  2.82879e-01  1.10292e-02
       H  1.46676e-01 -8.59838e-01 -7.52611e-01
       H  7.51505e-01 -6.97750e-01 -1.33313e-01
       H -4.31125e-01 -1.42594e-02 -2.65453e-01
7
# CELL(abcABC):  529.17722   529.17722   529.17722    90.00000    90.00000    90.00000  Step:        1620  Bead:       0 forces{eV/ang}  cell{angstrom}
       O -6.23782e-01  1.71266e+00 -2.36233e+00
       H  1.39372e+00 -1.13406e+00  2.45713e+00
       H -5.60263e-01 -5.71152e-01 -1.99213e-02
       O  7.90369e-01  2.13099e-01 -2.75138e-01
       H -4.42582e-01  7.04843e-01  3.35820e-01
       H  9.39211e-02 -8.73615e-01 -2.17228e-01
       H -6.51380e-01 -5.17721e-02  8.16714e-02
7
# CELL(abcABC):  529.17722   529.17722   529.17722    90.00000    90.00000    90.00000  Step:        1640  Bead:       0 forces{eV/ang}  cell{angstrom}
       O -1.15910e+00  1.75048e+00 -2.97925e+00
       H  1.66155e+00 -1.39378e+00  2.05409e+00
       H -8.06760e-01 -9.74513e-01  3.12681e-01
       O  2.82912e-01  1.40445e+00  5.38811e-01
       H  4.19387e-01 -1.47978e-01  1.23398e-01
       H  3.06213e-01 -6.02084e-01  2.11647e-01
       H -7.04201e-01 -3.65760e-02 -2.61386e-01
7
# CELL(abcABC):  529.17722   529.17722   529.17722    90.00000    90.00000    90.00000  Step:        1660  Bead:       0 forces{eV/ang}  cell{angstrom}
       O  4.42759e-01  1.82185e+00 -3.67139e-01
       H  4.81257e-01 -3.76296e-01  6.50539e-01
       H -5.91799e-01 -7.97588e-01  4.01883e-01
       O  2.28378e-01  1.37768e-01  5.17846e-01
       H -4.37111e-01 -1.01947e+00 -1.03887e+00
       H  3.72808e-02  1.59559e-01 -5.68201e-02
       H -1.60764e-01  7.41807e-02 -1.07439e-01
7
# CELL(abcABC):  529.17722   529.17722   529.17722    90.00000    90.00000    90.00000  Step:        1680  Bead:       0 forces{eV/ang}  cell{angstrom}
       O  7.09452e-01 -4.02264e-01 -5.37895e-01
       H -6.53316e-01  2.65525e-02 -5.21281e-01
       H -5.06901e-01 -3.88987e-01  1.71008e-01
       O  2.16563e-01 -1.61298e-01  4.43633e-01
       H -9.56451e-02  1.80695e-01 -1.85308e-02
       H -2.05526e-01  7.63139e-01 -1.46113e-01
       H  5.35373e-01 -1.78377e-02  6.09178e-01
7
# CELL(abcABC):  529.17722   529.17722   529.17722    90.00000    90.00000    90.00000  Step:        1700  Bead:       0 forces{eV/ang}  cell{angstrom}
       O  6.30383e-01 -9.60321e-01  1.14219e+00
       H -1.17333e+00  6.31054e-01 -1.58377e+00
       H  2.41220e-01  1.32107e-01  1.74654e-01
       O -5.44644e-01 -1.01913e+00 -2.59189e-01
       H  5.11909e-01  1.77835e-01  3.00697e-01
       H -1.42862e-01  1.49711e+00 -1.43922e-01
       H  4.77325e-01 -4.58648e-01  3.69337e-01
7
# CELL(abcABC):  529.17722   529.17722   529.17722    90.00000    90.00000    90.00000  Step:        1720  Bead:       0 forces{eV/ang}  cell{angstrom}
       O  1.42266e+00 -1.00598e+00  3.65316e+00
       H -1.49986e+00  7.45224e-01 -1.77231e+00
       H  7.10950e-01  1.21929e+00 -7.44270e-01
       O -7.84440e-01 -1.97627e+00 -3.78343e-03
       H -3.37758e-01 -4.90623e-01 -7.52880e-01
       H  4.60043e-01  1.40966e+00 -2.68366e-01
       H  2.84019e-02  9.86988e-02 -1.11549e-01
7
# CELL(abcABC):  529.17722   529.17722   529.17722    90.00000    90.00000    90.00000  Step:        1740  Bead:       0 forces{eV/ang}  cell{angstrom}
       O  7.29616e-01 -1.48003e+00  2.70856e+00
       H -9.29658e-01  1.07762e+00 -1.76964e+00
       H  8.84035e-01  1.12665e+00 -1.97987e-01
       O -1.83059e-01 -2.30558e+00 -9.45033e-01
       H  3.85255e-01  1.71191e-01  6.76962e-01
       H  2.29587e-01  1.10382e+00 -2.28106e-01
       H -1.11578e+00  3.06321e-01 -2.44756e-01
7
# CELL(abcABC):  529.17722   529.17722   529.17722    90.00000    90.00000    90.00000  Step:        1760  Bead:       0 forces{eV/ang}  cell{angstrom}
       O  5.81906e-01 -1.41333e-01  1.03522e+00
       H -3.85785e-01  1.73319e-01 -6.96476e-01
       H -9.57899e-02 -1.17008e-01 -2.06377e-01
       O  6.59896e-01 -5.62645e-01  3.06136e-01
       H -1.32757e-01  1.55162e-01 -2.17829e-01
       H  1.48226e-01  1.46167e-01 -9.80890e-02
       H -7.75697e-01  3.46340e-01 -1.22585e-01
7
# CELL(abcABC):  529.17722   529.17722   529.17722    90.00000    90.00000    90.00000  Step:        1780  Bead:       0 forces{eV/ang}  cell{angstrom}
       O -1.97426e-01  4.83861e-01 -1.81037e+00
       H  2.63416e-01 -2.93007e-01  7.92810e-01
       H -5.74225e-01 -6.31645e-01  3.73110e-01
       O  4.19070e-01  1.87204e+00  6.92880e-01
       H  3.20018e-02 -9.72223e-02 -1.04449e-01
       H  8.68451e-02 -1.38171e+00  1.29263e-01
       H -2.96818e-02  4.76804e-02 -7.32423e-02
7
# CELL(abcABC):  529.17722   529.17722   529.17722    90.00000    90.00000    90.00000  Step:        1800  Bead:       0 forces{eV/ang}  cell{angstrom}
       O  3.58488e-01  5.60845e-01 -2.48069e+00
       H  7.41392e-02 -3.33967e-01  1.68460e+00
       H -8.44735e-01 -5.30153e-01  2.72132e-01
       O -3.99350e-01  1.98954e+00 -2.58613e-01
       H  2.00254e-01  4.98977e-01  5.43275e-01
       H  1.09751e-01 -2.11329e+00 -3.34473e-03
       H  5.01454e-01 -7.19544e-02  2.42639e-01
7
# CELL(abcABC):  529.17722   529.17722   529.17722    90.00000    90.00000    90.00000  Step:        1820  Bead:       0 forces{eV/ang}  cell{angstrom}
       O -3.46231e-01 -2.10767e-01 -1.02981e+00
       H  9.69123e-02  9.42472e-02  6.29625e-01
       H -7.02922e-01 -3.00781e-01  4.00051e-02
       O -9.61254e-01  1.87162e+00  4.11238e-01
       H  5.08225e-01 -3.05156e-01 -4.94677e-01
       H  4.96317e-01 -1.27687e+00  9.11289e-02
       H  9.08954e-01  1.27706e-01  3.52493e-01
7
# CELL(abcABC):  529.17722   529.17722   529.17722    90.00000    90.00000    90.00000  Step:        1840  Bead:       0 forces{eV/ang}  cell{angstrom}
       O  5.06527e-02  1.54359e-02  2.98227e-02
       H -3.44442e-02 -7.71209e-02 -1.50168e-01
       H -1.13562e-01 -4.80858e-02 -1.23942e-01
       O -2.68341e-01  2.81854e-01 -6.91103e-02
       H -3.73545e-01  1.87067e-01  2.18757e-01
       H -4.97211e-01  1.25952e-01 -6.58493e-02
       H  1.23645e+00 -4.85102e-01  1.60490e-01
7
# CELL(abcABC):  529.17722   529.17722   529.17722    90.00000    90.00000    90.00000  Step:        1860  Bead:       0 forces{eV/ang}  cell{angstrom}
       O -1.70579e+00  7.94405e-01  1.43390e+00
       H  5.43412e-01 -2.64828e-01 -6.72031e-01
       H  1.87885e+00  7.39404e-03  3.44985e-02
       O -1.53018e+00 -9.92279e-01 -6.79541e-01
       H  2.25244e-02 -3.12320e-01 -1.64884e-01
       H  1.17099e-02  1.16598e+00  4.56398e-01
       H  7.79482e-01 -3.98349e-01 -4.08343e-01
7
# CELL(abcABC):  529.17722   529.17722   529.17722    90.00000    90.00000    90.00000  Step:        1880  Bead:       0 forces{eV/ang}  cell{angstrom}
       O -1.19891e+00  1.40233e+00  1.65097e+00
       H  2.26446e-01 -6.06188e-01 -1.03625e+00
       H  2.01292e+00 -5.14460e-01  1.72692e-01
       O -8.83092e-01 -1.68912e+00 -6.15676e-01
       H -2.32502e-01  3.69813e-01 -1.78005e-01
       H  1.53273e-01  9.41935e-01  2.07366e-01
       H -7.81329e-02  9.56929e-02 -2.01095e-01
7
# CELL(abcABC):  529.17722   529.17722   529.17722    90.00000    90.00000    90.00000  Step:        1900  Bead:       0 forces{eV/ang}  cell{angstrom}
       O -5.22011e-01  6.70901e-01  7.96731e-01
       H  9.38862e-02 -2.67343e-01 -6.30124e-01
       H  4.20833e-01 -3.43303e-01 -6.75808e-02
       O  3.70799e-01 -1.02955e+00 -9.20854e-01
       H  4.81218e-01 -6.04852e-02  1.84888e-01
       H -5.23239e-02  9.79783e-01  6.11798e-01
       H -7.92402e-01  4.99946e-02  2.51415e-02
7
# CELL(abcABC):  529.17722   529.17722   529.17722    90.00000    90.00000    90.00000  Step:        1920  Bead:       0 forces{eV/ang}  cell{angstrom}
       O  1.32079e-01 -1.47433e+00 -3.16804e-01
       H -6.08216e-02  6.22910e-02  3.84249e-02
       H -8.59898e-01  9.77505e-01 -5.27193e-01
       O  1.66980e+00 -9.20422e-01 -3.09797e-01
       H  1.48153e-02  1.76021e-01  3.23425e-01
       H -2.32958e-01  9.27316e-01  6.41681e-01
       H -6.63021e-01  2.51621e-01  1.50264e-01
7
# CELL(abcABC):  529.17722   529.17722   529.17722    90.00000    90.00000    90.00000  Step:        1940  Bead:       0 forces{eV/ang}  cell{angstrom}
       O  9.17795e-01 -9.36977e-01  1.03450e+00
       H -1.04479e-02  4.96135e-01  5.02309e-01
       H -5.02856e-01  1.03050e+00 -7.52201e-01
       O  4.85822e-01  3.77202e-01  6.32556e-01
       H -7.95312e-01 -7.71115e-01 -9.99136e-01
       H  2.78896e-01 -4.49362e-01 -5.11278e-01
       H -3.73897e-01  2.53620e-01  9.32481e-02
7
# CELL(abcABC):  529.17722   529.17722   529.17722    90.00000    90.00000    90.00000  Step:        1960  Bead:       0 forces{eV/ang}  cell{angstrom}
       O  6.41048e-02 -2.70845e+00 -9.01239e-01
       H -4.25688e-01  6.67245e-01  6.28446e-01
       H -2.13658e-01  1.54316e+00 -5.15189e-01
       O -7.28884e-01  1.36085e+00  1.83465e+00
       H -1.17926e-01  2.26613e-01  4.53222e-01
       H  1.01418e+00 -1.29205e+00 -1.86126e+00
       H  4.07869e-01  2.02627e-01  3.61372e-01
7
# CELL(abcABC):  529.17722   529.17722   529.17722    90.00000    90.00000    90.00000  Step:        1980  Bead:       0 forces{eV/ang}  cell{angstrom}
       O  5.53199e-01 -1.16537e+00  1.02478e+00
       H -2.09329e-01  1.71523e-01 -6.73908e-02
       H -4.80501e-01  9.93642e-01 -8.76687e-01
       O -1.23938e+00  1.39619e+00  2.47958e+00
       H  3.55049e-01 -2.82223e-01 -4.58220e-01
       H  1.05091e+00 -1.05161e+00 -2.07557e+00
       H -2.99446e-02 -6.21450e-02 -2.64838e-02
7
# CELL(abcABC):  529.17722   529.17722   529.17722    90.00000    90.00000    90.00000  Step:        2000  Bead:       0 forces{eV/ang}  cell{angstrom}
       O  5.60674e-01  9.22837e-01  3.87859e-01
       H -7.08866e-02 -7.73009e-01 -9.45760e-02
       H  1.77823e-01  2.29393e-02  3.52151e-01
       O -1.85291e-01 -1.04926e+00 -6.72405e-02
       H  3.63709e-01  6.10767e-01  5.66911e-01
       H  2.22871e-01 -2.66495e-01 -9.22146e-01
       H -1.06890e+00  5.32222e-01 -2.22959e-01
7
# CELL(abcABC):  529.17722   529.17722   529.17722    90.00000    90.00000    90.00000  Step:        2020  Bead:       0 forces{eV/ang}  cell{angstrom}
       O  5.57711e-01  1.92638e+00 -8.31921e-01
       H -1.89278e-01 -8.20571e-01  1.66639e-01
       H  3.15628e-01 -6.81889e-01  1.31409e+00
       O  4.01753e-01 -5.21223e-01 -4.92124e-01
       H -1.55847e-01 -2.54872e-01 -2.20703e-01
       H  8.11673e-02 -1.43522e-01  1.01139e-01
       H -1.01114e+00  4.95701e-01 -3.71163e-02
7
# CELL(abcABC):  529.17722   529.17722   529.17722    90.00000    90.00000    90.00000  Step:        2040  Bead:       0 forces{eV/ang}  cell{angstrom}
       O  9.98956e-02  6.63271e-01 -1.21956e+00
       H -2.46801e-01 -3.16417e-01  4.43385e-02
       H  4.76404e-02 -4.21968e-01  1.29038e+00
       O  1.27603e+00 -5.46608e-01 -8.88151e-01
       H  1.03660e-01  4.03607e-02 -2.91405e-01
       H -7.00219e-01  2.20169e-01  1.18924e+00
       H -5.80202e-01  3.61192e-01 -1.24842e-01
7
# CELL(abcABC):  529.17722   529.17722   529.17722    90.00000    90.00000    90.00000  Step:        2060  Bead:       0 forces{eV/ang}  cell{angstrom}
       O -4.49407e-01 -1.27863e-01 -3.56536e-01
       H -5.72026e-02  1.94613e-02 -5.34338e-02
       H  8.26600e-03 -4.88072e-02  1.06051e-01
       O  1.05481e+00 -1.39904e-01 -7.39845e-01
       H  1.30590e-01 -8.24578e-02 -8.31153e-02
       H -9.88583e-01  5.19850e-01  1.27763e+00
       H  3.01527e-01 -1.40279e-01 -1.50749e-01
7
# CELL(abcABC):  529.17722   529.17722   529.17722    90.00000    90.00000    90.00000  Step:        2080  Bead:       0 forces{eV/ang}  cell{angstrom}
       O -1.11176e+00 -1.22535e+00  1.78867e-01
       H  3.42188e-01  7.41785e-01  1.09020e-01
       H  3.18454e-01  3.27960e-01 -6.00604e-01
       O -3.75558e-01  3.88197e-01 -1.51644e+00
       H  2.28043e-01 -1.78904e-02  3.31164e-03
       H -3.38499e-01  3.74918e-01  1.46582e+00
       H  9.37128e-01 -5.89621e-01  3.60031e-01
7
# CELL(abcABC):  529.17722   529.17722   529.17722    90.00000    90.00000    90.00000  Step:        2100  Bead:       0 forces{eV/ang}  cell{angstrom}
       O -7.43088e-01 -1.90926e+00  1.12715e+00
       H  9.15344e-01  1.78968e+00 -2.73155e-01
       H  5.38622e-02  4.28061e-02 -7.39838e-01
       O -7.08949e-01  5.47118e-01 -8.28122e-01
       H -4.02006e-01  1.13535e-01 -1.24999e-01
       H -5.28859e-01  3.83589e-01  9.10204e-01
       H  1.41370e+00 -9.67471e-01 -7.12417e-02
7
# CELL(abcABC):  529.17722   529.17722   529.17722    90.00000    90.00000    90.00000  Step:        2120  Bead:       0 forces{eV/ang}  cell{angstrom}
       O -3.44827e-01 -1.04806e+00  1.03527e+00
       H  4.95987e-01  1.02311e+00  1.39755e-01
       H  1.67746e-01  3.30334e-01 -7.01110e-01
       O -1.24857e+00  6.14483e-01 -6.76941e-01
       H  3.24859e-01 -4.31922e-01 -4.28807e-01
       H  1.55817e-02  1.49180e-01  6.42350e-01
       H  5.89227e-01 -6.37118e-01 -1.05187e-02
7
# CELL(abcABC):  529.17722   529.17722   529.17722    90.00000    90.00000    90.00000  Step:        2140  Bead:       0 forces{eV/ang}  cell{angstrom}
       O  4.49506e-01 -7.44963e-02  9.14365e-01
       H -5.09096e-03 -6.52266e-02  6.41831e-02
       H -5.24153e-02  2.21719e-01 -7.09851e-01
       O -1.61789e-02 -8.22013e-01 -9.96775e-02
       H  9.60790e-02  5.83841e-01  6.71952e-01
       H -2.49361e-01 -1.25175e-01 -6.42935e-01
       H -2.22538e-01  2.81351e-01 -1.98036e-01
7
# CELL(abcABC):  529.17722   529.17722   529.17722    90.00000    90.00000    90.00000  Step:        2160  Bead:       0 forces{eV/ang}  cell{angstrom}
       O  5.32392e-01  1.04897e+00  2.80072e-01
       H -4.92605e-01 -1.18081e+00 -9.79867e-03
       H -1.35138e-01  1.39987e-01 -1.61827e-01
       O  6.54451e-01 -3.63146e-01  8.73516e-01
       H  2.12284e-01 -1.52826e-01 -4.24158e-01
       H  4.27851e-01 -3.51217e-01 -3.24686e-01
       H -1.19924e+00  8.59045e-01 -2.33119e-01
7
# CELL(abcABC):  529.17722   529.17722   529.17722    90.00000    90.00000    90.00000  Step:        2180  Bead:       0 forces{eV/ang}  cell{angstrom}
       O -8.43429e-02  1.30924e+00 -1.33841e+00
       H -3.28900e-01 -1.24016e+00  1.85538e-01
       H  6.73326e-02 -1.63010e-01  6.91472e-01
       O  9.98191e-01 -1.78955e-01  1.07363e+00
       H -1.39294e-01  5.52902e-02  1.76200e-01
       H  2.93265e-01 -6.10356e-01 -5.84907e-01
       H -8.06251e-01  8.27947e-01 -2.03520e-01
7
# CELL(abcABC):  529.17722   529.17722   529.17722    90.00000    90.00000    90.00000  Step:        2200  Bead:       0 forces{eV/ang}  cell{angstrom}
       O  1.27095e-01  1.25294e+00 -9.22865e-01
       H -4.05418e-01 -6.72383e-01 -4.48754e-01
       H -1.04188e-01 -7.33911e-01  1.04021e+00
       O  6.34330e-01  7.01784e-01  1.57352e+00
       H  1.14167e-01 -1.07155e-01  4.99794e-02
       H  1.49219e-01 -8.11660e-01 -8.18311e-01
       H -5.15204e-01  3.70390e-01 -4.73777e-01
7
# CELL(abcABC):  529.17722   529.17722   529.17722    90.00000    90.00000    90.00000  Step:        2220  Bead:       0 forces{eV/ang}  cell{angstrom}
       O -3.82152e-01 -5.33012e-01 -7.72159e-01
       H  2.01500e-02  2.54361e-01  2.05223e-01
       H  1.80996e-01  1.26071e-01  5.57977e-01
       O -2.40706e-01  4.54848e-03  5.32721e-02
       H  2.28338e-01  1.98862e-01  6.17644e-02
       H  1.82890e-01 -3.26991e-01 -1.28453e-01
       H  1.04826e-02  2.76161e-01  2.23759e-02
7
# CELL(abcABC):  529.17722   529.17722   529.17722    90.00000    90.00000    90.00000  Step:        2240  Bead:       0 forces{eV/ang}  cell{angstrom}
       O  2.80890e-01  5.93130e-01  4.06564e-01
       H  2.68614e-01  6.46745e-02 -1.60222e-01
       H -8.06486e-02 -2.58508e-01 -1.90561e-01
       O -4.76159e-02 -3.09721e-01 -1.13979e+00
       H -5.03840e-01 -5.33667e-01  2.18241e-01
       H -1.81873e-01  1.08483e+00  4.21263e-01
       H  2.64472e-01 -6.40743e-01  4.44502e-01
7
# CELL(abcABC):  529.17722   529.17722   529.17722    90.00000    90.00000    90.00000  Step:        2260  Bead:       0 forces{eV/ang}  cell{angstrom}
       O -8.97173e-01 -6.42106e-01  3.00952e-03
       H  2.28903e-01  4.50622e-01  7.37567e-02
       H  4.05526e-01  9.65806e-02  3.07139e-01
       O -4.25974e-01 -1.05249e+00 -1.20014e+00
       H  7.32647e-01  5.12397e-01 -1.55577e-01
       H -3.53454e-01  1.56369e+00  2.66840e-01
       H  3.09525e-01 -9.28695e-01  7.04973e-01
7
# CELL(abcABC):  529.17722   529.17722   529.17722    90.00000    90.00000    90.00000  Step:        2280  Bead:       0 forces{eV/ang}  cell{angstrom}
       O  2.49035e-01 -2.78988e-01  6.51429e-01
       H  5.62331e-01  7.95359e-01 -2.64670e-01
       H -4.20891e-01 -2.68509e-01 -7.97806e-01
       O  6.79982e-01 -7.88952e-01 -1.99777e+00
       H -8.69700e-01 -5.23721e-01  3.91996e-01
       H -2.67271e-02  1.44947e+00  1.25000e+00
       H -1.74029e-01 -3.84657e-01  7.66820e-01
7
# CELL(abcABC):  529.17722   529.17722   529.17722    90.00000    90.00000    90.00000  Step:        2300  Bead:       0 forces{eV/ang}  cell{angstrom}
       O -2.00211e+00 -2.19387e+00  1.25624e-01
       H  9.86922e-01  1.37716e+00  1.09894e-01
       H  3.92063e-01  5.11049e-01 -3.67024e-01
       O  1.38490e-01 -1.57576e+00  4.29843e-01
       H  3.45007e-01  4.01361e-01 -4.88134e-01
       H  1.43104e-01  1.67070e+00  3.76425e-01
       H -3.47047e-03 -1.90634e-01 -1.86628e-01
7
# CELL(abcABC):  529.17722   529.17722   529.17722    90.00000    90.00000    90.00000  Step:        2320  Bead:       0 forces{eV/ang}  cell{angstrom}
       O  9.98294e-02 -9.09958e-02 -5.33612e-02
       H  4.93418e-01  4.86578e-01 -4.39571e-01
       H -5.29674e-01 -3.39491e-01  1.84866e-01
       O -4.21541e-01 -6.45118e-01 -2.77710e-01
       H -5.35801e-02 -2.39236e-01  3.39497e-01
       H  4.30300e-01  5.78856e-01  3.79798e-01
       H -1.87522e-02  2.49406e-01 -1.33520e-01
7
# CELL(abcABC):  529.17722   529.17722   529.17722    90.00000    90.00000    90.00000  Step:        2340  Bead:       0 forces{eV/ang}  cell{angstrom}
       O  4.58731e-01  1.21571e-01 -2.66016e-01
       H -3.88094e-01 -3.46516e-01  1.40370e-01
       H  9.65507e-02  2.17282e-01  8.04385e-01
       O  1.79005e-01  1.06303e+00  3.23630e-02
       H  1.26240e-02  1.23436e-01 -4.97792e-01
       H -4.47532e-01 -9.12351e-01 -3.47740e-01
       H  8.87142e-02 -2.66454e-01  1.34430e-01
7
# CELL(abcABC):  529.17722   529.17722   529.17722    90.00000    90.00000    90.00000  Step:        2360  Bead:       0 forces{eV/ang}  cell{angstrom}
       O  8.06316e-01  1.02500e+00 -3.67160e-01
       H -1.08651e-01 -6.42575e-01 -3.97329e-01
       H -5.58003e-01 -2.70509e-01  8.45826e-01
       O  1.90521e-01  2.78151e+00 -9.71190e-01
       H  9.73527e-02  3.42447e-02  4.31147e-01
       H -1.04537e+00 -2.82734e+00  2.17677e-03
       H  6.17835e-01 -1.00337e-01  4.56529e-01
7
# CELL(abcABC):  529.17722   529.17722   529.17722    90.00000    90.00000    90.00000  Step:        2380  Bead:       0 forces{eV/ang}  cell{angstrom}
       O  8.18825e-01  3.55188e-01 -1.12127e+00
       H -4.48581e-01 -4.14923e-01  2.28996e-01
       H -1.99216e-01  1.57335e-01  1.16491e+00
       O  1.04296e+00  3.04503e+00 -7.13053e-01
       H -4.57211e-02  3.13346e-02 -4.19718e-02
       H -1.52644e+00 -2.48341e+00  2.85915e-02
       H  3.58171e-01 -6.90550e-01  4.53798e-01
7
# CELL(abcABC):  529.17722   529.17722   529.17722    90.00000    90.00000    90.00000  Step:        2400  Bead:       0 forces{eV/ang}  cell{angstrom}
       O  5.06137e-01  5.25385e-01 -2.45632e-01
       H -4.63564e-01 -3.54051e-01 -4.74586e-02
       H -1.86855e-01 -3.23770e-02  4.67419e-01
       O -1.26575e-01  1.64319e+00 -1.32351e-01
       H  2.87004e-01 -4.40631e-01 -3.92152e-01
       H -4.90439e-01 -1.31889e+00  2.63859e-01
       H  4.74292e-01 -2.26329e-02  8.63147e-02
7
# CELL(abcABC):  529.17722   529.17722   529.17722    90.00000    90.00000    90.00000  Step:        2420  Bead:       0 forces{eV/ang}  cell{angstrom}
       O -3.79995e-01 -3.05442e-01 -3.59075e-01
       H  5.25498e-01  2.79535e-01  2.28787e-01
       H -3.27650e-02  4.84224e-02 -8.65477e-02
       O  1.74470e-01 -1.17253e+00  3.57207e-01
       H -5.21616e-02  3.01111e-01  1.47789e-01
       H  1.45468e-01  4.07171e-01 -2.09607e-01
       H -3.80513e-01  4.41736e-01 -7.85538e-02
7
# CELL(abcABC):  529.17722   529.17722   529.17722    90.00000    90.00000    90.00000  Step:        2440  Bead:       0 forces{eV/ang}  cell{angstrom}
       O  2.18111e-01  4.56793e-02  6.07279e-01
       H  2.98356e-01  1.58178e-01 -2.77335e-01
       H -4.31283e-01 -2.05695e-01 -5.19792e-01
       O  2.03359e-01 -1.42240e+00  4.96139e-01
       H -1.86976e-01 -1.38820e-01  8.50332e-02
       H  5.55552e-01  2.30642e-01  8.19121e-02
       H -6.57118e-01  1.33242e+00 -4.73236e-01
7
# CELL(abcABC):  529.17722   529.17722   529.17722    90.00000    90.00000    90.00000  Step:        2460  Bead:       0 forces{eV/ang}  cell{angstrom}
       O -8.68235e-01 -6.49925e-01  8.08348e-01
       H  1.96058e-01 -1.36141e-01  2.63124e-02
       H  4.36127e-01  5.41148e-01 -7.48165e-01
       O -1.99633e-02 -1.36208e+00  7.88735e-01
       H  2.19539e-01  1.53113e-01 -1.95903e-01
       H  5.69405e-01  3.20466e-01 -8.59502e-02
       H -5.32931e-01  1.13342e+00 -5.93378e-01
7
# CELL(abcABC):  529.17722   529.17722   529.17722    90.00000    90.00000    90.00000  Step:        2480  Bead:       0 forces{eV/ang}  cell{angstrom}
       O  1.00133e+00 -2.96007e-01  4.40682e-02
       H -5.48829e-01  2.66819e-01 -4.23659e-01
       H -4.32029e-01 -7.54809e-02  2.66842e-01
       O -4.25371e-01 -2.41845e-01  5.90329e-02
       H -3.05350e-01 -2.06796e-03  2.05417e-01
       H  7.67994e-01  4.79166e-01 -1.91916e-01
       H -5.77492e-02 -1.30585e-01  4.02160e-02
7
# CELL(abcABC):  529.17722   529.17722   529.17722    90.00000    90.00000    90.00000  Step:        2500  Bead:       0 forces{eV/ang}  cell{angstrom}
       O  2.89379e-02  4.91355e-01 -1.38437e+00
       H -6.93979e-01 -1.38230e-01  3.96927e-01
       H  3.62230e-01 -4.43397e-01  9.13493e-01
       O -1.39770e+00  2.39211e-01 -8.41654e-01
       H  3.75559e-01  3.99183e-02 -2.75254e-03
       H  9.22998e-01  4.79723e-01 -4.74325e-01
       H  4.01950e-01 -6.68581e-01  1.39268e+00
7
# CELL(abcABC):  529.17722   529.17722   529.17722    90.00000    90.00000    90.00000  Step:        2520  Bead:       0 forces{eV/ang}  cell{angstrom}
       O  1.63975e+00  7.44949e-01 -6.45502e-01
       H -3.37832e-01  3.45397e-01 -7.97329e-02
       H -7.36546e-01 -5.81310e-01  1.09742e+00
       O -1.07286e+00  2.62689e-01 -1.93149e+00
       H -3.54037e-01 -5.45518e-01 -2.51192e-01
       H  6.59191e-01  3.27275e-01 -3.28072e-01
       H  2.02333e-01 -5.53482e-01  2.13857e+00
7
# CELL(abcABC):  529.17722   529.17722   529.17722    90.00000    90.00000    90.00000  Step:        2540  Bead:       0 forces{eV/ang}  cell{angstrom}
       O  7.27321e-01  3.86623e-01 -2.00035e+00
       H -3.48485e-01  1.25695e-01  5.29633e-01
       H -1.50368e-01 -5.38600e-01  1.50199e+00
       O -7.03971e-02 -4.63722e-02 -2.12659e+00
       H  1.84343e-01  3.67382e-01  3.04961e-01
       H  9.14545e-02  1.03631e-01 -1.75814e-01
       H -4.33869e-01 -3.98359e-01  1.96617e+00
7
# CELL(abcABC):  529.17722   529.17722   529.17722    90.00000    90.00000    90.00000  Step:        2560  Bead:       0 forces{eV/ang}  cell{angstrom}
       O -4.31705e-02  1.44626e-01 -3.45465e-01
       H  6.29075e-01 -4.25798e-02 -5.79385e-01
       H -7.38996e-01 -2.26035e-01  9.68301e-01
       O  2.17188e+00  8.09599e-01 -1.24819e+00
       H -5.00151e-02  2.01005e-01 -2.02152e-01
       H -1.11591e+00 -3.30699e-01 -7.13453e-02
       H -8.52866e-01 -5.55917e-01  1.47824e+00
7
# CELL(abcABC):  529.17722   529.17722   529.17722    90.00000    90.00000    90.00000  Step:        2580  Bead:       0 forces{eV/ang}  cell{angstrom}
       O -1.59233e+00 -1.18840e-01 -1.38165e+00
       H  1.11257e+00  5.37851e-02  2.71388e-01
       H  1.07374e-01  6.77870e-02  1.01032e+00
       O  2.76821e+00  9.08310e-01 -7.00918e-01
       H  3.48095e-03 -2.30027e-01  1.88172e-01
       H -1.90745e+00 -3.41455e-01  1.62875e-02
       H -4.91859e-01 -3.39560e-01  5.96405e-01
7
# CELL(abcABC):  529.17722   529.17722   529.17722    90.00000    90.00000    90.00000  Step:        2600  Bead:       0 forces{eV/ang}  cell{angstrom}
       O -9.29112e-01  1.25440e-01  5.40163e-01
       H  1.33924e+00  4.54643e-03 -5.98400e-01
       H -5.88982e-01 -1.52328e-01  4.19498e-02
       O  1.05753e+00 -4.59307e-02  7.84582e-01
       H  9.25217e-02 -3.36943e-02 -4.60358e-01
       H -1.23014e+00 -1.47724e-01  1.46293e-01
       H  2.58950e-01  2.49690e-01 -4.54229e-01
7
# CELL(abcABC):  529.17722   529.17722   529.17722    90.00000    90.00000    90.00000  Step:        2620  Bead:       0 forces{eV/ang}  cell{angstrom}
       O -1.08198e+00 -2.54186e-01 -1.17272e-01
       H  6.64055e-01  2.80234e-01  5.39570e-01
       H  7.26872e-01 -2.05455e-01 -8.20025e-01
       O -3.04165e-02 -8.88030e-01  3.13830e+00
       H -2.46075e-01  4.53283e-01  4.08807e-01
       H -2.56338e-01 -3.62588e-02 -2.08697e-01
       H  2.23883e-01  6.50413e-01 -2.94068e+00
7
# CELL(abcABC):  529.17722   529.17722   529.17722    90.00000    90.00000    90.00000  Step:        2640  Bead:       0 forces{eV/ang}  cell{angstrom}
       O  1.62473e-01  7.01451e-01  1.47982e+00
       H -7.32384e-01 -3.56847e-01 -5.04344e-01
       H  3.69763e-01 -3.68044e-01 -1.33806e+00
       O -9.89699e-01 -1.54482e-01  3.81017e+00
       H  2.96173e-01 -3.55313e-01  7.29194e-02
       H  5.00037e-01 -4.31954e-01 -9.28414e-02
       H  3.93638e-01  9.65189e-01 -3.42767e+00
7
# CELL(abcABC):  529.17722   529.17722   529.17722    90.00000    90.00000    90.00000  Step:        2660  Bead:       0 forces{eV/ang}  cell{angstrom}
       O  9.23097e-01  3.68075e-01 -1.64241e-01
       H -2.05655e+00 -7.41767e-01  2.68553e-01
       H  8.87253e-01  1.88023e-01 -4.14953e-01
       O -8.50415e-01 -7.42022e-01  2.30295e+00
       H -1.01093e-01 -1.97909e-02  5.09790e-01
       H  1.14199e+00  2.34494e-01 -2.21856e-01
       H  5.57175e-02  7.12988e-01 -2.28024e+00
7
# CELL(abcABC):  529.17722   529.17722   529.17722    90.00000    90.00000    90.00000  Step:        2680  Bead:       0 forces{eV/ang}  cell{angstrom}
       O  1.88361e+00  9.39052e-01  1.08830e-01
       H -1.79424e+00 -1.15706e+00 -4.58721e-01
       H -2.99036e-01 -3.06961e-02  5.05444e-01
       O -6.80613e-01 -8.04259e-01  3.59937e-01
       H -1.39546e-01  3.67039e-01 -3.02391e-01
       H  9.43818e-01  4.22262e-01  1.70199e-01
       H  8.59971e-02  2.63661e-01 -3.83298e-01
7
# CELL(abcABC):  529.17722   529.17722   529.17722    90.00000    90.00000    90.00000  Step:        2700  Bead:       0 forces{eV/ang}  cell{angstrom}
       O  7.93780e-01  6.12945e-01 -8.33636e-01
       H -8.08332e-01 -3.72617e-01  2.29615e-01
       H -9.52538e-03  4.54841e-02  9.18480e-01
       O  2.15670e-01  1.73915e+00 -1.86032e+00
       H  2.10008e-01 -4.17902e-01  1.37300e-01
       H -5.19900e-01 -2.32102e-01  1.40442e-01
       H  1.18299e-01 -1.37496e+00  1.26812e+00
7
# CELL(abcABC):  529.17722   529.17722   529.17722    90.00000    90.00000    90.00000  Step:        2720  Bead:       0 forces{eV/ang}  cell{angstrom}
       O  2.54773e-01  2.49529e-01 -8.38173e-01
       H  4.87896e-01  2.37965e-01  4.16914e-02
       H -1.42972e-01 -1.39593e-01  1.22287e+00
       O -1.68669e+00  1.58766e+00 -2.18080e+00
       H -1.42211e-01  3.38772e-01 -2.39657e-01
       H -5.19024e-01 -9.00625e-01  2.52126e-01
       H  1.74823e+00 -1.37371e+00  1.74195e+00
7
# CELL(abcABC):  529.17722   529.17722   529.17722    90.00000    90.00000    90.00000  Step:        2740  Bead:       0 forces{eV/ang}  cell{angstrom}
       O -1.64464e+00  4.28060e-01 -3.99667e-01
       H  2.42633e+00 -3.87316e-02 -6.82278e-01
       H -3.96246e-01 -1.35651e-01  1.03737e+00
       O -1.02710e+00  2.76756e+00 -1.67971e+00
       H  1.24666e-01 -3.95488e-01  2.27592e-01
       H -7.96824e-01 -7.46699e-01  9.26379e-02
       H  1.31382e+00 -1.87906e+00  1.40405e+00
7
# CELL(abcABC):  529.17722   529.17722   529.17722    90.00000    90.00000    90.00000  Step:        2760  Bead:       0 forces{eV/ang}  cell{angstrom}
       O -2.43029e+00 -2.72337e-01 -2.78659e-01
       H  2.03216e+00  6.54129e-02 -4.11408e-01
       H  4.64786e-02 -8.58864e-04  6.66036e-01
       O -2.15682e+00  3.59357e-01 -1.73665e+00
       H  3.24408e-01 -2.64214e-02 -1.77617e-01
       H  4.13603e-01  1.17302e-01  3.76416e-01
       H  1.77046e+00 -2.42454e-01  1.56189e+00
7
# CELL(abcABC):  529.17722   529.17722   529.17722    90.00000    90.00000    90.00000  Step:        2780  Bead:       0 forces{eV/ang}  cell{angstrom}
       O -1.96779e-01 -1.16343e-01 -5.62730e-01
       H  6.62210e-01  2.41237e-01 -5.46100e-02
       H -1.84954e-01 -1.82652e-01  3.78607e-01
       O  2.45143e-01  1.06048e-01  1.84245e-01
       H -7.46770e-01 -5.78992e-02 -1.36630e-01
       H -3.63834e-01  5.40714e-01 -5.86949e-01
       H  5.84983e-01 -5.31105e-01  7.78067e-01
7
# CELL(abcABC):  529.17722   529.17722   529.17722    90.00000    90.00000    90.00000  Step:        2800  Bead:       0 forces{eV/ang}  cell{angstrom}
       O -5.17359e-02 -2.30726e-01 -2.34966e-01
       H -4.80014e-01 -2.71783e-01 -2.17653e-01
       H  1.25783e-02  9.30080e-02  2.97896e-02
       O  9.11458e-01 -1.85598e+00  6.42919e-01
       H  4.52242e-01  7.54110e-02  2.43067e-01
       H -7.32490e-02  1.54883e+00  3.06298e-01
       H -7.71280e-01  6.41233e-01 -7.69454e-01
7
# CELL(abcABC):  529.17722   529.17722   529.17722    90.00000    90.00000    90.00000  Step:        2820  Bead:       0 forces{eV/ang}  cell{angstrom}
       O  9.96643e-01  4.38858e-01 -2.59560e-01
       H -1.24748e+00 -6.75363e-01  9.87994e-02
       H  1.51026e-01  8.63988e-02  4.12785e-02
       O  2.49223e+00 -6.35869e-01  2.07098e+00
       H -1.54249e-01  1.72112e-01 -1.18287e-04
       H -5.22322e-01  2.81301e-01 -3.32434e-01
       H -1.71585e+00  3.32561e-01 -1.61894e+00
7
# CELL(abcABC):  529.17722   529.17722   529.17722    90.00000    90.00000    90.00000  Step:        2840  Bead:       0 forces{eV/ang}  cell{angstrom}
       O  1.50789e+00  1.35587e+00  1.61538e+00
       H -1.13322e+00 -6.45919e-01 -9.68311e-03
       H  3.45969e-02  4.98183e-02 -1.01027e+00
       O  1.09166e+00 -1.06395e+00  1.25252e-01
       H -3.27256e-01 -3.34037e-01 -2.14943e-01
       H  3.83827e-01 -1.04739e-01  1.77670e-01
       H -1.55750e+00  7.42956e-01 -6.83413e-01
7
# CELL(abcABC):  529.17722   529.17722   529.17722    90.00000    90.00000    90.00000  Step:        2860  Bead:       0 forces{eV/ang}  cell{angstrom}
       O  5.13365e-01  2.36691e-01  5.98440e-01
       H -4.90030e-01 -3.85446e-01  9.17642e-02
       H  8.33640e-02  2.41021e-01 -5.96888e-01
       O -8.37695e-01  7.91981e-01  1.17529e+00
       H  1.05517e-01 -1.34987e-01  3.42676e-02
       H  5.36061e-01 -4.09693e-01 -9.39569e-01
       H  8.94186e-02 -3.39567e-01 -3.63308e-01
7
# CELL(abcABC):  529.17722   529.17722   529.17722    90.00000    90.00000    90.00000  Step:        2880  Bead:       0 forces{eV/ang}  cell{angstrom}
       O -5.82335e-02 -9.28610e-01  4.46806e-01
       H  4.10053e-02 -5.54463e-02 -7.73027e-02
       H  1.68122e-02  4.51921e-01 -6.01051e-01
       O -1.94759e+00  1.48789e+00  7.14060e-01
       H -9.60615e-02  2.43362e-01  5.86188e-02
       H  1.52899e+00 -5.05895e-01 -1.35218e+00
       H  5.15077e-01 -6.93222e-01  8.11048e-01
7
# CELL(abcABC):  529.17722   529.17722   529.17722    90.00000    90.00000    90.00000  Step:        2900  Bead:       0 forces{eV/ang}  cell{angstrom}
       O  4.54077e-01  1.26284e-01 -4.36762e-01
       H -4.46343e-01 -4.41015e-01 -1.70025e-01
       H -5.26572e-02 -1.35663e-01  2.67425e-01
       O -9.59020e-01  1.05240e+00  1.77985e+00
       H -1.37912e-01 -9.56017e-02  1.48317e-01
       H  1.50218e-01 -3.31533e-02 -1.16086e+00
       H  9.91637e-01 -4.73254e-01 -4.27946e-01
7
# CELL(abcABC):  529.17722   529.17722   529.17722    90.00000    90.00000    90.00000  Step:        2920  Bead:       0 forces{eV/ang}  cell{angstrom}
       O -9.66073e-03  3.45510e-01 -1.36656e+00
       H -2.31843e-01 -2.56868e-01  1.66430e-01
       H  1.89560e-01 -2.88350e-01  1.01325e+00
       O -1.48547e+00 -7.57401e-01 -1.01411e+00
       H  1.44213e-01  4.96887e-01  1.97188e-01
       H  5.12638e-01  2.38914e-01  3.16704e-01
       H  8.80561e-01  2.21308e-01  6.87103e-01
7
# CELL(abcABC):  529.17722   529.17722   529.17722    90.00000    90.00000    90.00000  Step:        2940  Bead:       0 forces{eV/ang}  cell{angstrom}
       O -2.51920e-01  1.36852e+00 -8.20616e-01
       H  1.11815e-01  1.31914e-01  2.14678e-01
       H  3.42685e-01 -4.68858e-01  1.27696e+00
       O  8.11551e-02 -1.77705e-01 -1.34896e+00
       H -9.55541e-03 -8.90968e-01 -5.51493e-01
       H -1.32590e+00 -3.03042e-01  1.63128e+00
       H  1.05173e+00  3.40139e-01 -4.01847e-01
7
# CELL(abcABC):  529.17722   529.17722   529.17722    90.00000    90.00000    90.00000  Step:        2960  Bead:       0 forces{eV/ang}  cell{angstrom}
       O -4.71319e-01 -8.92642e-01  2.94417e-01
       H  7.46619e-01  9.85703e-01 -5.81547e-01
       H -9.85348e-02 -1.38128e-01  6.24192e-01
       O  1.77809e+00 -5.66985e-01 -2.95321e+00
       H -1.56456e-01  8.39206e-01  2.58146e-01
       H -1.48791e+00 -1.49492e-01  2.32728e+00
       H -3.10484e-01 -7.76622e-02  3.07212e-02
7
# CELL(abcABC):  529.17722   529.17722   529.17722    90.00000    90.00000    90.00000  Step:        2980  Bead:       0 forces{eV/ang}  cell{angstrom}
       O -9.78965e-01 -2.56293e-01  4.04693e-01
       H  8.44627e-01  9.58091e-01 -2.87414e-01
       H  1.80766e-01 -6.77389e-02  2.70832e-01
       O  2.19345e+00  1.49593e+00 -1.30556e+00
       H  1.54354e-02 -6.36768e-01 -2.95826e-01
       H -8.35887e-01 -2.18511e-01  1.34177e+00
       H -1.41943e+00 -1.27471e+00 -1.28489e-01
7
# CELL(abcABC):  529.17722   529.17722   529.17722    90.00000    90.00000    90.00000  Step:        3000  Bead:       0 forces{eV/ang}  cell{angstrom}
       O -5.49245e-01 -8.11243e-01  3.64638e-01
       H  2.94919e-01  3.72723e-01 -2.48356e-01
       H -9.53720e-02  1.42328e-01 -2.83229e-01
       O  4.03809e-01  5.08963e-01  3.81379e-01
       H  6.25780e-01  2.39229e-01 -1.46237e-01
       H  2.07114e-01  3.61455e-01 -3.93235e-01
       H -8.87004e-01 -8.13456e-01  3.25039e-01
7
# CELL(abcABC):  529.17722   529.17722   529.17722    90.00000    90.00000    90.00000  Step:        3020  Bead:       0 forces{eV/ang}  cell{angstrom}
       O  8.73482e-01 -4.75409e-01 -3.48092e-03
       H -2.43043e-01 -3.52987e-01  1.68580e-01
       H -3.33155e-01  4.66194e-01 -5.08915e-01
       O  2.08679e-01 -1.63785e-01  3.71614e+00
       H -5.96092e-01  5.01330e-02  3.51630e-01
       H -5.55387e-02  2.30437e-01 -3.64558e+00
       H  1.45667e-01  2.45419e-01 -7.83749e-02
7
# CELL(abcABC):  529.17722   529.17722   529.17722    90.00000    90.00000    90.00000  Step:        3040  Bead:       0 forces{eV/ang}  cell{angstrom}
       O  8.15387e-01  1.07207e+00  6.85610e-01
       H -4.20093e-01 -1.22112e+00  1.95777e-01
       H -5.20495e-01  1.79757e-01 -9.36859e-01
       O -3.73381e-03 -5.76375e-01  5.01959e+00
       H  5.19356e-01  1.59098e-02  8.66529e-02
       H -9.25149e-01  5.89060e-01 -4.74110e+00
       H  5.34728e-01 -5.93029e-02 -3.09673e-01
7
# CELL(abcABC):  529.17722   529.17722   529.17722    90.00000    90.00000    90.00000  Step:        3060  Bead:       0 forces{eV/ang}  cell{angstrom}
       O  1.42472e-01  1.10077e+00 -2.05346e-02
       H  2.15971e-01 -1.21614e+00  6.71400e-01
       H -2.17083e-01  3.74943e-01 -4.69701e-01
       O -1.94206e-01 -1.50406e+00  2.05786e+00
       H -2.82078e-01  7.80492e-02  2.82798e-01
       H -4.28369e-01  4.12916e-01 -2.36723e+00
       H  7.63294e-01  7.53520e-01 -1.54591e-01
7
# CELL(abcABC):  529.17722   529.17722   529.17722    90.00000    90.00000    90.00000  Step:        3080  Bead:       0 forces{eV/ang}  cell{angstrom}
       O -3.09468e-01  2.16544e+00  2.59403e-01
       H  4.55017e-01 -1.54287e+00  5.50985e-01
       H -2.11591e-01 -2.54923e-01 -4.42361e-01
       O -1.35072e-01 -4.48385e-01 -1.98425e-01
       H -3.29090e-02 -1.77981e-01 -2.29850e-01
       H  2.97114e-02 -2.37629e-01  3.39661e-01
       H  2.04312e-01  4.96341e-01 -2.79412e-01
7
# CELL(abcABC):  529.17722   529.17722   529.17722    90.00000    90.00000    90.00000  Step:        3100  Bead:       0 forces{eV/ang}  cell{angstrom}
       O -8.01226e-01  7.50498e-01 -4.56001e-01
       H  7.40645e-01 -8.80550e-01  7.61539e-01
       H -2.43806e-01 -6.99579e-02 -3.96158e-01
       O -4.98581e-01  7.17870e-01 -2.07577e+00
       H  4.38745e-01  3.32847e-02 -1.33889e-01
       H  5.10289e-01 -3.56432e-01  2.21330e+00
       H -1.46067e-01 -1.94713e-01  8.69748e-02
7
# CELL(abcABC):  529.17722   529.17722   529.17722    90.00000    90.00000    90.00000  Step:        3120  Bead:       0 forces{eV/ang}  cell{angstrom}
       O  4.28748e-01  5.31676e-01 -5.10198e-01
       H  1.31372e-01 -7.42634e-01  1.58963e-01
       H -1.75777e-01 -2.17290e-01  1.01200e-01
       O -2.48934e-01  1.30566e+00 -2.87512e+00
       H -5.19916e-01 -1.88125e-01  1.72758e-01
       H  6.18460e-01 -4.92835e-01  2.81375e+00
       H -2.33953e-01 -1.96450e-01  1.38653e-01
7
# CELL(abcABC):  529.17722   529.17722   529.17722    90.00000    90.00000    90.00000  Step:        3140  Bead:       0 forces{eV/ang}  cell{angstrom}
       O -8.35432e-01 -7.93590e-01 -7.52017e-01
       H  4.47653e-01  7.74557e-03  3.16977e-01
       H  3.73836e-01  5.02321e-01  7.50733e-02
       O -7.84366e-01  4.63156e-01 -2.70364e+00
       H  1.48972e-01 -4.82576e-02  1.18151e-01
       H  7.95957e-01  3.87054e-01  2.53304e+00
       H -1.46620e-01 -5.18428e-01  4.12421e-01
7
# CELL(abcABC):  529.17722   529.17722   529.17722    90.00000    90.00000    90.00000  Step:        3160  Bead:       0 forces{eV/ang}  cell{angstrom}
       O -5.32292e-01  2.36385e-01  3.74619e-01
       H -3.69673e-01 -7.10609e-02 -1.44893e-01
       H  8.26661e-01  2.91920e-01  1.65034e-01
       O -2.99276e-01  9.72933e-03 -1.15923e+00
       H  1.32831e-01 -2.20504e-01 -6.48685e-01
       H  3.00853e-01  4.64036e-01  1.22626e+00
       H -5.91037e-02 -7.10505e-01  1.86891e-01
7
# CELL(abcABC):  529.17722   529.17722   529.17722    90.00000    90.00000    90.00000  Step:        3180  Bead:       0 forces{eV/ang}  cell{angstrom}
       O  3.81763e-01 -1.11083e+00 -2.75606e-01
       H -7.65902e-01  7.65019e-01 -3.10724e-02
       H  4.79635e-01  9.91521e-01  2.55848e-01
       O  5.71614e-01 -5.82670e-01  6.83206e-02
       H -4.43778e-01  1.21536e-01  9.57694e-01
       H -2.09926e-01 -3.67814e-01 -8.57559e-01
       H -1.34070e-02  1.83237e-01 -1.17625e-01
7
# CELL(abcABC):  529.17722   529.17722   529.17722    90.00000    90.00000    90.00000  Step:        3200  Bead:       0 forces{eV/ang}  cell{angstrom}
       O -4.41465e-01 -5.73381e-02  6.25415e-01
       H -1.12983e+00  1.74891e-01  9.50875e-02
       H  1.05581e+00  5.21095e-01 -1.78952e-01
       O  3.13761e-01 -5.65506e-01  3.66986e+00
       H  6.22132e-01 -2.54694e-02 -5.63297e-01
       H -8.42423e-01 -7.92789e-01 -2.78788e+00
       H  4.22018e-01  7.45116e-01 -8.60230e-01
7
# CELL(abcABC):  529.17722   529.17722   529.17722    90.00000    90.00000    90.00000  Step:        3220  Bead:       0 forces{eV/ang}  cell{angstrom}
       O  8.75849e-01 -1.46103e+00 -3.82533e-01
       H -7.98902e-01  5.78545e-01  1.36956e-01
       H  1.55559e-01  9.58409e-01  1.50177e-01
       O  1.12466e+00  1.27054e-01  3.35934e+00
       H -2.81831e-01 -5.96936e-02  1.68228e-01
       H -9.29594e-01 -8.74172e-01 -2.74165e+00
       H -1.45742e-01  7.30886e-01 -6.90514e-01
7
# CELL(abcABC):  529.17722   529.17722   529.17722    90.00000    90.00000    90.00000  Step:        3240  Bead:       0 forces{eV/ang}  cell{angstrom}
       O  4.83086e-01  3.09598e-01 -4.90382e-02
       H -8.16953e-01 -2.80075e-01  1.01417e-01
       H  2.97365e-01 -6.49694e-01 -1.80562e-01
       O -2.46091e-01  4.87595e-01 -4.31925e-01
       H  3.03648e-01  1.48364e-01 -1.00528e-01
       H -1.68253e-01  3.27592e-01 -7.99088e-02
       H  1.47197e-01 -3.43380e-01  7.40545e-01
7
# CELL(abcABC):  529.17722   529.17722   529.17722    90.00000    90.00000    90.00000  Step:        3260  Bead:       0 forces{eV/ang}  cell{angstrom}
       O  1.61084e+00 -1.66773e-01 -4.96278e-01
       H -3.02825e-01  5.82096e-01 -7.34529e-03
       H -1.08700e+00 -1.11240e+00  2.66980e-01
       O -9.13947e-01  1.34762e+00 -1.06293e+00
       H -1.99108e-02  7.96740e-02 -6.42755e-02
       H  5.71641e-01  1.04604e-01  8.81753e-01
       H  1.41204e-01 -8.34826e-01  4.82095e-01
7
# CELL(abcABC):  529.17722   529.17722   529.17722    90.00000    90.00000    90.00000  Step:        3280  Bead:       0 forces{eV/ang}  cell{angstrom}
       O  3.59183e-01  1.66782e+00 -3.49374e-01
       H -1.02240e-02 -4.45768e-01  8.55468e-03
       H -5.06392e-02 -1.47339e+00  3.33394e-01
       O -1.55048e+00  1.13042e-01 -1.50242e+00
       H -1.72316e-01 -3.08282e-01 -2.44069e-01
       H  1.07259e+00  9.53176e-01  9.69874e-01
       H  3.51895e-01 -5.06598e-01  7.84041e-01
7
# CELL(abcABC):  529.17722   529.17722   529.17722    90.00000    90.00000    90.00000  Step:        3300  Bead:       0 forces{eV/ang}  cell{angstrom}
       O  9.31736e-02 -1.93448e-01 -5.44819e-01
       H  4.74170e-01  4.17386e-01 -6.13003e-02
       H -5.07526e-01 -5.21766e-01  3.60330e-01
       O -1.42366e+00 -5.84703e-02 -1.42295e+00
       H  1.23702e-01 -1.34692e-02  7.36128e-02
       H  1.30009e+00  7.42450e-01  1.85588e+00
       H -5.99567e-02 -3.72683e-01 -2.60749e-01
7
# CELL(abcABC):  529.17722   529.17722   529.17722    90.00000    90.00000    90.00000  Step:        3320  Bead:       0 forces{eV/ang}  cell{angstrom}
       O -1.79226e+00  1.01144e-01 -3.24536e-01
       H  1.57436e+00 -2.57531e-01  2.50385e-01
       H  3.56610e-01  2.51066e-01 -2.25349e-02
       O  2.58760e-01 -1.73168e+00  1.81862e-01
       H -4.77193e-01  2.96177e-02  7.01005e-02
       H  3.40939e-01  7.77567e-01  9.87449e-01
       H -2.61215e-01  8.29816e-01 -1.14272e+00
7
# CELL(abcABC):  529.17722   529.17722   529.17722    90.00000    90.00000    90.00000  Step:        3340  Bead:       0 forces{eV/ang}  cell{angstrom}
       O -1.95768e+00 -3.70054e-01  7.44346e-01
       H  1.31025e+00  3.79986e-01 -7.14829e-02
       H  1.15750e-01  4.02867e-01 -3.29356e-01
       O  2.49499e-01 -1.16211e+00  8.84168e-01
       H  4.98126e-01 -2.52471e-01 -3.73000e-01
       H  1.56501e-01  1.24275e-01  3.03805e-01
       H -3.72444e-01  8.77503e-01 -1.15848e+00
7
# CELL(abcABC):  529.17722   529.17722   529.17722    90.00000    90.00000    90.00000  Step:        3360  Bead:       0 forces{eV/ang}  cell{angstrom}
       O -1.15334e+00  4.03214e-02  1.97140e-01
       H  1.00446e+00 -4.79730e-01 -7.24450e-02
       H  3.61583e-01  3.95568e-01 -1.82575e-01
       O  1.05930e+00 -3.07340e-01  1.38422e+00
       H -3.28692e-01  9.88119e-02  2.35468e-01
       H -3.41779e-01 -5.70449e-01 -6.19842e-01
       H -6.01535e-01  8.22818e-01 -9.41970e-01
7
# CELL(abcABC):  529.17722   529.17722   529.17722    90.00000    90.00000    90.00000  Step:        3380  Bead:       0 forces{eV/ang}  cell{angstrom}
       O  4.41559e-01 -1.01674e+00  1.42184e-01
       H -3.45619e-01  7.86398e-02 -1.38132e-03
       H  6.51271e-02  1.34933e-01 -1.49273e-01
       O  1.68216e-01  1.13886e+00  1.34550e+00
       H  4.51339e-01  2.40841e-01 -2.40581e-01
       H -4.14122e-01 -8.14746e-01 -6.30853e-01
       H -3.66500e-01  2.38213e-01 -4.65592e-01
7
# CELL(abcABC):  529.17722   529.17722   529.17722    90.00000    90.00000    90.00000  Step:        3400  Bead:       0 forces{eV/ang}  cell{angstrom}
       O  3.12976e+00  3.13125e-01 -3.51281e-01
       H -2.88699e+00  1.04818e-01  3.32740e-01
       H -3.72906e-02 -2.74494e-04  1.88451e-02
       O -8.04888e-01  1.03408e+00 -6.37515e-01
       H  9.33043e-02 -7.84955e-01 -6.31282e-02
       H  1.41332e-02 -1.93969e-01 -8.22855e-02
       H  4.91971e-01 -4.72827e-01  7.82624e-01
7
# CELL(abcABC):  529.17722   529.17722   529.17722    90.00000    90.00000    90.00000  Step:        3420  Bead:       0 forces{eV/ang}  cell{angstrom}
       O  3.02595e+00  8.61508e-01 -7.35086e-01
       H -3.05198e+00  9.70662e-02  4.05091e-01
       H -2.00061e-01 -8.50984e-01  3.49957e-01
       O -1.81769e-01 -1.33532e+00 -7.15225e-01
       H -1.17617e-01  6.95884e-01  2.77001e-01
       H  3.91326e-01  4.70030e-01  1.32134e-01
       H  1.34151e-01  6.18113e-02  2.86129e-01
7
# CELL(abcABC):  529.17722   529.17722   529.17722    90.00000    90.00000    90.00000  Step:        3440  Bead:       0 forces{eV/ang}  cell{angstrom}
       O  6.63126e-01  1.05870e+00 -1.41548e-01
       H -1.25733e+00 -2.83278e-01  1.84832e-01
       H  3.38715e-01 -4.87959e-01  1.01340e-01
       O -5.48285e-01 -2.11983e-01 -3.89497e-01
       H  3.71154e-02 -3.44723e-01 -2.66550e-01
       H  7.38006e-01  7.69896e-01  5.23622e-01
       H  2.86502e-02 -5.00651e-01 -1.21996e-02
7
# CELL(abcABC):  529.17722   529.17722   529.17722    90.00000    90.00000    90.00000  Step:        3460  Bead:       0 forces{eV/ang}  cell{angstrom}
       O  2.50301e-01 -6.02730e-01 -5.94397e-02
       H -1.47572e-01  3.20030e-01 -7.41903e-02
       H -1.33561e-01  4.01420e-01 -2.73144e-01
       O -9.79749e-01 -1.43006e+00 -6.29024e-01
       H  4.80724e-02 -2.93527e-01  8.00756e-01
       H  8.12657e-01  1.38769e+00  8.78707e-02
       H  1.49851e-01  2.17172e-01  1.47171e-01
7
# CELL(abcABC):  529.17722   529.17722   529.17722    90.00000    90.00000    90.00000  Step:        3480  Bead:       0 forces{eV/ang}  cell{angstrom}
       O -1.70787e+00 -8.08844e-01  5.24656e-01
       H  1.22685e+00  9.19267e-02  2.01426e-01
       H  4.96800e-01  4.10335e-01 -4.86942e-01
       O -8.31350e-01 -8.97450e-01 -4.92175e-01
       H -2.72170e-01  1.18718e-01 -6.44802e-01
       H  6.06705e-01  1.46267e+00  4.12258e-01
       H  4.81034e-01 -3.77354e-01  4.85579e-01
7
# CELL(abcABC):  529.17722   529.17722   529.17722    90.00000    90.00000    90.00000  Step:        3500  Bead:       0 forces{eV/ang}  cell{angstrom}
       O -1.62879e+00 -8.23999e-01  2.96684e-01
       H  1.93226e+00  6.02494e-02 -5.60100e-02
       H -3.18017e-02  4.30363e-01 -3.53390e-01
       O -1.32908e+00 -7.28514e-01 -9.89953e-01
       H -6.75435e-02  1.54642e-01  1.74108e-01
       H  6.12847e-01  9.41310e-01  1.85309e-01
       H  5.12112e-01 -3.40513e-02  7.43252e-01
7
# CELL(abcABC):  529.17722   529.17722   529.17722    90.00000    90.00000    90.00000  Step:        3520  Bead:       0 forces{eV/ang}  cell{angstrom}
       O -1.56803e+00  1.09347e-01  3.46255e-01
       H  1.63339e+00 -2.50868e-01 -1.02215e-01
       H  2.11404e-03  1.34976e-01 -1.78678e-01
       O -5.97723e-01  3.07069e-01 -1.63755e-01
       H  2.98771e-01 -1.61796e-01 -9.85965e-02
       H  1.87992e-01 -1.04017e-01  5.18475e-02
       H  4.34824e-02 -3.47105e-02  1.45141e-01
7
# CELL(abcABC):  529.17722   529.17722   529.17722    90.00000    90.00000    90.00000  Step:        3540  Bead:       0 forces{eV/ang}  cell{angstrom}
       O -4.67128e-01  3.07664e-01 -2.88023e-01
       H  8.81495e-01 -2.16786e-01 -6.61350e-02
       H -2.99325e-01 -3.28283e-01  4.35608e-01
       O  9.54234e-01 -4.62117e-01  6.82548e-01
       H -8.87032e-02  2.95773e-01 -5.14291e-02
       H -4.42348e-01 -1.12065e-01 -2.46099e-01
       H -5.38224e-01  5.15813e-01 -4.66469e-01
7
# CELL(abcABC):  529.17722   529.17722   529.17722    90.00000    90.00000    90.00000  Step:        3560  Bead:       0 forces{eV/ang}  cell{angstrom}
       O -1.60234e-01 -4.67823e-03 -1.97236e-02
       H  2.42290e-01 -1.45220e-01 -3.33404e-02
       H -6.76030e-02  2.45072e-02 -3.05057e-02
       O  7.28243e-01  1.00198e+00  3.53496e-01
       H  1.15059e-01  2.44680e-01  2.10658e-01
       H -5.72711e-04 -7.19976e-01  1.59847e-01
       H -8.57183e-01 -4.01297e-01 -6.40432e-01
7
# CELL(abcABC):  529.17722   529.17722   529.17722    90.00000    90.00000    90.00000  Step:        3580  Bead:       0 forces{eV/ang}  cell{angstrom}
       O  1.24146e+00  1.00584e-01 -1.10218e-01
       H -1.07191e+00  6.14967e-02  1.48529e-01
       H -7.50748e-02 -5.78616e-02 -1.05032e-02
       O  1.10547e+00  8.85219e-02  9.18340e-01
       H -2.68735e-01 -2.72856e-01 -1.33771e-01
       H -7.25186e-01 -3.59781e-01 -4.96147e-01
       H -2.06026e-01  4.39896e-01 -3.16231e-01
7
# CELL(abcABC):  529.17722   529.17722   529.17722    90.00000    90.00000    90.00000  Step:        3600  Bead:       0 forces{eV/ang}  cell{angstrom}
       O  3.22617e-01 -8.24217e-01  4.62579e-01
       H -3.95572e-01  5.00432e-02 -8.37123e-03
       H  1.67419e-01  2.83741e-01 -4.21642e-01
       O -4.58340e-01  1.14254e+00 -5.85387e-01
       H  3.13564e-01  1.46292e-02  1.46553e-01
       H  4.58922e-02 -2.66892e-01  2.49745e-01
       H  4.41914e-03 -3.99842e-01  1.56522e-01
7
# CELL(abcABC):  529.17722   529.17722   529.17722    90.00000    90.00000    90.00000  Step:        3620  Bead:       0 forces{eV/ang}  cell{angstrom}
       O  3.26216e-02  1.57456e-01 -2.50016e-01
       H -2.26834e-01 -3.74320e-01  3.17695e-01
       H  4.26640e-01 -1.01163e-01 -1.01893e-01
       O  1.28676e-01 -5.15354e-01 -4.95243e-01
       H -5.30731e-01  3.51470e-01 -2.55196e-02
       H -1.19061e-01  4.16362e-01 -1.07725e-01
       H  2.88688e-01  6.55499e-02  6.62702e-01
7
# CELL(abcABC):  529.17722   529.17722   529.17722    90.00000    90.00000    90.00000  Step:        3640  Bead:       0 forces{eV/ang}  cell{angstrom}
       O  2.24598e+00 -9.50748e-01 -3.28043e-01
       H -1.39809e+00  6.14044e-01 -1.36340e-01
       H -7.78139e-01 -2.05497e-01  5.68246e-01
       O -8.38121e-01 -2.77507e-03 -1.57631e-01
       H  3.01924e-01  6.41694e-02 -2.69371e-02
       H  2.25419e-01  4.29964e-01 -1.33587e-01
       H  2.41032e-01  5.08427e-02  2.14292e-01
7
# CELL(abcABC):  529.17722   529.17722   529.17722    90.00000    90.00000    90.00000  Step:        3660  Bead:       0 forces{eV/ang}  cell{angstrom}
       O  5.30310e-01  1.03811e+00 -1.15573e+00
       H -9.77807e-01 -1.38257e-01  5.94769e-01
       H  4.28038e-01 -5.21111e-01  6.54093e-01
       O -6.50166e-01  7.87086e-02 -2.39000e-01
       H  1.53895e-01 -7.66203e-01 -8.06112e-02
       H  1.73108e-01  2.27337e-01 -1.60290e-01
       H  3.42622e-01  8.14178e-02  3.86766e-01
7
# CELL(abcABC):  529.17722   529.17722   529.17722    90.00000    90.00000    90.00000  Step:        3680  Bead:       0 forces{eV/ang}  cell{angstrom}
       O  1.32094e+00 -8.83284e-01 -2.05590e-01
       H -7.69710e-01  3.84233e-01 -2.31613e-01
       H -4.75831e-01  2.08079e-01  3.73731e-01
       O  1.20323e-01 -5.45169e-01 -1.19906e-01
       H -2.49484e-01  9.26718e-01  1.05760e-01
       H  2.62839e-01 -9.62336e-02  2.77087e-01
       H -2.09076e-01  5.65632e-03 -1.99469e-01
7
# CELL(abcABC):  529.17722   529.17722   529.17722    90.00000    90.00000    90.00000  Step:        3700  Bead:       0 forces{eV/ang}  cell{angstrom}
       O -1.16244e+00  1.19999e-01 -7.04977e-01
       H  6.43849e-01 -1.40915e-01  5.11859e-01
       H  6.47401e-01 -1.31055e-01  2.93057e-01
       O -6.07424e-01 -1.83212e-01  6.31721e-01
       H  1.46836e-02 -3.24632e-01 -6.56103e-02
       H  4.48999e-01  4.53782e-01 -8.94145e-02
       H  1.49329e-02  2.06032e-01 -5.76635e-01
7
# CELL(abcABC):  529.17722   529.17722   529.17722    90.00000    90.00000    90.00000  Step:        3720  Bead:       0 forces{eV/ang}  cell{angstrom}
       O -3.81355e-02 -1.36668e+00  1.18863e+00
       H  5.60215e-01  9.36874e-02 -7.29479e-01
       H -4.38189e-01  4.31863e-01 -3.77944e-01
       O -7.52808e-01  6.54762e-01 -3.60931e-02
       H  3.06306e-01  1.33252e-01  2.90774e-03
       H  3.79152e-01  2.55008e-01  1.40818e-01
       H -1.65408e-02 -2.01894e-01 -1.88839e-01
7
# CELL(abcABC):  529.17722   529.17722   529.17722    90.00000    90.00000    90.00000  Step:        3740  Bead:       0 forces{eV/ang}  cell{angstrom}
       O -6.71243e-01  5.05604e-01  2.96346e-01
       H  3.40308e-01 -7.55504e-01  4.64898e-01
       H  5.82335e-01 -1.32797e-01 -7.35729e-01
       O -5.82298e-02 -6.41057e-01  1.76265e-01
       H -4.53131e-01  4.87649e-02 -3.04073e-02
       H  2.21895e-01  8.95564e-01 -1.24288e-01
       H  3.80658e-02  7.94253e-02 -4.70848e-02
7
# CELL(abcABC):  529.17722   529.17722   529.17722    90.00000    90.00000    90.00000  Step:        3760  Bead:       0 forces{eV/ang}  cell{angstrom}
       O -5.36894e-01 -7.88289e-01  1.38937e+00
       H  4.65673e-01 -5.66333e-02 -8.97403e-01
       H -2.34553e-01  4.32119e-01 -2.33155e-01
       O -7.17359e-01  2.48640e-01 -6.35609e-01
       H  9.07770e-01  3.82714e-01 -4.98110e-02
       H  3.76334e-01 -8.78338e-02  3.81874e-01
       H -2.60972e-01 -1.30717e-01  4.47310e-02
7
# CELL(abcABC):  529.17722   529.17722   529.17722    90.00000    90.00000    90.00000  Step:        3780  Bead:       0 forces{eV/ang}  cell{angstrom}
       O -1.77666e-01  1.72345e+00 -9.48673e-01
       H  6.68012e-02 -2.50568e-01  1.66634e-01
       H -1.50838e-03 -1.59507e-01  1.79040e-01
       O  1.47325e+00 -3.50699e-01  1.00642e+00
       H -3.18258e-01 -1.06008e+00  4.45604e-01
       H -9.27242e-01 -3.16664e-01 -3.91590e-01
       H -1.15378e-01  4.14074e-01 -4.57432e-01
7
# CELL(abcABC):  529.17722   529.17722   529.17722    90.00000    90.00000    90.00000  Step:        3800  Bead:       0 forces{eV/ang}  cell{angstrom}
       O  3.77487e-01  1.20066e-01 -1.10295e+00
       H  5.78117e-03  4.03342e-01  1.14881e-02
       H -4.21567e-01 -1.97094e-01  1.04911e+00
       O  8.04594e-01 -2.94742e-01  3.88068e-03
       H -1.71305e-01  8.12619e-01 -2.53168e-01
       H -1.64374e-01 -5.20288e-01  2.89819e-01
       H -4.30616e-01 -3.23903e-01  1.81642e-03
7
# CELL(abcABC):  529.17722   529.17722   529.17722    90.00000    90.00000    90.00000  Step:        3820  Bead:       0 forces{eV/ang}  cell{angstrom}
       O -2.35200e-01  1.04404e+00  1.74253e-01
       H -3.68798e-02 -4.48673e-01 -1.81895e-02
       H  9.30015e-02 -4.53478e-01 -6.57351e-02
       O -3.75854e-01  6.34173e-01 -6.53863e-01
       H  4.06313e-01 -2.94395e-01  4.88373e-02
       H -6.24758e-01 -3.17203e-01 -1.12550e-01
       H  7.73378e-01 -1.64465e-01  6.27248e-01
7
# CELL(abcABC):  529.17722   529.17722   529.17722    90.00000    90.00000    90.00000  Step:        3840  Bead:       0 forces{eV/ang}  cell{angstrom}
       O  2.67849e-01 -8.33680e-02  1.82803e+00
       H -1.74116e-01 -6.13699e-01 -1.21689e+00
       H  4.60709e-01  6.23682e-01 -6.41370e-01
       O -8.82597e-01  1.37871e+00 -1.53877e+00
       H -8.83995e-01 -3.92742e-01  8.18924e-02
       H  3.62827e-01  1.23234e-01  1.35982e-01
       H  8.49322e-01 -1.03581e+00  1.35112e+00
7
# CELL(abcABC):  529.17722   529.17722   529.17722    90.00000    90.00000    90.00000  Step:        3860  Bead:       0 forces{eV/ang}  cell{angstrom}
       O  6.83821e-01  3.35106e-01  2.54391e+00
       H -1.30477e+00 -1.39528e+00 -1.21123e+00
       H  2.54536e-01 -2.05040e-01 -1.04672e+00
       O -2.20319e+00  5.35785e-01 -1.49501e+00
       H  8.40029e-01  2.64587e-01  2.57865e-01
       H  1.37925e+00  4.13379e-01  3.23362e-01
       H  3.50314e-01  5.14675e-02  6.27820e-01
7
# CELL(abcABC):  529.17722   529.17722   529.17722    90.00000    90.00000    90.00000  Step:        3880  Bead:       0 forces{eV/ang}  cell{angstrom}
       O  4.98902e-01 -6.77804e-01  2.28363e+00
       H -7.84531e-01 -2.29109e-01 -1.75142e+00
       H  5.26894e-01  4.07200e-01 -2.60258e-01
       O -1.92890e-01 -4.00875e-01  7.99753e-01
       H -4.95019e-01 -8.40273e-02 -3.34931e-01
       H  1.15932e+00  7.91436e-01  3.35600e-01
       H -7.12672e-01  1.93179e-01 -1.07237e+00
7
# CELL(abcABC):  529.17722   529.17722   529.17722    90.00000    90.00000    90.00000  Step:        3900  Bead:       0 forces{eV/ang}  cell{angstrom}
       O  6.68322e-01  8.65685e-01 -1.15125e-02
       H -7.00475e-01 -4.86192e-01  2.26439e-02
       H -2.14123e-01  8.42209e-03 -3.86813e-01
       O -1.21672e-01 -1.85136e+00  1.72340e+00
       H  3.09826e-01 -1.01915e-01  3.25509e-01
       H  8.51382e-01  1.01466e+00 -7.87164e-02
       H -7.93260e-01  5.50700e-01 -1.59451e+00
7
# CELL(abcABC):  529.17722   529.17722   529.17722    90.00000    90.00000    90.00000  Step:        3920  Bead:       0 forces{eV/ang}  cell{angstrom}
       O -4.37108e-01  8.96576e-01 -5.07137e-01
       H  3.06863e-01  2.91312e-01  1.07253e-01
       H  7.68702e-02  1.40802e-02  3.52315e-01
       O -3.36669e-01 -1.11721e+00  1.14548e+00
       H  5.23170e-01 -2.26429e-01 -2.81937e-01
       H  1.12293e+00  2.19892e-01  5.52545e-01
       H -1.25606e+00 -7.82257e-02 -1.36852e+00
7
# CELL(abcABC):  529.17722   529.17722   529.17722    90.00000    90.00000    90.00000  Step:        3940  Bead:       0 forces{eV/ang}  cell{angstrom}
       O -1.34723e+00 -4.66107e-01 -1.66003e+00
       H  1.31891e+00  8.26080e-01  1.01100e+00
       H  1.69121e-01 -2.77125e-02  5.18146e-01
       O  1.39282e-01 -2.35427e+00  1.90847e+00
       H -1.51826e-01  1.80572e-01  2.54455e-01
       H -1.13990e-02  4.84917e-01 -3.90821e-01
       H -1.16850e-01  1.35652e+00 -1.64122e+00
7
# CELL(abcABC):  529.17722   529.17722   529.17722    90.00000    90.00000    90.00000  Step:        3960  Bead:       0 forces{eV/ang}  cell{angstrom}
       O -1.27331e+00 -8.76354e-01 -1.40185e+00
       H  1.47734e+00  6.78137e-01  1.47954e+00
       H -2.02626e-01 -3.90545e-01  8.91954e-03
       O  1.76347e+00 -2.83324e-02  6.22411e-01
       H -3.06253e-01 -1.93258e-01  1.03474e-01
       H -3.57126e-01 -5.43191e-01  4.36318e-01
       H -1.10149e+00  1.35354e+00 -1.24881e+00
7
# CELL(abcABC):  529.17722   529.17722   529.17722    90.00000    90.00000    90.00000  Step:        3980  Bead:       0 forces{eV/ang}  cell{angstrom}
       O -1.49440e+00 -1.15845e+00 -1.11132e+00
       H  1.20567e+00  5.68945e-01  6.71797e-01
       H  1.78844e-01 -2.90851e-02  3.65848e-01
       O -4.74512e-01 -1.20827e+00  4.06343e-01
       H  1.50385e-01  4.27729e-01  3.81765e-01
       H -1.02772e-01  3.66144e-01 -2.16116e-01
       H  5.36783e-01  1.03298e+00 -4.98315e-01
7
# CELL(abcABC):  529.17722   529.17722   529.17722    90.00000    90.00000    90.00000  Step:        4000  Bead:       0 forces{eV/ang}  cell{angstrom}
       O -1.37225e-01  1.66476e-01  1.98306e-01
       H  3.18844e-01 -1.16434e-01  4.96505e-01
       H -1.59107e-01  2.06576e-02 -6.47244e-01
       O  6.39916e-01  7.70823e-01  6.42960e-02
       H -2.68960e-01 -3.74951e-01 -3.17147e-01
       H  1.17643e-01 -5.03585e-01  1.78845e-01
       H -5.11111e-01  3.70132e-02  2.64393e-02
7
# CELL(abcABC):  529.17722   529.17722   529.17722    90.00000    90.00000    90.00000  Step:        4020  Bead:       0 forces{eV/ang}  cell{angstrom}
       O  1.26617e-01 -1.25966e-01  1.71472e+00
       H -5.01459e-01 -3.26768e-02 -7.18016e-01
       H  5.91904e-01  5.72181e-01 -1.12220e+00
       O -1.27245e+00 -2.73793e-01  8.96504e-02
       H  3.02066e-01  5.57286e-01  4.28228e-02
       H -3.29341e-01  3.98691e-01 -1.94046e-01
       H  1.08266e+00 -1.09572e+00  1.87068e-01
7
# CELL(abcABC):  529.17722   529.17722   529.17722    90.00000    90.00000    90.00000  Step:        4040  Bead:       0 forces{eV/ang}  cell{angstrom}
       O  1.58589e+00  5.14267e-01  1.39124e+00
       H -1.13398e+00  2.87290e-02 -3.61966e-01
       H -1.18245e-01  1.49111e-01 -8.97056e-01
       O -1.31718e+00  2.41763e+00 -4.38768e-01
       H -1.07773e-01 -3.65490e-01 -2.81696e-01
       H  1.24644e-01 -4.99145e-01  8.23539e-02
       H  9.66645e-01 -2.24510e+00  5.05890e-01
7
# CELL(abcABC):  529.17722   529.17722   529.17722    90.00000    90.00000    90.00000  Step:        4060  Bead:       0 forces{eV/ang}  cell{angstrom}
       O  1.94148e-01 -6.32109e-01  4.47246e-01
       H -5.88747e-01  2.97766e-01 -1.08169e+00
       H  1.68645e-01  8.58387e-03  3.79414e-01
       O -1.17606e+00  5.18584e-01  1.60625e-01
       H  3.01899e-01  4.39186e-01  5.84517e-01
       H  1.20588e-01  6.21854e-01 -9.59920e-02
       H  9.79527e-01 -1.25386e+00 -3.94118e-01
7
# CELL(abcABC):  529.17722   529.17722   529.17722    90.00000    90.00000    90.00000  Step:        4080  Bead:       0 forces{eV/ang}  cell{angstrom}
       O  1.16811e+00  6.28632e-01  5.56066e-01
       H -6.86231e-01 -1.73916e-01 -4.01453e-01
       H -7.41028e-01 -7.91980e-01  2.44337e-01
       O  1.14559e+00  1.09369e+00 -4.84119e-01
       H -1.73779e-01 -2.85018e-01 -4.86978e-01
       H -4.36834e-01 -3.75696e-01  3.43329e-01
       H -2.75826e-01 -9.57162e-02  2.28818e-01
7
# CELL(abcABC):  529.17722   529.17722   529.17722    90.00000    90.00000    90.00000  Step:        4100  Bead:       0 forces{eV/ang}  cell{angstrom}
       O -1.13527e+00  2.81033e-01 -1.99665e+00
       H  4.18249e-01  9.58563e-02  9.80280e-02
       H  2.40983e-01 -7.28676e-01  1.54076e+00
       O  1.54277e+00 -1.48090e+00 -1.28423e+00
       H  2.31057e-01  6.42375e-02  5.63093e-01
       H -1.10694e+00  2.89930e-01  8.40977e-01
       H -1.90850e-01  1.47852e+00  2.38010e-01
7
# CELL(abcABC):  529.17722   529.17722   529.17722    90.00000    90.00000    90.00000  Step:        4120  Bead:       0 forces{eV/ang}  cell{angstrom}
       O -2.54454e-01  6.75440e-01 -7.62134e-01
       H  5.53386e-01  3.46755e-02  4.54863e-01
       H -1.05846e-01 -8.53677e-01  7.20085e-01
       O  1.52813e+00 -1.73064e+00 -3.09073e-01
       H -4.00763e-01  3.71784e-01 -7.90714e-01
       H -3.24227e-01 -3.11464e-01  2.79441e-01
       H -9.96223e-01  1.81388e+00  4.07532e-01
7
# CELL(abcABC):  529.17722   529.17722   529.17722    90.00000    90.00000    90.00000  Step:        4140  Bead:       0 forces{eV/ang}  cell{angstrom}
       O -5.49998e-01  1.27469e+00 -6.46757e-01
       H  4.02704e-01 -2.08269e-01  1.35832e-01
       H  4.47387e-01  1.58764e-01  2.36152e-01
       O -2.15217e-01 -2.17049e+00  5.38475e-02
       H  2.41613e-01 -7.47765e-01  4.87496e-01
       H  9.81486e-02  1.06038e-01 -1.04388e-01
       H -4.24637e-01  1.58703e+00 -1.62182e-01
7
# CELL(abcABC):  529.17722   529.17722   529.17722    90.00000    90.00000    90.00000  Step:        4160  Bead:       0 forces{eV/ang}  cell{angstrom}
       O  5.81987e-01 -5.32246e-01  5.11040e-01
       H -3.31617e-01  3.04129e-01 -1.81383e-01
       H  1.39295e-01  6.02566e-02 -1.72605e-01
       O  3.11066e-01 -4.31881e-01  7.19008e-01
       H -7.44548e-01  6.09450e-01 -2.72939e-01
       H  5.87733e-01 -2.56246e-01 -5.46997e-01
       H -5.43916e-01  2.46537e-01 -5.61232e-02
7
# CELL(abcABC):  529.17722   529.17722   529.17722    90.00000    90.00000    90.00000  Step:        4180  Bead:       0 forces{eV/ang}  cell{angstrom}
       O  1.05935e-01 -4.93101e-01 -1.14521e-01
       H -3.45408e-01 -5.78846e-02  9.08977e-02
       H -2.31148e-01  2.95494e-01 -1.40866e-01
       O -1.36470e+00  1.42031e-01  8.51348e-01
       H  7.85374e-01 -3.55013e-01  9.25469e-02
       H  6.57854e-01 -3.08573e-02 -7.26755e-01
       H  3.92094e-01  4.99330e-01 -5.26512e-02
7
# CELL(abcABC):  529.17722   529.17722   529.17722    90.00000    90.00000    90.00000  Step:        4200  Bead:       0 forces{eV/ang}  cell{angstrom}
       O -9.05545e-02 -1.57999e+00 -4.80915e-01
       H  2.11490e-01  6.16004e-01  2.76538e-01
       H -2.18254e-01 -7.07382e-02 -2.09790e-01
       O  1.12327e-01  9.40008e-01  4.40491e-01
       H -6.52867e-01  3.56250e-01  4.03694e-01
       H  9.60895e-01 -1.93203e-01 -5.76307e-01
       H -3.23038e-01 -6.83335e-02  1.46287e-01
7
# CELL(abcABC):  529.17722   529.17722   529.17722    90.00000    90.00000    90.00000  Step:        4220  Bead:       0 forces{eV/ang}  cell{angstrom}
       O -6.48294e-02  1.02142e+00 -3.69047e-01
       H -4.40444e-01 -2.66199e-01  1.57560e-01
       H -2.32290e-01 -6.20017e-01  3.81181e-01
       O -2.31000e-01  2.62994e-01  7.32652e-01
       H  7.03264e-01 -7.65828e-01 -5.15949e-01
       H -1.62353e-01  3.83120e-01 -1.41334e-01
       H  4.27653e-01 -1.54870e-02 -2.45063e-01
7
# CELL(abcABC):  529.17722   529.17722   529.17722    90.00000    90.00000    90.00000  Step:        4240  Bead:       0 forces{eV/ang}  cell{angstrom}
       O -1.07643e+00  2.89010e-01 -4.29449e-01
       H  6.47922e-01  2.10028e-01 -1.49165e-01
       H  3.53646e-01 -9.47602e-01  2.93430e-01
       O  2.07083e+00  1.94196e-01 -7.26284e-01
       H -5.84634e-01  5.82872e-01  3.53191e-01
       H -7.62071e-01 -1.42418e-01  6.74596e-01
       H -6.49263e-01 -1.86085e-01 -1.63188e-02
7
# CELL(abcABC):  529.17722   529.17722   529.17722    90.00000    90.00000    90.00000  Step:        4260  Bead:       0 forces{eV/ang}  cell{angstrom}
       O -1.33353e+00  1.94902e+00 -7.45455e-02
       H  8.24373e-01 -5.52992e-01 -2.09827e-01
       H  2.53269e-01 -1.18019e+00  6.12617e-01
       O -3.77995e-01  7.19898e-02  9.44294e-02
       H  8.56169e-01 -1.37981e-01 -6.26081e-01
       H -5.93005e-01  3.78965e-02  2.61609e-01
       H  3.70723e-01 -1.87749e-01 -5.82020e-02
7
# CELL(abcABC):  529.17722   529.17722   529.17722    90.00000    90.00000    90.00000  Step:        4280  Bead:       0 forces{eV/ang}  cell{angstrom}
       O  8.56971e-01  7.51623e-01  2.37088e-01
       H -3.76714e-01  3.55412e-01  3.01015e-02
       H  5.27533e-01 -6.48452e-01  2.54291e-02
       O  4.36786e-01 -2.68798e-01 -5.96858e-01
       H -6.86052e-01  3.02319e-01  9.68060e-03
       H -3.14673e-01 -3.13921e-01  2.00306e-01
       H -4.43852e-01 -1.78183e-01  9.42530e-02
7
# CELL(abcABC):  529.17722   529.17722   529.17722    90.00000    90.00000    90.00000  Step:        4300  Bead:       0 forces{eV/ang}  cell{angstrom}
       O  1.37284e+00  9.56694e-01 -1.67319e-01
       H -1.05928e+00 -3.05851e-02  9.84570e-02
       H  2.33024e-01 -3.00504e-01  1.57337e-01
       O -2.57162e+00 -1.22330e+00 -1.93765e-01
       H  6.25562e-01  1.11510e-01  3.47019e-01
       H  8.71336e-01  8.39347e-02 -3.11384e-01
       H  5.28132e-01  4.02249e-01  6.96539e-02
7
# CELL(abcABC):  529.17722   529.17722   529.17722    90.00000    90.00000    90.00000  Step:        4320  Bead:       0 forces{eV/ang}  cell{angstrom}
       O  1.06830e+00 -1.13163e+00 -1.04729e-01
       H -1.30604e+00  6.00660e-01  4.12149e-02
       H  1.34441e-01  5.03078e-02 -1.40273e-01
       O  1.19169e-01  6.36396e-01  6.84119e-01
       H -2.56238e-01  3.11191e-01  2.60190e-02
       H  5.19469e-01 -8.52821e-01 -1.01825e+00
       H -2.79109e-01  3.85895e-01  5.11901e-01
7
# CELL(abcABC):  529.17722   529.17722   529.17722    90.00000    90.00000    90.00000  Step:        4340  Bead:       0 forces{eV/ang}  cell{angstrom}
       O -5.62416e-02 -4.33056e-01  3.86713e-02
       H -8.93959e-01  3.51838e-01 -2.49615e-01
       H  1.94456e-01  4.68932e-02 -3.27239e-02
       O -6.56625e-01  9.24675e-02  2.00603e-01
       H  3.17773e-01 -4.31553e-01 -1.30456e-02
       H  5.36031e-01  2.12314e-01  1.35089e-01
       H  5.58564e-01  1.61096e-01 -7.89785e-02
7
# CELL(abcABC):  529.17722   529.17722   529.17722    90.00000    90.00000    90.00000  Step:        4360  Bead:       0 forces{eV/ang}  cell{angstrom}
       O -1.40380e+00 -1.70554e+00  3.24020e-01
       H  1.99280e-01  3.11650e-01 -4.11789e-03
       H  2.31300e-01  4.84258e-01 -5.55293e-01
       O  2.25237e+00  6.33688e-01 -1.87407e-01
       H -2.35194e-02  3.80121e-01  1.94505e-01
       H -6.15773e-01 -3.21612e-02  5.27026e-03
       H -6.39861e-01 -7.20165e-02  2.23023e-01
7
# CELL(abcABC):  529.17722   529.17722   529.17722    90.00000    90.00000    90.00000  Step:        4380  Bead:       0 forces{eV/ang}  cell{angstrom}
       O -1.19213e+00  1.39895e-01  3.02608e-01
       H  5.37144e-01 -1.23408e+00  6.16161e-01
       H -5.79284e-02  9.28453e-01 -8.69888e-01
       O  1.17736e+00  6.01468e-02 -1.02042e+00
       H  7.60943e-02 -2.72423e-01 -1.22748e-01
       H -9.25175e-01  2.64929e-01  8.79302e-01
       H  3.84632e-01  1.13078e-01  2.14990e-01
7
# CELL(abcABC):  529.17722   529.17722   529.17722    90.00000    90.00000    90.00000  Step:        4400  Bead:       0 forces{eV/ang}  cell{angstrom}
       O -3.03004e+00  4.52542e-01 -4.16130e-01
       H  1.82245e+00 -1.19857e+00  5.85557e-01
       H  7.89309e-01  3.64183e-01 -4.28367e-01
       O  1.89092e+00  1.21432e-01 -4.35752e-01
       H -1.04535e-01  1.70621e-01  2.83367e-01
       H -8.14412e-01  1.48910e-01  1.12848e-01
       H -5.53696e-01 -5.91209e-02  2.98478e-01
7
# CELL(abcABC):  529.17722   529.17722   529.17722    90.00000    90.00000    90.00000  Step:        4420  Bead:       0 forces{eV/ang}  cell{angstrom}
       O -4.55586e-01  5.28007e-01 -7.84421e-02
       H  7.59256e-01 -1.16620e+00  1.13620e+00
       H -5.48492e-02  9.87317e-01 -9.21110e-01
       O -1.10319e+00 -5.90980e-01  8.45150e-01
       H  1.12879e+00  2.70428e-01 -1.19348e-01
       H -2.78555e-01 -6.09121e-02  5.10109e-02
       H  4.13460e-03  3.23407e-02 -9.13462e-01
7
# CELL(abcABC):  529.17722   529.17722   529.17722    90.00000    90.00000    90.00000  Step:        4440  Bead:       0 forces{eV/ang}  cell{angstrom}
       O -6.87740e-01 -7.13939e-01  6.68892e-01
       H  3.84824e-01  2.28537e-01 -2.47993e-01
       H  1.10379e+00  8.02717e-01 -4.78369e-01
       O -6.31210e-01  2.44243e-01  1.03218e+00
       H -7.24026e-01 -3.07472e-02  4.33526e-01
       H  8.48907e-01 -3.77258e-01 -4.03826e-01
       H -2.94548e-01 -1.53553e-01 -1.00441e+00
7
# CELL(abcABC):  529.17722   529.17722   529.17722    90.00000    90.00000    90.00000  Step:        4460  Bead:       0 forces{eV/ang}  cell{angstrom}
       O  1.07238e+00 -2.18049e-01  8.40624e-01
       H -7.21599e-01  1.34174e-02 -4.44614e-01
       H -3.21180e-01  2.23762e-01 -3.37439e-01
       O -5.22112e-01  7.52141e-01  2.76935e+00
       H  4.35408e-01 -1.18857e-01 -4.60478e-01
       H  4.24436e-01 -8.02046e-01 -1.06187e+00
       H -3.67337e-01  1.49632e-01 -1.30558e+00
7
# CELL(abcABC):  529.17722   529.17722   529.17722    90.00000    90.00000    90.00000  Step:        4480  Bead:       0 forces{eV/ang}  cell{angstrom}
       O  2.21248e-01  1.60109e-01 -1.59239e-02
       H -3.42708e-01  1.18781e+00 -6.42254e-01
       H -2.61957e-01 -1.49169e+00  1.72704e-01
       O -8.40166e-01  3.75940e-01 -1.57721e-01
       H -4.96683e-02  1.46787e-01  1.04914e+00
       H  1.12460e+00 -1.49056e-01 -3.91405e-02
       H  1.48646e-01 -2.29899e-01 -3.66802e-01
7
# CELL(abcABC):  529.17722   529.17722   529.17722    90.00000    90.00000    90.00000  Step:        4500  Bead:       0 forces{eV/ang}  cell{angstrom}
       O  1.27120e+00  5.22240e-02  1.42118e+00
       H -8.37067e-01  1.11751e+00 -9.28285e-01
       H -9.08176e-01 -1.59414e+00 -4.59086e-01
       O  9.55536e-01  3.06617e-01  8.21807e-01
       H  4.28793e-02 -1.88531e-02 -7.06327e-01
       H -2.45494e-01 -3.19619e-01 -6.58641e-01
       H -2.78874e-01  4.56266e-01  5.09356e-01
7
# CELL(abcABC):  529.17722   529.17722   529.17722    90.00000    90.00000    90.00000  Step:        4520  Bead:       0 forces{eV/ang}  cell{angstrom}
       O  3.33686e-01  6.64284e-01  1.18955e+00
       H -9.40920e-01  1.01767e+00 -6.69976e-01
       H  1.44624e-01 -1.38032e+00 -5.23226e-01
       O  8.17116e-01 -1.29242e+00 -1.91459e+00
       H  2.29447e-01 -3.98586e-01 -1.93833e-01
       H -1.20899e+00  9.01244e-01  7.27504e-01
       H  6.25041e-01  4.88139e-01  1.38458e+00
7
# CELL(abcABC):  529.17722   529.17722   529.17722    90.00000    90.00000    90.00000  Step:        4540  Bead:       0 forces{eV/ang}  cell{angstrom}
       O -2.46366e-01  2.01917e-01  2.76051e-01
       H  1.26407e-03  2.92112e-01  6.84956e-03
       H  3.19908e-01 -4.48154e-01 -2.36896e-01
       O  3.52044e+00 -2.08586e+00 -1.19843e+00
       H -4.06007e-01  2.07506e-01  3.13263e-01
       H -2.16793e+00  1.01822e+00 -1.76865e-01
       H -1.02132e+00  8.14257e-01  1.01603e+00
7
# CELL(abcABC):  529.17722   529.17722   529.17722    90.00000    90.00000    90.00000  Step:        4560  Bead:       0 forces{eV/ang}  cell{angstrom}
       O -4.75418e-01  1.93723e-01  2.39141e-01
       H  1.18695e-01 -2.85669e-01 -9.65078e-02
       H  1.40995e-01  3.22488e-01 -1.16869e-02
       O -1.38656e-01 -1.22390e+00 -8.15824e-01
       H  6.20772e-01 -2.74269e-01 -2.06429e-01
       H -1.03112e+00  1.14458e+00  4.40643e-01
       H  7.64735e-01  1.23042e-01  4.50665e-01
7
# CELL(abcABC):  529.17722   529.17722   529.17722    90.00000    90.00000    90.00000  Step:        4580  Bead:       0 forces{eV/ang}  cell{angstrom}
       O -3.75602e-01 -2.49776e-01 -9.63163e-01
       H  8.31982e-01 -4.91426e-01  4.93552e-01
       H  2.12884e-02  4.17336e-01  4.08513e-01
       O  6.40618e-01  1.39541e+00  1.78070e+00
       H -3.69424e-01  2.01826e-01  1.32995e-01
       H -2.03680e-01 -6.62832e-01 -5.75980e-01
       H -5.45182e-01 -6.10541e-01 -1.27662e+00
7
# CELL(abcABC):  529.17722   529.17722   529.17722    90.00000    90.00000    90.00000  Step:        4600  Bead:       0 forces{eV/ang}  cell{angstrom}
       O -6.07449e-01  3.09388e-01 -2.57681e-01
       H  6.79989e-01 -5.47039e-01  2.57888e-01
       H -1.03866e-01  1.71637e-02  4.83389e-03
       O -8.23955e-01  2.89288e+00  1.82600e+00
       H  2.81080e-01  5.78407e-02 -2.17530e-01
       H  4.36788e-01 -2.49594e-01  5.49571e-01
       H  1.37414e-01 -2.48063e+00 -2.16308e+00
7
# CELL(abcABC):  529.17722   529.17722   529.17722    90.00000    90.00000    90.00000  Step:        4620  Bead:       0 forces{eV/ang}  cell{angstrom}
       O -1.37662e-02  5.09243e-01  2.77251e-02
       H -6.84153e-02 -3.15377e-01 -1.06183e-01
       H  1.28426e-02  8.25758e-03  3.53210e-02
       O  6.10515e-01  2.04323e+00  2.18454e+00
       H -1.77319e-01 -1.60444e-01  1.71981e-01
       H -8.69095e-02 -3.52443e-01 -3.09920e-01
       H -2.76947e-01 -1.73246e+00 -2.00346e+00
7
# CELL(abcABC):  529.17722   529.17722   529.17722    90.00000    90.00000    90.00000  Step:        4640  Bead:       0 forces{eV/ang}  cell{angstrom}
       O  6.87480e-01  3.39684e-01 -1.63898e-01
       H -1.08670e+00  2.72615e-01 -2.17741e-01
       H  1.89370e-01 -2.90679e-01  2.55667e-01
       O -4.71051e-01 -1.04648e+00 -5.84069e-01
       H  5.32912e-01  3.45526e-02  2.26963e-01
       H -2.75866e-01  1.13376e+00  2.46533e-01
       H  4.23860e-01 -4.43449e-01  2.36543e-01
7
# CELL(abcABC):  529.17722   529.17722   529.17722    90.00000    90.00000    90.00000  Step:        4660  Bead:       0 forces{eV/ang}  cell{angstrom}
       O  1.22573e+00 -3.07605e-01 -1.71044e-01
       H -1.10366e+00  1.01271e+00  4.61405e-02
       H -2.65183e-01 -9.82963e-01  8.08326e-02
       O  1.84053e+00 -2.24854e+00  2.72901e-01
       H -2.97082e-01  2.74594e-01 -1.20332e-01
       H -1.16525e+00  1.07339e+00 -7.25661e-01
       H -2.35088e-01  1.17842e+00  6.17162e-01
7
# CELL(abcABC):  529.17722   529.17722   529.17722    90.00000    90.00000    90.00000  Step:        4680  Bead:       0 forces{eV/ang}  cell{angstrom}
       O  9.40536e-01 -1.01116e+00 -4.50328e-01
       H -1.14980e+00  1.34215e+00  2.04738e-01
       H -1.80942e-01 -4.35469e-01 -1.40224e-02
       O -6.20436e-01 -1.19666e+00 -1.30368e+00
       H  3.02597e-01 -3.44190e-01  7.40382e-02
       H -4.58232e-01  9.42896e-01  1.34837e-01
       H  1.16628e+00  7.02431e-01  1.35442e+00
7
# CELL(abcABC):  529.17722   529.17722   529.17722    90.00000    90.00000    90.00000  Step:        4700  Bead:       0 forces{eV/ang}  cell{angstrom}
       O  9.79561e-01 -9.44934e-01 -7.89805e-02
       H -4.27099e-01  1.00379e+00  2.12366e-01
       H -3.47624e-01 -4.43130e-01 -6.41902e-02
       O  5.78415e-01 -5.56193e-01 -2.01509e-01
       H -4.31412e-01  3.00857e-01 -6.89564e-02
       H -7.65932e-02 -7.46440e-01 -3.44621e-01
       H -2.75247e-01  1.38605e+00  5.45891e-01
7
# CELL(abcABC):  529.17722   529.17722   529.17722    90.00000    90.00000    90.00000  Step:        4720  Bead:       0 forces{eV/ang}  cell{angstrom}
       O  3.23751e-01  7.58057e-01  3.03166e-02
       H  2.09407e-01 -3.68061e-01  1.39831e-01
       H -1.44163e-01 -1.86840e-01  1.33027e-01
       O -2.08634e+00  3.81305e-01 -1.98558e+00
       H  6.49396e-01  7.04558e-02 -2.90182e-02
       H  8.76290e-01 -8.58451e-01  1.10619e+00
       H  1.71654e-01  2.03534e-01  6.05233e-01
7
# CELL(abcABC):  529.17722   529.17722   529.17722    90.00000    90.00000    90.00000  Step:        4740  Bead:       0 forces{eV/ang}  cell{angstrom}
       O -1.04342e+00  9.34684e-01 -4.12407e-01
       H  7.33728e-01 -7.99263e-01  4.83876e-01
       H  5.42684e-01  9.42127e-02 -2.88313e-02
       O -3.99140e-01  2.35279e+00  2.26615e-01
       H -4.17684e-01 -1.20562e-01  1.48371e-02
       H  9.46707e-01 -1.83446e+00  6.78116e-01
       H -3.62877e-01 -6.27395e-01 -9.62206e-01
7
# CELL(abcABC):  529.17722   529.17722   529.17722    90.00000    90.00000    90.00000  Step:        4760  Bead:       0 forces{eV/ang}  cell{angstrom}
       O -8.49660e-01  2.87888e-01 -4.66781e-01
       H  3.27034e-01 -7.37606e-01  8.83159e-01
       H  6.85424e-02  2.45294e-01 -3.79367e-01
       O -1.09455e+00  2.23566e+00  1.82578e-01
       H  6.79785e-01  2.06705e-01 -2.51287e-01
       H  7.05165e-01 -9.21865e-01  8.52872e-01
       H  1.63678e-01 -1.31607e+00 -8.21175e-01
7
# CELL(abcABC):  529.17722   529.17722   529.17722    90.00000    90.00000    90.00000  Step:        4780  Bead:       0 forces{eV/ang}  cell{angstrom}
       O -1.82579e+00  2.60320e-01 -1.21902e+00
       H  5.05019e-01 -5.36202e-01  6.84744e-01
       H  4.56984e-01 -7.21296e-02  2.19861e-03
       O  2.03379e+00  9.77672e-01  1.65139e+00
       H -3.25555e-01  8.98427e-02  3.09835e-01
       H -4.22854e-01 -2.35874e-01 -4.27611e-01
       H -4.21594e-01 -4.83630e-01 -1.00154e+00
7
# CELL(abcABC):  529.17722   529.17722   529.17722    90.00000    90.00000    90.00000  Step:        4800  Bead:       0 forces{eV/ang}  cell{angstrom}
       O -1.43977e-01 -4.16999e-01  8.85323e-03
       H -4.73446e-01  1.65080e-01 -2.68251e-01
       H -9.58011e-02  1.17013e-01 -1.30681e-01
       O  2.54813e-01 -5.40624e-01  3.13490e-01
       H  4.33506e-01 -2.10762e-01  9.08285e-02
       H -4.99951e-01  1.37816e+00 -6.11426e-02
       H  5.24856e-01 -4.91866e-01  4.69031e-02
7
# CELL(abcABC):  529.17722   529.17722   529.17722    90.00000    90.00000    90.00000  Step:        4820  Bead:       0 forces{eV/ang}  cell{angstrom}
       O -9.15078e-01  1.17643e-02  4.25891e-01
       H  2.39813e-01  1.46103e-02 -5.59825e-01
       H  2.62989e-01 -1.29430e-01  1.11542e-01
       O  2.25061e+00 -2.50188e+00  7.61223e-01
       H  1.02432e-01  1.46554e-01 -4.53658e-02
       H -1.54761e+00  1.83185e+00 -7.62214e-01
       H -3.93157e-01  6.26537e-01  6.87478e-02
7
# CELL(abcABC):  529.17722   529.17722   529.17722    90.00000    90.00000    90.00000  Step:        4840  Bead:       0 forces{eV/ang}  cell{angstrom}
       O  2.29171e+00  3.13736e-01  6.56269e-01
       H -2.62844e-01  3.28216e-02  3.53973e-02
       H -5.32988e-01  1.00854e-01 -1.31635e-01
       O  6.50880e-01 -2.66941e+00 -7.70167e-01
       H -6.88977e-01 -1.78045e-01 -2.48967e-01
       H -1.94803e+00  2.79803e+00  4.23790e-02
       H  4.90257e-01 -3.97986e-01  4.16723e-01
7
# CELL(abcABC):  529.17722   529.17722   529.17722    90.00000    90.00000    90.00000  Step:        4860  Bead:       0 forces{eV/ang}  cell{angstrom}
       O  2.53209e-01  5.14193e-01 -1.40809e-01
       H  5.08447e-01 -1.70622e-01 -2.46986e-03
       H  4.00610e-02  2.07253e-02  4.14249e-01
       O  6.90795e-01 -1.18992e+00  3.06471e-01
       H  7.04167e-01 -4.90361e-01  2.64543e-01
       H -1.50082e+00  9.01953e-01 -6.64905e-01
       H -6.95860e-01  4.14034e-01 -1.77078e-01
7
# CELL(abcABC):  529.17722   529.17722   529.17722    90.00000    90.00000    90.00000  Step:        4880  Bead:       0 forces{eV/ang}  cell{angstrom}
       O  3.02954e-01 -2.09102e-01  1.18089e+00
       H -1.56227e-01  3.73723e-01  1.32033e-01
       H  4.33564e-01 -2.54699e-01 -8.19383e-01
       O -1.50171e+00  4.87253e-01 -6.26570e-01
       H -3.16621e-01  4.34056e-01 -5.43160e-01
       H  7.43672e-01 -6.43244e-03  8.10474e-01
       H  4.94368e-01 -8.24798e-01 -1.34283e-01
7
# CELL(abcABC):  529.17722   529.17722   529.17722    90.00000    90.00000    90.00000  Step:        4900  Bead:       0 forces{eV/ang}  cell{angstrom}
       O -1.77020e+00  2.92099e-01  6.94377e-01
       H  5.49511e-02 -8.58078e-02 -5.27017e-01
       H  1.05286e+00 -5.18149e-01 -4.66168e-01
       O  1.05906e+00  2.28597e+00  1.66310e+00
       H -1.74349e-01 -1.05935e-01  1.23209e-01
       H  2.72765e-01 -2.18982e+00 -9.41304e-01
       H -4.95094e-01  3.21641e-01 -5.46194e-01
7
# CELL(abcABC):  529.17722   529.17722   529.17722    90.00000    90.00000    90.00000  Step:        4920  Bead:       0 forces{eV/ang}  cell{angstrom}
       O -5.37929e-01 -1.63341e-01  6.19870e-01
       H -4.00524e-01  1.10141e-01 -2.09601e-01
       H  3.93443e-01 -1.30271e-01 -6.29523e-01
       O -2.51313e+00  2.50156e+00  3.07949e-01
       H  8.05032e-01  3.87525e-01  1.83424e-01
       H  1.87308e+00 -1.78235e+00  6.02792e-01
       H  3.80030e-01 -9.23262e-01 -8.74911e-01
7
# CELL(abcABC):  529.17722   529.17722   529.17722    90.00000    90.00000    90.00000  Step:        4940  Bead:       0 forces{eV/ang}  cell{angstrom}
       O -2.81578e-01 -1.65481e-02 -6.28230e-01
       H  5.34004e-02 -5.98663e-02  1.36167e-02
       H -7.97014e-01 -7.04763e-02  5.07311e-01
       O  6.49058e-01  2.17898e+00  1.79322e+00
       H -3.29682e-01 -2.77753e-01 -1.56751e-01
       H  1.35229e+00 -2.00184e+00 -1.08735e+00
       H -6.46480e-01  2.47496e-01 -4.41812e-01
7
# CELL(abcABC):  529.17722   529.17722   529.17722    90.00000    90.00000    90.00000  Step:        4960  Bead:       0 forces{eV/ang}  cell{angstrom}
       O -1.89792e-01  4.23043e-01 -1.17810e+00
       H  1.91702e-01 -1.80687e-01  4.57453e-01
       H -3.63342e-01 -1.66665e-01  4.86424e-01
       O -1.91567e+00  2.41238e-01 -1.53671e+00
       H  2.48809e-01 -6.88971e-02  1.90720e-01
       H  1.21675e+00 -4.06356e-01  4.57516e-01
       H  8.11549e-01  1.58325e-01  1.12270e+00
7
# CELL(abcABC):  529.17722   529.17722   529.17722    90.00000    90.00000    90.00000  Step:        4980  Bead:       0 forces{eV/ang}  cell{angstrom}
       O  1.02775e+00  7.15050e-01 -4.19308e-01
       H  2.23232e-01 -2.96100e-01  6.06803e-01
       H -2.22583e-01 -1.05959e-01  1.21558e-01
       O  5.85644e-01 -2.18581e+00 -2.02513e+00
       H -2.45527e-01 -1.35189e-01 -1.24909e-01
       H -9.78678e-01  4.43053e-01 -4.14869e-01
       H -3.89837e-01  1.56496e+00  2.25586e+00
7
# CELL(abcABC):  529.17722   529.17722   529.17722    90.00000    90.00000    90.00000  Step:        5000  Bead:       0 forces{eV/ang}  cell{angstrom}
       O -1.06697e-01 -4.13930e-01  9.62084e-01
       H  3.39175e-01  1.02592e-01 -3.05034e-02
       H  6.97385e-01  3.77156e-01 -4.24705e-01
       O -1.50204e+00 -2.51384e+00 -2.96952e+00
       H  2.82800e-01  4.02080e-01 -3.85945e-01
       H -7.55600e-01  1.24877e+00  5.25111e-01
       H  1.04498e+00  7.97170e-01  2.32348e+00
7
# CELL(abcABC):  529.17722   529.17722   529.17722    90.00000    90.00000    90.00000  Step:        5020  Bead:       0 forces{eV/ang}  cell{angstrom}
       O  2.54415e-03 -1.87763e-01  7.19323e-02
       H -3.70280e-01 -2.55994e-02 -1.42457e-01
       H  3.98242e-01  4.50385e-01 -2.86050e-01
       O  1.45611e+00 -2.33581e+00 -1.86972e+00
       H -2.75755e-01 -3.86926e-01  6.52101e-01
       H -1.18411e+00  1.06271e+00 -2.31435e-01
       H -2.67567e-02  1.42300e+00  1.80563e+00
7
# CELL(abcABC):  529.17722   529.17722   529.17722    90.00000    90.00000    90.00000  Step:        5040  Bead:       0 forces{eV/ang}  cell{angstrom}
       O -7.86304e-01 -6.05960e-01  3.49469e-02
       H  1.52586e-01  5.80141e-01 -1.41734e-01
       H -5.05199e-02 -4.87385e-01  1.08738e-01
       O -1.66899e-01 -3.54276e-01 -7.47046e-02
       H  3.95272e-01  4.18028e-01 -4.99905e-01
       H -1.89948e-01  5.84129e-01  3.51354e-01
       H  6.45812e-01 -1.34678e-01  2.21305e-01
7
# CELL(abcABC):  529.17722   529.17722   529.17722    90.00000    90.00000    90.00000  Step:        5060  Bead:       0 forces{eV/ang}  cell{angstrom}
       O  8.79964e-01  4.57109e-01 -8.80327e-01
       H -5.17174e-01 -3.24389e-01  2.37610e-01
       H -1.04922e+00 -2.13711e-01  2.93785e-01
       O  1.05212e+00  2.02866e+00  2.07124e+00
       H -1.76576e-01 -2.05548e-01  2.81732e-01
       H  3.03269e-01 -5.71906e-01 -2.17155e-01
       H -4.92383e-01 -1.17021e+00 -1.78689e+00
7
# CELL(abcABC):  529.17722   529.17722   529.17722    90.00000    90.00000    90.00000  Step:        5080  Bead:       0 forces{eV/ang}  cell{angstrom}
       O -4.11997e-01 -1.60660e-01 -4.27371e-01
       H  2.11711e-01  8.05997e-01 -6.14759e-02
       H -2.75060e-01 -8.93494e-01  3.23471e-01
       O -1.21915e+00  2.86762e+00  1.78106e+00
       H  3.76971e-01  2.32678e-01  4.20670e-02
       H  1.18858e+00 -3.39391e-01  7.77566e-01
       H  1.28946e-01 -2.51275e+00 -2.43531e+00
7
# CELL(abcABC):  529.17722   529.17722   529.17722    90.00000    90.00000    90.00000  Step:        5100  Bead:       0 forces{eV/ang}  cell{angstrom}
       O  1.85359e+00 -4.48655e-01  5.49266e-01
       H -6.70017e-01  2.86221e-01  2.66890e-01
       H -3.06953e-01  4.24943e-01 -8.69381e-02
       O -1.12380e-01  2.43296e+00  2.50270e+00
       H -2.00008e-01 -4.16321e-01 -8.62627e-01
       H -3.19279e-02 -7.08784e-01 -3.86518e-01
       H -5.32307e-01 -1.57036e+00 -1.98277e+00
7
# CELL(abcABC):  529.17722   529.17722   529.17722    90.00000    90.00000    90.00000  Step:        5120  Bead:       0 forces{eV/ang}  cell{angstrom}
       O  6.98594e-01 -1.23419e+00  2.65613e-01
       H -5.01073e-01  9.54584e-01 -1.91345e-02
       H  9.70355e-01  6.63652e-01 -2.79978e-01
       O -1.76947e+00 -5.01205e-01 -1.11004e+00
       H  1.80621e-01  2.97170e-01  7.07812e-01
       H  4.32042e-01  2.57686e-01  4.63048e-01
       H -1.10639e-02 -4.37696e-01 -2.73229e-02
7
# CELL(abcABC):  529.17722   529.17722   529.17722    90.00000    90.00000    90.00000  Step:        5140  Bead:       0 forces{eV/ang}  cell{angstrom}
       O -1.13548e-01 -2.59749e+00  1.21133e+00
       H -9.40129e-01  6.33378e-01  3.42261e-02
       H  1.00120e+00  1.99970e+00 -1.00445e+00
       O  7.90730e-01 -1.77694e+00 -2.23628e-01
       H -9.08226e-02 -6.12932e-02 -5.08207e-01
       H -6.79399e-01  7.59837e-01 -3.61343e-01
       H  3.19711e-02  1.04281e+00  8.52070e-01
7
# CELL(abcABC):  529.17722   529.17722   529.17722    90.00000    90.00000    90.00000  Step:        5160  Bead:       0 forces{eV/ang}  cell{angstrom}
       O -2.37077e+00 -7.12025e-01  7.75317e-02
       H  5.94115e-01 -1.65456e-01  3.35953e-02
       H  8.64932e-01  6.46787e-01 -3.29010e-01
       O  9.90939e-01 -2.58560e+00 -1.03698e+00
       H  2.38989e-02  1.51206e-02 -1.78209e-01
       H -7.83814e-01  1.73858e+00 -2.62130e-01
       H  6.80697e-01  1.06260e+00  1.69520e+00
7
# CELL(abcABC):  529.17722   529.17722   529.17722    90.00000    90.00000    90.00000  Step:        5180  Bead:       0 forces{eV/ang}  cell{angstrom}
       O -8.01576e-01  4.54852e-01 -3.52381e-01
       H  1.74172e-01 -1.19171e+00  3.42521e-01
       H  3.17623e-02  7.46935e-01 -2.86799e-01
       O  1.24573e+00 -1.12978e+00 -9.15934e-01
       H -2.53812e-01 -6.75347e-02  4.75306e-01
       H -2.46915e-01  2.45756e-01 -1.65646e-01
       H -1.49363e-01  9.41488e-01  9.02934e-01
7
# CELL(abcABC):  529.17722   529.17722   529.17722    90.00000    90.00000    90.00000  Step:        5200  Bead:       0 forces{eV/ang}  cell{angstrom}
       O -1.05913e+00  1.75139e+00 -8.11768e-01
       H  6.66888e-01 -9.87327e-01  5.75505e-01
       H -4.48813e-01 -6.38966e-01  1.56047e-01
       O  1.87096e-01  7.91669e-01  4.90744e-01
       H  4.96623e-02 -3.59614e-01 -4.24939e-01
       H  5.11058e-01 -5.78091e-01  1.11595e-01
       H  9.32377e-02  2.09424e-02 -9.71841e-02
7
# CELL(abcABC):  529.17722   529.17722   529.17722    90.00000    90.00000    90.00000  Step:        5220  Bead:       0 forces{eV/ang}  cell{angstrom}
       O  1.05497e+00  1.25799e+00 -3.50353e-01
       H -4.33657e-02 -2.60291e-01  2.66854e-01
       H -1.12036e+00 -1.02425e+00  4.18621e-02
       O -4.14804e-01  1.33408e+00  4.58560e-01
       H -2.76050e-01  1.51433e-01 -8.75784e-02
       H  1.00119e+00 -7.73427e-01  2.85140e-01
       H -2.01572e-01 -6.85526e-01 -6.14485e-01
7
# CELL(abcABC):  529.17722   529.17722   529.17722    90.00000    90.00000    90.00000  Step:        5240  Bead:       0 forces{eV/ang}  cell{angstrom}
       O  1.40532e+00  6.64123e-01  1.61895e+00
       H -2.10762e-01  6.47889e-01 -1.30827e+00
       H -7.29652e-01 -1.20063e+00 -2.90445e-01
       O -4.44903e-01  1.71670e+00  7.11969e-01
       H -1.04066e-01 -2.48786e-01  1.27922e-01
       H  5.16749e-01 -1.29659e+00 -2.16799e-01
       H -4.32681e-01 -2.82710e-01 -6.43323e-01
7
# CELL(abcABC):  529.17722   529.17722   529.17722    90.00000    90.00000    90.00000  Step:        5260  Bead:       0 forces{eV/ang}  cell{angstrom}
       O -7.45988e-02  8.15091e-01  1.84772e+00
       H  8.52816e-01  5.14024e-01 -1.45027e+00
       H -6.64962e-01 -1.42218e+00 -8.61027e-02
       O -1.50175e+00  9.70707e-01 -2.25145e-01
       H  6.07852e-01  6.64028e-02 -1.49192e-01
       H  5.68552e-01 -5.66102e-01  2.18931e-01
       H  2.12091e-01 -3.77945e-01 -1.55946e-01
7
# CELL(abcABC):  529.17722   529.17722   529.17722    90.00000    90.00000    90.00000  Step:        5280  Bead:       0 forces{eV/ang}  cell{angstrom}
       O  1.25042e+00  4.02671e-01  2.00877e+00
       H  2.16524e-01  6.13928e-01 -2.23489e+00
       H -5.21215e-01 -1.10912e+00  1.39410e-01
       O  1.59629e-01  6.29418e-03 -7.76470e-01
       H -1.01406e+00  1.60666e-01  5.10005e-01
       H -6.83975e-02 -3.95531e-01 -1.93294e-02
       H -2.28992e-02  3.21087e-01  3.72497e-01
7
# CELL(abcABC):  529.17722   529.17722   529.17722    90.00000    90.00000    90.00000  Step:        5300  Bead:       0 forces{eV/ang}  cell{angstrom}
       O -4.39913e-01  6.78929e-01  1.67262e+00
       H  3.48079e-01  3.10566e-01 -1.55841e+00
       H -7.92803e-01 -1.02733e+00  6.37691e-02
       O -3.34659e-01 -2.00924e-02 -5.53039e-01
       H  3.81022e-01 -1.68442e-01 -6.49544e-01
       H -2.61817e-02 -5.58389e-02  1.23845e-01
       H  8.64456e-01  2.82211e-01  9.00759e-01
7
# CELL(abcABC):  529.17722   529.17722   529.17722    90.00000    90.00000    90.00000  Step:        5320  Bead:       0 forces{eV/ang}  cell{angstrom}
       O  3.46888e-01  1.60883e-01  8.62371e-02
       H -3.73534e-01  9.78704e-02 -3.67059e-01
       H -2.77313e-01 -2.12475e-01 -5.85877e-02
       O  5.25190e-02 -1.70553e+00 -8.56197e-01
       H  1.36940e-01  1.98859e-01  5.01752e-01
       H -1.55890e-01  1.04568e-01 -3.29932e-01
       H  2.70391e-01  1.35583e+00  1.02379e+00
7
# CELL(abcABC):  529.17722   529.17722   529.17722    90.00000    90.00000    90.00000  Step:        5340  Bead:       0 forces{eV/ang}  cell{angstrom}
       O -1.36612e-01  3.00148e-02  4.23614e-02
       H -2.40304e-01 -2.29053e-01  2.35441e-01
       H  3.06083e-01  3.68715e-01 -3.00380e-01
       O -4.95287e-01 -9.87655e-01 -9.69418e-01
       H -4.90976e-02 -2.13788e-01 -1.69988e-01
       H  2.38951e-02  5.11014e-01  1.66477e-01
       H  5.91323e-01  5.20752e-01  9.95505e-01
7
# CELL(abcABC):  529.17722   529.17722   529.17722    90.00000    90.00000    90.00000  Step:        5360  Bead:       0 forces{eV/ang}  cell{angstrom}
       O -6.11224e-01  8.59575e-01  6.74627e-01
       H  3.00741e-01 -1.36498e+00  6.98377e-01
       H  1.09331e+00  2.30487e-01 -8.19334e-01
       O  1.89758e-01 -5.17465e-01  2.11975e-01
       H -4.00392e-01  1.03106e-01 -4.72860e-01
       H -3.88534e-01  2.11004e-01 -3.33754e-01
       H -1.83653e-01  4.78270e-01  4.09681e-02
7
# CELL(abcABC):  529.17722   529.17722   529.17722    90.00000    90.00000    90.00000  Step:        5380  Bead:       0 forces{eV/ang}  cell{angstrom}
       O -1.17470e+00  4.20104e-01  1.17147e-01
       H -3.28115e-01 -1.24815e+00  9.41399e-01
       H  1.94405e+00  6.72758e-01 -1.42893e+00
       O -1.02589e+00  4.34315e-01 -5.50163e-01
       H  2.69273e-02  9.05002e-02  6.87611e-01
       H  3.65150e-01  6.04637e-02  3.87247e-01
       H  1.92582e-01 -4.29994e-01 -1.54307e-01
7
# CELL(abcABC):  529.17722   529.17722   529.17722    90.00000    90.00000    90.00000  Step:        5400  Bead:       0 forces{eV/ang}  cell{angstrom}
       O -1.13014e+00  4.33181e-01  1.63236e+00
       H  4.89121e-01 -9.32423e-01  2.59459e-01
       H  1.33177e+00  4.35885e-02 -1.20250e+00
       O  6.87761e-01  3.90461e-01  1.59256e+00
       H -5.34494e-01  5.12041e-02 -1.03849e+00
       H -5.10269e-01  5.68046e-02 -3.59136e-01
       H -3.33747e-01 -4.28172e-02 -8.84249e-01
7
# CELL(abcABC):  529.17722   529.17722   529.17722    90.00000    90.00000    90.00000  Step:        5420  Bead:       0 forces{eV/ang}  cell{angstrom}
       O -4.70362e-01  1.28636e-01 -8.58581e-01
       H -3.56020e-01 -2.95494e-01  2.65643e-01
       H  2.36429e-01  2.99331e-01 -1.16817e-01
       O  6.25475e-01 -3.90947e-01  3.66131e-01
       H -1.07725e-01  4.72757e-01  9.34221e-01
       H  3.04726e-01  2.37188e-01  6.11940e-01
       H -2.32524e-01 -4.51469e-01 -1.20254e+00
7
# CELL(abcABC):  529.17722   529.17722   529.17722    90.00000    90.00000    90.00000  Step:        5440  Bead:       0 forces{eV/ang}  cell{angstrom}
       O  3.41894e-01  5.95216e-01 -7.05375e-01
       H -5.58677e-02  3.56743e-02 -5.68589e-02
       H -9.80041e-01 -3.44363e-01  6.55536e-01
       O  2.87791e-01  1.02729e-01  1.49386e+00
       H  5.43927e-01 -5.83519e-01 -8.72199e-01
       H -4.18315e-01  2.09536e-02 -6.12025e-01
       H  2.80612e-01  1.73309e-01  9.70602e-02
7
# CELL(abcABC):  529.17722   529.17722   529.17722    90.00000    90.00000    90.00000  Step:        5460  Bead:       0 forces{eV/ang}  cell{angstrom}
       O  1.23138e+00  1.94057e-01 -3.38552e-01
       H -5.24954e-01  5.15233e-01 -8.74295e-01
       H -1.30241e+00 -5.04088e-01  5.65798e-01
       O  7.63571e-01  3.50892e-01 -1.14839e+00
       H -4.92980e-01  5.15009e-01  1.06278e+00
       H  5.47846e-01 -6.81552e-01  1.09700e-01
       H -2.22450e-01 -3.89551e-01  6.22965e-01
7
# CELL(abcABC):  529.17722   529.17722   529.17722    90.00000    90.00000    90.00000  Step:        5480  Bead:       0 forces{eV/ang}  cell{angstrom}
       O  7.30176e-02 -3.92203e-01  1.16660e+00
       H  3.43621e-01  5.60594e-01 -1.39368e+00
       H -8.47695e-01 -1.83617e-01  5.33915e-01
       O  4.19024e-01  7.99529e-01  1.00704e+00
       H  2.62984e-01 -2.26135e-01 -1.08773e+00
       H -2.70896e-01 -4.43633e-01 -1.01991e+00
       H  1.99443e-02 -1.14534e-01  7.93765e-01
7
# CELL(abcABC):  529.17722   529.17722   529.17722    90.00000    90.00000    90.00000  Step:        5500  Bead:       0 forces{eV/ang}  cell{angstrom}
       O  1.99870e+00 -6.12670e-01  8.22865e-01
       H -5.42100e-01  3.27930e-01 -9.98392e-01
       H -4.72160e-01 -5.38425e-02  3.69921e-02
       O -8.41591e-01  1.18754e+00 -1.10814e+00
       H -5.10537e-01  1.81555e-01  1.12331e+00
       H  7.21721e-01 -6.87781e-01 -2.93274e-01
       H -3.54037e-01 -3.42727e-01  4.16639e-01
7
# CELL(abcABC):  529.17722   529.17722   529.17722    90.00000    90.00000    90.00000  Step:        5520  Bead:       0 forces{eV/ang}  cell{angstrom}
       O  1.12070e+00 -6.58988e-01  1.07220e+00
       H  5.76813e-01  1.17749e-01 -7.95331e-01
       H -9.82468e-01 -1.66494e-01  6.62509e-01
       O -8.64100e-01  1.82285e-01  7.17830e-01
       H  2.12887e-01  5.00829e-01 -1.29550e+00
       H -8.52598e-02  3.57168e-02 -7.76972e-01
       H  2.14253e-02 -1.10974e-02  4.15268e-01
7
# CELL(abcABC):  529.17722   529.17722   529.17722    90.00000    90.00000    90.00000  Step:        5540  Bead:       0 forces{eV/ang}  cell{angstrom}
       O  8.24091e-01  9.18437e-01 -2.06776e+00
       H -2.30255e-01  7.78746e-02  7.67375e-01
       H -4.82725e-01 -5.04564e-01  4.55625e-01
       O -3.62813e-01  5.34582e-01 -8.28887e-01
       H -6.34391e-01 -4.81973e-01  1.03853e+00
       H  3.40124e-01 -1.44164e-01  2.40045e-01
       H  5.45970e-01 -4.00194e-01  3.95071e-01
7
# CELL(abcABC):  529.17722   529.17722   529.17722    90.00000    90.00000    90.00000  Step:        5560  Bead:       0 forces{eV/ang}  cell{angstrom}
       O -6.00528e-01  2.85558e-01 -1.19328e+00
       H  4.34117e-01 -6.10141e-02  1.09959e+00
       H -6.88067e-01  2.77368e-02  2.78912e-01
       O  1.16924e+00 -5.23640e-01 -4.10518e-01
       H  5.65966e-01  6.93174e-02 -1.09506e+00
       H -1.20282e+00  4.85149e-01  5.51629e-01
       H  3.22094e-01 -2.83107e-01  7.68724e-01
7
# CELL(abcABC):  529.17722   529.17722   529.17722    90.00000    90.00000    90.00000  Step:        5580  Bead:       0 forces{eV/ang}  cell{angstrom}
       O -1.07944e+00  1.79644e-01 -7.77894e-01
       H  1.62192e-01  9.12534e-02  4.61450e-01
       H  3.21043e-02  4.69261e-02 -1.12969e-01
       O  1.48868e+00 -3.64086e-01 -1.46450e+00
       H  7.95396e-02  1.03633e-01  1.08964e+00
       H -4.63207e-01 -1.30426e-01  8.05249e-01
       H -2.19869e-01  7.30557e-02 -9.75076e-04
7
# CELL(abcABC):  529.17722   529.17722   529.17722    90.00000    90.00000    90.00000  Step:        5600  Bead:       0 forces{eV/ang}  cell{angstrom}
       O -6.84132e-01 -2.10348e-02  1.10225e+00
       H  5.48934e-01 -2.02209e-01  4.50566e-01
       H  3.08749e-01  2.69492e-01 -6.16566e-01
       O  9.38416e-01  8.33260e-02  1.19987e+00
       H -5.14219e-01  3.60722e-03 -1.17590e+00
       H -1.33162e-01 -1.29758e-02 -3.65315e-02
       H -4.64587e-01 -1.20206e-01 -9.23696e-01
7
# CELL(abcABC):  529.17722   529.17722   529.17722    90.00000    90.00000    90.00000  Step:        5620  Bead:       0 forces{eV/ang}  cell{angstrom}
       O -1.16907e+00 -2.99968e-01  4.09224e-01
       H  1.81021e-01  1.45889e-01 -7.66780e-03
       H  1.41376e+00 -5.64631e-02 -8.19335e-01
       O -1.15743e+00  4.11371e-01  8.18352e-01
       H  3.75397e-01 -2.00547e-01  9.73703e-01
       H  7.35190e-01  1.30036e-01 -2.70145e-02
       H -3.78869e-01 -1.30318e-01 -1.34726e+00
7
# CELL(abcABC):  529.17722   529.17722   529.17722    90.00000    90.00000    90.00000  Step:        5640  Bead:       0 forces{eV/ang}  cell{angstrom}
       O  1.06295e+00 -9.37063e-01  5.98011e-01
       H -3.84641e-01  1.19485e-01  4.66355e-01
       H  1.73500e-01  7.79411e-02 -8.73316e-01
       O -3.94002e-03 -3.30460e-01  1.07354e+00
       H -4.30557e-01  7.88463e-01 -5.99654e-01
       H -1.21392e-01  3.19547e-01 -8.46635e-01
       H -2.95923e-01 -3.79122e-02  1.81697e-01
7
# CELL(abcABC):  529.17722   529.17722   529.17722    90.00000    90.00000    90.00000  Step:        5660  Bead:       0 forces{eV/ang}  cell{angstrom}
       O -1.45075e+00  6.05017e-01 -1.59821e-02
       H  3.98765e-01  1.28015e-02 -5.20860e-02
       H  6.07110e-01  4.15842e-02 -3.25142e-02
       O -1.03003e+00 -1.87232e-01 -1.42516e+00
       H -1.81831e-01 -6.78634e-01  1.33487e-01
       H  5.51900e-01 -3.29433e-02  4.68494e-01
       H  1.10483e+00  2.39406e-01  9.23756e-01
7
# CELL(abcABC):  529.17722   529.17722   529.17722    90.00000    90.00000    90.00000  Step:        5680  Bead:       0 forces{eV/ang}  cell{angstrom}
       O  8.45856e-01  1.37155e-01 -1.71550e-01
       H -2.07279e-01 -1.28370e-01  3.12950e-01
       H -1.45242e+00  8.91008e-02  1.07472e-01
       O  1.48189e+00 -1.25979e+00 -2.13896e+00
       H  7.03170e-02  6.62014e-01 -2.90070e-01
       H -8.52903e-01  2.04465e-02  2.68974e-01
       H  1.14540e-01  4.79439e-01  1.91118e+00
7
# CELL(abcABC):  529.17722   529.17722   529.17722    90.00000    90.00000    90.00000  Step:        5700  Bead:       0 forces{eV/ang}  cell{angstrom}
       O  4.70571e-01  4.95813e-01 -1.82070e+00
       H  5.20031e-01 -4.31994e-02  2.55634e-01
       H -1.52552e+00 -3.67167e-01  1.40985e+00
       O -9.73706e-01  3.23199e-01 -2.05893e+00
       H  7.45069e-01 -2.39102e-01  3.34767e-01
       H -3.02265e-01  7.43761e-02  1.07804e+00
       H  1.06582e+00 -2.43920e-01  8.01345e-01
7
# CELL(abcABC):  529.17722   529.17722   529.17722    90.00000    90.00000    90.00000  Step:        5720  Bead:       0 forces{eV/ang}  cell{angstrom}
       O  3.25798e+00 -4.09144e-01 -7.41815e-01
       H -3.17448e-01  1.07298e-01 -2.06572e-02
       H -1.55883e+00 -4.89685e-01  8.11597e-01
       O  6.17261e-01 -7.18265e-02 -6.59120e-01
       H -1.27513e+00  5.59907e-01 -4.80679e-01
       H -1.01168e+00  4.37269e-01  8.01063e-01
       H  2.87859e-01 -1.33818e-01  2.89612e-01
7
# CELL(abcABC):  529.17722   529.17722   529.17722    90.00000    90.00000    90.00000  Step:        5740  Bead:       0 forces{eV/ang}  cell{angstrom}
       O  6.75479e-01  6.55953e-01 -4.66541e-01
       H  1.07698e-01  2.02671e-01 -5.41910e-01
       H -7.05421e-01 -8.20186e-01  8.46140e-01
       O -8.27173e-01  7.99311e-01  1.19780e+00
       H  2.97635e-01 -4.40728e-01 -5.68264e-02
       H  3.56868e-01  3.66025e-02 -2.61823e-01
       H  9.49130e-02 -4.33624e-01 -7.16845e-01
7
# CELL(abcABC):  529.17722   529.17722   529.17722    90.00000    90.00000    90.00000  Step:        5760  Bead:       0 forces{eV/ang}  cell{angstrom}
       O  9.44854e-01 -4.54530e-04  7.39968e-01
       H -1.22228e-01 -1.48907e-01 -5.87948e-01
       H -3.72043e-01 -2.88110e-01 -1.15561e-01
       O -1.83924e-02  4.55053e-01  1.06914e+00
       H  8.41296e-02  4.68745e-01  3.75825e-01
       H  4.10666e-01 -3.37794e-01 -8.89464e-01
       H -9.26986e-01 -1.48532e-01 -5.91965e-01
7
# CELL(abcABC):  529.17722   529.17722   529.17722    90.00000    90.00000    90.00000  Step:        5780  Bead:       0 forces{eV/ang}  cell{angstrom}
       O -1.07545e+00 -8.12646e-01  1.14958e+00
       H  2.25455e-01  1.55056e-01 -5.65209e-01
       H  1.30401e+00  8.09478e-01 -2.80743e-01
       O -1.04478e+00  2.17950e-01 -1.00774e-01
       H -2.10895e-01 -5.09771e-01 -3.98246e-01
       H  3.24173e-01  1.21295e-01  2.10546e-01
       H  4.77490e-01  1.86376e-02 -1.51547e-02
7
# CELL(abcABC):  529.17722   529.17722   529.17722    90.00000    90.00000    90.00000  Step:        5800  Bead:       0 forces{eV/ang}  cell{angstrom}
       O -1.48837e+00 -4.77773e-01 -3.82363e-02
       H  1.38716e-01 -5.17325e-01  6.09756e-01
       H  1.15339e+00  1.02623e+00 -6.15854e-01
       O -7.61464e-02 -6.54417e-01 -4.11314e-01
       H  2.50074e-01  2.45449e-01  3.47938e-01
       H  2.31796e-01 -8.65520e-02 -4.54522e-01
       H -2.09463e-01  4.64385e-01  5.62232e-01
7
# CELL(abcABC):  529.17722   529.17722   529.17722    90.00000    90.00000    90.00000  Step:        5820  Bead:       0 forces{eV/ang}  cell{angstrom}
       O -1.84753e+00  9.75443e-01 -6.79734e-01
       H  7.10079e-01 -1.71066e+00  1.39752e+00
       H  9.50611e-01  9.13052e-01 -5.84358e-01
       O -7.40723e-01 -7.42121e-01  7.11876e-02
       H -3.65791e-02 -1.50662e-01 -5.09474e-01
       H  2.82046e-01  3.34924e-01  1.67911e-01
       H  6.82093e-01  3.80024e-01  1.36943e-01
7
# CELL(abcABC):  529.17722   529.17722   529.17722    90.00000    90.00000    90.00000  Step:        5840  Bead:       0 forces{eV/ang}  cell{angstrom}
       O -1.17177e+00  1.24775e+00 -9.38459e-01
       H  6.47359e-01 -1.44846e+00  8.68826e-01
       H  7.16594e-01  2.65554e-01 -1.27600e-01
       O -2.11089e-01 -5.37877e-02 -1.09700e+00
       H  1.57450e-01 -1.19688e-01  7.79696e-01
       H  7.00848e-02 -1.82813e-01  2.96510e-02
       H -2.08630e-01  2.91439e-01  4.84888e-01
7
# CELL(abcABC):  529.17722   529.17722   529.17722    90.00000    90.00000    90.00000  Step:        5860  Bead:       0 forces{eV/ang}  cell{angstrom}
       O  6.23680e-01 -5.42827e-02 -9.97719e-02
       H -4.91975e-04 -6.07753e-01  3.39508e-01
       H -4.51355e-01  2.80102e-01  6.60365e-03
       O  5.72909e-01  3.41874e-01  7.44147e-01
       H -3.58510e-02  1.81722e-01 -8.19321e-01
       H -3.46755e-01  2.93286e-01  6.03097e-01
       H -3.62137e-01 -4.34947e-01 -7.74264e-01
7
# CELL(abcABC):  529.17722   529.17722   529.17722    90.00000    90.00000    90.00000  Step:        5880  Bead:       0 forces{eV/ang}  cell{angstrom}
       O -8.52155e-02  7.69220e-01 -5.30588e-01
       H  2.13795e-01  4.76568e-01 -9.19979e-02
       H -2.80376e-01 -8.88497e-01  2.83857e-01
       O  1.36031e+00  3.45779e-01  6.19809e-01
       H  1.39459e-02 -3.87478e-01  6.28430e-01
       H -2.90944e-02 -6.80050e-03 -2.17637e-03
       H -1.19336e+00 -3.08791e-01 -9.07334e-01
7
# CELL(abcABC):  529.17722   529.17722   529.17722    90.00000    90.00000    90.00000  Step:        5900  Bead:       0 forces{eV/ang}  cell{angstrom}
       O  9.43259e-01 -1.07155e+00  1.52049e+00
       H -4.51700e-01  8.90270e-01 -1.02965e+00
       H -7.87890e-01 -9.00371e-02 -3.54385e-01
       O  1.50729e+00  6.53683e-01  1.20976e+00
       H  4.86207e-01  1.55793e-01 -3.76745e-01
       H -3.17766e-01 -6.59234e-03 -4.72302e-02
       H -1.37940e+00 -5.31562e-01 -9.22233e-01
7
# CELL(abcABC):  529.17722   529.17722   529.17722    90.00000    90.00000    90.00000  Step:        5920  Bead:       0 forces{eV/ang}  cell{angstrom}
       O  6.77655e-01  5.06073e-01  1.15876e+00
       H -6.91096e-02  1.19292e+00 -7.94735e-01
       H -2.59473e-01 -1.38474e+00 -2.22244e-01
       O  6.11400e-01  2.28563e-01  1.30836e-01
       H -3.17585e-01 -4.09316e-01 -1.78564e-01
       H -4.50963e-02  3.31167e-01  5.20070e-01
       H -5.97791e-01 -4.64664e-01 -6.14124e-01
7
# CELL(abcABC):  529.17722   529.17722   529.17722    90.00000    90.00000    90.00000  Step:        5940  Bead:       0 forces{eV/ang}  cell{angstrom}
       O  5.82225e-01 -2.55895e-01  2.49807e-01
       H -1.19301e-01  5.40240e-01 -4.18044e-01
       H -5.64402e-01 -5.77186e-01 -8.07463e-02
       O  3.59418e-01 -8.43784e-01 -9.09078e-01
       H  3.28175e-01  6.91856e-01  7.16364e-01
       H -1.03249e-01  3.21154e-01  4.39142e-01
       H -4.82865e-01  1.23616e-01  2.55538e-03
7
# CELL(abcABC):  529.17722   529.17722   529.17722    90.00000    90.00000    90.00000  Step:        5960  Bead:       0 forces{eV/ang}  cell{angstrom}
       O -2.27349e-01  1.00780e-01  9.25858e-01
       H -1.85113e-01  3.77662e-01 -3.38075e-01
       H -4.18032e-02 -5.68866e-02 -8.24955e-02
       O  8.33285e-01  1.80301e-01  3.02974e-01
       H -9.08411e-02 -7.64389e-01 -1.03036e+00
       H -3.70525e-01  4.46798e-01  3.91763e-01
       H  8.23464e-02 -2.84266e-01 -1.69663e-01
7
# CELL(abcABC):  529.17722   529.17722   529.17722    90.00000    90.00000    90.00000  Step:        5980  Bead:       0 forces{eV/ang}  cell{angstrom}
       O -1.28652e+00 -1.08591e+00  1.47382e-01
       H -3.19936e-02 -8.78813e-02  1.38280e-01
       H  1.19655e+00  1.06501e+00 -5.79786e-01
       O -9.86908e-01 -5.81860e-01 -6.30014e-01
       H  2.01461e-01  4.06286e-01  7.68068e-01
       H  3.95348e-01 -1.20045e-01 -8.96170e-02
       H  5.12060e-01  4.04397e-01  2.45688e-01
7
# CELL(abcABC):  529.17722   529.17722   529.17722    90.00000    90.00000    90.00000  Step:        6000  Bead:       0 forces{eV/ang}  cell{angstrom}
       O -1.45166e+00 -6.52548e-01  3.33114e-01
       H  6.75744e-01 -5.35480e-01  3.89384e-01
       H  1.54324e+00  8.64170e-01 -6.69362e-01
       O -1.56786e+00  5.80257e-01  6.72596e-01
       H -1.91921e-01 -2.78094e-01 -4.14586e-01
       H -7.77803e-02 -6.45422e-01 -7.39024e-01
       H  1.07024e+00  6.67116e-01  4.27878e-01
7
# CELL(abcABC):  529.17722   529.17722   529.17722    90.00000    90.00000    90.00000  Step:        6020  Bead:       0 forces{eV/ang}  cell{angstrom}
       O  2.24784e-01 -9.35593e-01  3.24786e-01
       H -1.15457e-01 -6.64543e-01  6.58813e-01
       H  4.87909e-01  1.14662e+00 -9.73313e-01
       O -1.75612e+00  3.98474e-01  1.20450e+00
       H -8.74224e-02  2.34032e-01 -1.59563e-01
       H  4.17754e-01 -9.43126e-01 -1.26311e+00
       H  8.28552e-01  7.64135e-01  2.07888e-01
7
# CELL(abcABC):  529.17722   529.17722   529.17722    90.00000    90.00000    90.00000  Step:        6040  Bead:       0 forces{eV/ang}  cell{angstrom}
       O -1.74863e+00  8.05700e-01 -6.12272e-01
       H  6.96822e-01 -1.43188e-01  5.06764e-01
       H  8.13550e-01 -7.64877e-02 -9.35363e-02
       O -3.54378e-01 -6.82622e-02  1.16544e+00
       H -1.30523e-01 -3.21490e-01  4.97034e-01
       H  5.32698e-01 -7.11809e-01 -1.43371e+00
       H  1.90461e-01  5.15537e-01 -2.97262e-02
7
# CELL(abcABC):  529.17722   529.17722   529.17722    90.00000    90.00000    90.00000  Step:        6060  Bead:       0 forces{eV/ang}  cell{angstrom}
       O  4.78899e-01  9.55358e-01 -2.63084e-01
       H  4.62128e-02 -5.46873e-01  6.16428e-01
       H -1.10699e+00 -2.64718e-01  1.46571e-01
       O  1.01861e+00  1.82625e-01  1.18943e+00
       H -1.74414e-01  2.53044e-01 -6.18655e-01
       H -2.73154e-02 -3.94661e-01 -9.74150e-01
       H -2.34998e-01 -1.84776e-01 -9.65417e-02
7
# CELL(abcABC):  529.17722   529.17722   529.17722    90.00000    90.00000    90.00000  Step:        6080  Bead:       0 forces{eV/ang}  cell{angstrom}
       O  6.73709e-02  1.04927e+00 -1.11007e+00
       H  2.22696e-01  1.48022e-01 -2.92156e-01
       H -6.91570e-01 -9.38937e-01  1.30924e+00
       O  8.36384e-01  9.49989e-01 -4.72662e-02
       H  4.73405e-01 -3.85647e-01  3.14970e-01
       H -9.42766e-02 -2.52952e-01 -2.10163e-01
       H -8.14010e-01 -5.69749e-01  3.54428e-02
7
# CELL(abcABC):  529.17722   529.17722   529.17722    90.00000    90.00000    90.00000  Step:        6100  Bead:       0 forces{eV/ang}  cell{angstrom}
       O  2.57678e+00 -7.05970e-01 -3.82251e-01
       H -4.55620e-01  2.17318e-01 -7.74025e-01
       H -8.06687e-01 -3.74078e-01  8.81627e-01
       O  3.68829e-01  2.29743e-01 -2.24086e-01
       H -9.71006e-01  5.91497e-01  7.42738e-02
       H -1.84251e-02  5.57705e-01  5.26124e-01
       H -6.93875e-01 -5.16215e-01 -1.01664e-01
7
# CELL(abcABC):  529.17722   529.17722   529.17722    90.00000    90.00000    90.00000  Step:        6120  Bead:       0 forces{eV/ang}  cell{angstrom}
       O  1.55385e+00 -1.46684e-01  2.67816e-01
       H -1.08623e+00  4.03939e-01 -9.73092e-01
       H -2.14343e-01 -3.91836e-01  5.12267e-01
       O -1.72810e-01 -3.28451e-01 -1.16706e+00
       H  5.79575e-01 -1.66241e-01  2.51465e-02
       H -7.65902e-02  9.85056e-01  1.29566e+00
       H -5.83446e-01 -3.55783e-01  3.92651e-02
7
# CELL(abcABC):  529.17722   529.17722   529.17722    90.00000    90.00000    90.00000  Step:        6140  Bead:       0 forces{eV/ang}  cell{angstrom}
       O  7.94274e-01 -6.08507e-01  1.45245e+00
       H -1.10921e+00  4.82935e-01 -8.21694e-01
       H  1.48347e-01  2.69629e-01 -3.13011e-01
       O  1.00799e+00 -1.38273e-01 -5.20553e-01
       H -2.58811e-01 -6.71013e-03 -4.31037e-01
       H  1.00827e-02  6.13009e-01  8.46284e-01
       H -5.92668e-01 -6.12083e-01 -2.12439e-01
7
# CELL(abcABC):  529.17722   529.17722   529.17722    90.00000    90.00000    90.00000  Step:        6160  Bead:       0 forces{eV/ang}  cell{angstrom}
       O -2.87149e-01  1.61222e-01  1.94141e-01
       H -4.03999e-01  2.04527e-01 -7.56302e-02
       H  1.78945e-01 -3.31791e-02 -9.27888e-02
       O  9.48177e-01 -5.51601e-01 -2.63329e-01
       H -2.00182e-03  1.61563e-01  1.78589e-01
       H -1.74303e-02  2.88148e-02 -1.13912e-02
       H -4.16542e-01  2.86533e-02  7.04100e-02
7
# CELL(abcABC):  529.17722   529.17722   529.17722    90.00000    90.00000    90.00000  Step:        6180  Bead:       0 forces{eV/ang}  cell{angstrom}
       O -5.62791e-01  5.28641e-01 -2.50340e-01
       H  4.97271e-01 -1.79167e-01  3.17662e-01
       H -5.05848e-02 -1.87164e-01  9.59144e-02
       O -7.34269e-01  7.58927e-02  9.76626e-01
       H  5.09336e-01 -3.76501e-01 -4.52264e-01
       H -1.53852e-01 -3.13763e-01 -8.09504e-01
       H  4.94890e-01  4.52062e-01  1.21906e-01
7
# CELL(abcABC):  529.17722   529.17722   529.17722    90.00000    90.00000    90.00000  Step:        6200  Bead:       0 forces{eV/ang}  cell{angstrom}
       O -8.75121e-01  3.49481e-01 -1.65966e+00
       H  1.17312e+00 -1.28590e-01  1.05668e+00
       H -1.46153e-01 -2.67309e-01  2.87544e-01
       O -9.22004e-01 -3.66525e-01  7.68601e-01
       H -1.97255e-01  1.06703e-01  4.94575e-01
       H -9.79241e-02 -4.85533e-01 -1.20729e+00
       H  1.06534e+00  7.91773e-01  2.59550e-01
7
# CELL(abcABC):  529.17722   529.17722   529.17722    90.00000    90.00000    90.00000  Step:        6220  Bead:       0 forces{eV/ang}  cell{angstrom}
       O -2.12399e+00 -3.13273e-01 -1.32848e+00
       H  2.19680e+00  3.84894e-02  1.29287e+00
       H  9.62890e-02  4.55309e-02  2.24936e-01
       O -1.47446e+00 -1.52583e-01  1.11745e+00
       H -1.17522e-01  3.32076e-01 -1.37252e-01
       H  1.56364e-01 -4.49660e-01 -1.31386e+00
       H  1.26651e+00  4.99420e-01  1.44342e-01
7
# CELL(abcABC):  529.17722   529.17722   529.17722    90.00000    90.00000    90.00000  Step:        6240  Bead:       0 forces{eV/ang}  cell{angstrom}
       O -4.71251e-01  1.33223e-01  1.73385e-01
       H  3.51199e-01 -1.34473e-01  6.58337e-01
       H -2.53080e-01  1.40084e-01 -7.45055e-01
       O  4.24303e-02  2.66615e-01  3.09038e-01
       H  2.16955e-01 -1.10392e-01  1.20051e-01
       H -2.33405e-01 -3.61863e-01 -8.37048e-01
       H  3.47152e-01  6.68062e-02  3.21292e-01
7
# CELL(abcABC):  529.17722   529.17722   529.17722    90.00000    90.00000    90.00000  Step:        6260  Bead:       0 forces{eV/ang}  cell{angstrom}
       O -4.09718e-01 -1.41144e-01  1.43815e+00
       H -1.28726e-01 -4.66696e-02 -1.68826e-01
       H  1.85682e-01  3.97155e-01 -1.12436e+00
       O  2.22868e-01  7.78806e-02 -7.33875e-02
       H  9.74817e-02 -1.94745e-01 -5.80291e-03
       H  6.12101e-02 -1.24294e-02  7.67108e-02
       H -2.87981e-02 -8.00480e-02 -1.42477e-01
7
# CELL(abcABC):  529.17722   529.17722   529.17722    90.00000    90.00000    90.00000  Step:        6280  Bead:       0 forces{eV/ang}  cell{angstrom}
       O  1.45825e+00 -4.38862e-01  2.01910e+00
       H -1.11702e+00 -2.10932e-01 -3.95310e-01
       H -9.71556e-02  4.21684e-01 -1.75855e+00
       O  7.97913e-01 -1.97311e-02 -5.40493e-01
       H -3.60011e-01  2.81211e-01  2.43113e-01
       H  5.54237e-02 -7.04359e-02  8.45860e-01
       H -7.37398e-01  3.70667e-02 -4.13725e-01
7
# CELL(abcABC):  529.17722   529.17722   529.17722    90.00000    90.00000    90.00000  Step:        6300  Bead:       0 forces{eV/ang}  cell{angstrom}
       O  4.39587e-01  2.91959e-01  5.15958e-01
       H -8.96605e-01 -2.24265e-01 -3.20355e-01
       H  1.13181e-01  1.35777e-02  9.03220e-03
       O  1.32669e+00  2.33536e-01 -4.95427e-01
       H  3.40729e-01 -1.51295e-01 -2.02908e-01
       H -3.82369e-02 -3.16825e-01  1.11427e+00
       H -1.28535e+00  1.53312e-01 -6.20570e-01
7
# CELL(abcABC):  529.17722   529.17722   529.17722    90.00000    90.00000    90.00000  Step:        6320  Bead:       0 forces{eV/ang}  cell{angstrom}
       O  8.77766e-01  2.14576e-01 -7.11330e-01
       H -9.13725e-01 -2.65080e-01 -1.16846e-02
       H  1.36664e-01 -1.87799e-02  5.67715e-01
       O  1.62453e+00  2.52191e-01 -3.95248e-01
       H -2.38978e-01  8.54899e-03  1.71615e-01
       H -2.69594e-01 -3.09087e-01  6.82606e-01
       H -1.21666e+00  1.17631e-01 -3.03673e-01
7
# CELL(abcABC):  529.17722   529.17722   529.17722    90.00000    90.00000    90.00000  Step:        6340  Bead:       0 forces{eV/ang}  cell{angstrom}
       O -1.87124e-01 -6.20171e-02 -1.12523e+00
       H -1.16227e-01 -1.16183e-01 -2.05332e-01
       H  4.85637e-01  1.77316e-01  1.16661e+00
       O -1.17167e+00 -3.29070e-01  1.36384e+00
       H  1.89045e-01 -2.33888e-01 -1.82968e-01
       H  5.33936e-01  4.08785e-01 -7.40124e-01
       H  2.66401e-01  1.55057e-01 -2.76791e-01
7
# CELL(abcABC):  529.17722   529.17722   529.17722    90.00000    90.00000    90.00000  Step:        6360  Bead:       0 forces{eV/ang}  cell{angstrom}
       O -1.84860e-01 -5.47736e-01 -1.07120e+00
       H  5.56292e-01  5.32701e-01  1.13402e-01
       H -1.60164e-01 -4.02683e-03  9.72516e-01
       O -5.90585e-01 -1.03936e+00  4.68876e-01
       H -6.81503e-02  2.65396e-01 -4.66434e-03
       H -3.29645e-01  1.37462e+00 -1.42271e+00
       H  7.77114e-01 -5.81594e-01  9.43782e-01
7
# CELL(abcABC):  529.17722   529.17722   529.17722    90.00000    90.00000    90.00000  Step:        6380  Bead:       0 forces{eV/ang}  cell{angstrom}
       O -6.10685e-01 -8.78617e-01 -1.93091e-01
       H  7.08431e-01  8.94583e-01 -1.82560e-01
       H -1.66933e-01  1.74036e-01  4.29125e-01
       O -2.59690e+00 -1.14794e+00  5.94027e-01
       H  6.88928e-02 -8.26645e-02  3.85481e-01
       H  8.14285e-01  1.48843e+00 -1.53344e+00
       H  1.78291e+00 -4.47828e-01  5.00456e-01
7
# CELL(abcABC):  529.17722   529.17722   529.17722    90.00000    90.00000    90.00000  Step:        6400  Bead:       0 forces{eV/ang}  cell{angstrom}
       O  1.77275e-01 -5.60156e-02 -3.94708e-03
       H  4.57792e-03  3.35198e-02  7.86983e-02
       H -1.80929e-01 -9.36475e-02  6.11932e-02
       O -1.08936e+00 -1.03679e+00  8.50226e-01
       H -1.95271e-01  4.09999e-01 -8.99952e-02
       H  1.89607e-01  1.33284e+00 -1.13988e+00
       H  1.09410e+00 -5.89908e-01  2.43703e-01
7
# CELL(abcABC):  529.17722   529.17722   529.17722    90.00000    90.00000    90.00000  Step:        6420  Bead:       0 forces{eV/ang}  cell{angstrom}
       O  2.85084e-01  5.65821e-01  1.20450e-01
       H -4.06721e-01 -4.57994e-01  1.11542e-01
       H  4.25969e-02 -5.15892e-02 -2.78609e-01
       O  2.40216e-01 -3.30619e-01  3.38348e-01
       H  1.70837e-01 -2.77655e-01  1.29168e-01
       H -9.19074e-02  6.70550e-01 -5.64547e-01
       H -2.40106e-01 -1.18514e-01  1.43649e-01
7
# CELL(abcABC):  529.17722   529.17722   529.17722    90.00000    90.00000    90.00000  Step:        6440  Bead:       0 forces{eV/ang}  cell{angstrom}
       O  7.83766e-02 -7.41384e-01 -7.77996e-01
       H -1.93407e-01  3.41537e-01  4.12559e-01
       H  2.77405e-02  1.34266e-01  2.51267e-01
       O  3.20016e-01 -3.73030e-01  6.31315e-01
       H  2.27319e-01  2.39452e-01 -2.21179e-01
       H  2.94207e-01 -3.65198e-01  1.79376e-01
       H -7.54253e-01  7.64356e-01 -4.75342e-01
7
# CELL(abcABC):  529.17722   529.17722   529.17722    90.00000    90.00000    90.00000  Step:        6460  Bead:       0 forces{eV/ang}  cell{angstrom}
       O -5.85009e-01 -7.13040e-01  1.81008e-01
       H  1.90355e-03 -4.47231e-02 -1.82120e-01
       H  3.80995e-01  1.06061e+00  3.18235e-01
       O  2.44904e+00  1.02385e+00 -9.95688e-01
       H -2.12847e-01 -5.00406e-01  4.31638e-02
       H -7.21727e-01 -1.19300e+00  6.20980e-01
       H -1.31236e+00  3.66710e-01  1.44208e-02
7
# CELL(abcABC):  529.17722   529.17722   529.17722    90.00000    90.00000    90.00000  Step:        6480  Bead:       0 forces{eV/ang}  cell{angstrom}
       O  1.57745e-01 -9.93207e-01 -1.03205e+00
       H -1.66430e-01 -3.51530e-02  3.08029e-01
       H  3.84867e-02  9.09885e-01  7.90310e-01
       O  7.71637e-01 -4.81191e-02  2.69138e-01
       H  9.28909e-02  3.26907e-01 -4.68923e-01
       H -1.71968e-01 -1.52751e+00  5.93626e-01
       H -7.22361e-01  1.36720e+00 -4.60126e-01
7
# CELL(abcABC):  529.17722   529.17722   529.17722    90.00000    90.00000    90.00000  Step:        6500  Bead:       0 forces{eV/ang}  cell{angstrom}
       O -7.73998e-02 -8.83679e-01 -6.77145e-02
       H  3.91264e-01  4.32018e-01 -6.02517e-01
       H -1.53429e-01  6.30779e-01  4.45055e-01
       O  1.59089e+00 -3.69609e-01 -5.09194e-01
       H  1.92434e-01 -2.45726e-01  2.48210e-01
       H -7.56655e-01 -7.21946e-01  4.49154e-01
       H -1.18710e+00  1.15816e+00  3.70060e-02
7
# CELL(abcABC):  529.17722   529.17722   529.17722    90.00000    90.00000    90.00000  Step:        6520  Bead:       0 forces{eV/ang}  cell{angstrom}
       O  3.07785e-01 -7.25297e-01 -1.91396e-01
       H  2.39250e-01  9.18628e-01 -1.07020e-01
       H -2.16373e-01 -4.45797e-01  1.75144e-01
       O  3.65958e-01 -3.45115e-01  2.12616e-01
       H -1.99266e-01  5.03392e-01 -1.90487e-01
       H -3.25100e-01 -6.64439e-01  2.84309e-01
       H -1.72255e-01  7.58628e-01 -1.83165e-01
7
# CELL(abcABC):  529.17722   529.17722   529.17722    90.00000    90.00000    90.00000  Step:        6540  Bead:       0 forces{eV/ang}  cell{angstrom}
       O -3.29034e-01 -5.33932e-01  9.75648e-01
       H  4.09259e-01  5.11608e-01 -6.85648e-01
       H -1.75188e-02 -2.53449e-02 -4.07948e-01
       O  3.85112e-01  7.24591e-01 -2.76835e-01
       H  7.93671e-02 -2.38592e-01 -2.70670e-02
       H -2.50448e-01 -2.51378e-01 -1.96477e-02
       H -2.76737e-01 -1.86951e-01  4.41497e-01
7
# CELL(abcABC):  529.17722   529.17722   529.17722    90.00000    90.00000    90.00000  Step:        6560  Bead:       0 forces{eV/ang}  cell{angstrom}
       O -1.54772e-02  4.70849e-01 -1.20538e-02
       H  1.62429e-01  2.23698e-01  5.28303e-01
       H -4.80759e-01 -8.24876e-01 -4.08308e-01
       O -6.72220e-01  1.00414e+00  4.86042e-02
       H  2.11622e-01  1.82572e-01  1.58384e-01
       H  4.46476e-01 -4.52796e-02 -2.23358e-01
       H  3.47930e-01 -1.01111e+00 -9.15709e-02
7
# CELL(abcABC):  529.17722   529.17722   529.17722    90.00000    90.00000    90.00000  Step:        6580  Bead:       0 forces{eV/ang}  cell{angstrom}
       O -1.97360e-01  6.88841e-01  1.60730e+00
       H -1.58049e-01 -2.25501e-01 -3.04152e-01
       H -1.38510e-02  4.10928e-03 -5.75036e-01
       O  3.53310e-01  5.51316e-01 -3.53152e-01
       H -1.80299e-01 -2.08340e-01 -3.72701e-02
       H  2.14330e-01  6.74956e-01  2.59172e-01
       H -1.80821e-02 -1.48538e+00 -5.96866e-01
7
# CELL(abcABC):  529.17722   529.17722   529.17722    90.00000    90.00000    90.00000  Step:        6600  Bead:       0 forces{eV/ang}  cell{angstrom}
       O -3.74813e-01  1.62222e-01 -1.81084e-01
       H  4.70642e-02  2.09361e-01  5.85876e-01
       H -1.41495e-01 -1.21845e-02  3.90616e-01
       O -9.36141e-01  1.03260e-01  3.14849e-01
       H  1.60297e-02  1.23582e-01 -9.67237e-02
       H  6.56432e-01  3.81958e-01  6.15994e-02
       H  7.32923e-01 -9.68199e-01 -1.07513e+00
7
# CELL(abcABC):  529.17722   529.17722   529.17722    90.00000    90.00000    90.00000  Step:        6620  Bead:       0 forces{eV/ang}  cell{angstrom}
       O -4.79940e-01  4.97417e-01  7.95855e-03
       H -4.45293e-01 -3.57881e-02 -8.50306e-02
       H  6.74744e-01 -2.50427e-02  1.19119e-01
       O -3.21860e-01  2.67121e-02 -2.70481e-01
       H -8.99872e-03 -5.97306e-01  3.73047e-01
       H  7.87354e-01  9.44267e-01  1.90562e-02
       H -2.06007e-01 -8.10259e-01 -1.63669e-01
7
# CELL(abcABC):  529.17722   529.17722   529.17722    90.00000    90.00000    90.00000  Step:        6640  Bead:       0 forces{eV/ang}  cell{angstrom}
       O  8.36635e-01  1.51282e-01 -1.87945e+00
       H -2.49295e-01 -2.44751e-01  1.98826e-01
       H -2.98974e-02 -4.08252e-01  1.42507e+00
       O -8.63855e-01 -8.95606e-01  1.10491e+00
       H -4.21101e-01  5.29699e-01 -3.86567e-01
       H  6.27291e-01 -2.19330e-02 -3.13167e-01
       H  1.00223e-01  8.89561e-01 -1.49622e-01
7
# CELL(abcABC):  529.17722   529.17722   529.17722    90.00000    90.00000    90.00000  Step:        6660  Bead:       0 forces{eV/ang}  cell{angstrom}
       O -1.25033e+00  5.25424e-01 -6.87500e-01
       H  6.77542e-01 -1.97472e-02 -1.21600e-01
       H  4.06881e-01 -6.13460e-01  5.44687e-01
       O  3.52363e-02 -1.76272e+00  2.59257e-01
       H  5.81008e-01 -4.06984e-01  2.52509e-02
       H  1.58540e-01  3.30202e-01 -2.54158e-01
       H -6.08874e-01  1.94728e+00  2.34063e-01
7
# CELL(abcABC):  529.17722   529.17722   529.17722    90.00000    90.00000    90.00000  Step:        6680  Bead:       0 forces{eV/ang}  cell{angstrom}
       O  4.91184e-01  3.28297e-01  5.66294e-02
       H -2.10367e-01 -6.45325e-03 -2.40806e-01
       H -1.51427e-01 -4.45530e-01  5.69605e-01
       O  7.49225e-01 -9.67489e-01 -4.06897e-01
       H -3.59301e-01  2.06430e-01 -1.23012e-01
       H -6.27596e-01 -9.52923e-01  3.48453e-01
       H  1.08283e-01  1.83767e+00 -2.03972e-01
7
# CELL(abcABC):  529.17722   529.17722   529.17722    90.00000    90.00000    90.00000  Step:        6700  Bead:       0 forces{eV/ang}  cell{angstrom}
       O  7.44912e-01  1.38552e-01  1.97181e-01
       H -7.50792e-01  5.42752e-01  2.05953e-02
       H -2.04834e-01 -2.93540e-01  1.92553e-01
       O  1.21007e+00 -1.23735e+00 -1.47057e+00
       H  3.29538e-02  7.15499e-02  1.55888e-01
       H -8.13730e-01 -1.83962e-01  6.10516e-01
       H -2.18583e-01  9.61998e-01  2.93839e-01
7
# CELL(abcABC):  529.17722   529.17722   529.17722    90.00000    90.00000    90.00000  Step:        6720  Bead:       0 forces{eV/ang}  cell{angstrom}
       O  1.94408e-02 -6.53917e-01  8.80973e-01
       H -5.85538e-01  1.16226e+00 -1.87468e-03
       H  2.66578e-01  1.59163e-01 -3.45467e-01
       O  2.97997e-01 -2.52962e-01 -3.67789e-01
       H  1.79889e-01 -1.95499e-01 -6.35429e-02
       H -6.85533e-01 -8.25951e-01  2.40704e-01
       H  5.07167e-01  6.06904e-01 -3.43003e-01
7
# CELL(abcABC):  529.17722   529.17722   529.17722    90.00000    90.00000    90.00000  Step:        6740  Bead:       0 forces{eV/ang}  cell{angstrom}
       O -1.63706e-01 -9.21325e-01  7.53866e-01
       H -4.46633e-02  1.37363e+00 -3.81660e-01
       H  3.11572e-01 -2.35374e-01 -2.15883e-01
       O  8.06237e-01 -1.34593e-01 -7.86219e-01
       H -2.53847e-01  5.80220e-02  9.49402e-02
       H -3.95098e-01  1.98990e-01  4.87947e-01
       H -2.60495e-01 -3.39349e-01  4.70101e-02
7
# CELL(abcABC):  529.17722   529.17722   529.17722    90.00000    90.00000    90.00000  Step:        6760  Bead:       0 forces{eV/ang}  cell{angstrom}
       O  3.02689e-01 -1.70391e+00 -1.94291e-01
       H -3.25338e-01  1.04833e+00 -3.03486e-02
       H -6.88984e-02  4.26347e-01  9.46061e-02
       O  1.26481e-01  1.86788e+00  1.66782e+00
       H  2.07825e-01 -1.18868e-01 -2.22428e-01
       H  1.38218e-01 -3.89020e-01 -5.47867e-01
       H -3.80976e-01 -1.13076e+00 -7.67489e-01
7
# CELL(abcABC):  529.17722   529.17722   529.17722    90.00000    90.00000    90.00000  Step:        6780  Bead:       0 forces{eV/ang}  cell{angstrom}
       O  2.24919e-01 -1.26746e+00 -4.03024e-01
       H  4.08304e-01  6.69902e-01 -5.01252e-01
       H -5.77785e-01 -2.40767e-01  2.06427e-01
       O  8.75867e-01  8.89733e-01  1.48462e-01
       H  6.68097e-02  3.31189e-01  2.41780e-01
       H  4.75489e-01  3.60149e-01 -1.58715e-03
       H -1.47360e+00 -7.42744e-01  3.09195e-01
7
# CELL(abcABC):  529.17722   529.17722   529.17722    90.00000    90.00000    90.00000  Step:        6800  Bead:       0 forces{eV/ang}  cell{angstrom}
       O  8.16977e-01  2.48841e-01  8.68171e-03
       H -3.35837e-02 -1.07149e-01 -3.54975e-02
       H -7.49112e-01 -2.10010e-01 -2.22914e-01
       O -1.90685e-01  1.24630e+00  1.61456e+00
       H  3.10229e-01 -4.51228e-01 -8.91019e-02
       H  9.69122e-02 -2.80853e-01 -6.10525e-01
       H -2.50738e-01 -4.45902e-01 -6.65199e-01
7
# CELL(abcABC):  529.17722   529.17722   529.17722    90.00000    90.00000    90.00000  Step:        6820  Bead:       0 forces{eV/ang}  cell{angstrom}
       O  2.09292e+00  7.53746e-02  6.04966e-02
       H -5.61971e-01 -6.43797e-01 -4.88360e-02
       H -1.18955e+00  2.78195e-01 -3.39464e-01
       O  1.49250e-01 -4.01349e-01 -5.17071e-01
       H -1.71822e-01  5.24217e-01  3.45515e-01
       H  9.36763e-02  3.60889e-01  4.39976e-01
       H -4.12505e-01 -1.93529e-01  5.93835e-02
7
# CELL(abcABC):  529.17722   529.17722   529.17722    90.00000    90.00000    90.00000  Step:        6840  Bead:       0 forces{eV/ang}  cell{angstrom}
       O  1.13975e+00  9.66041e-01  7.17148e-01
       H -1.69797e-01 -6.54034e-01 -1.77205e-01
       H -1.13408e+00  1.42494e-01 -6.71540e-02
       O -3.06020e-01 -4.22220e-01  3.99903e-01
       H -3.53544e-02 -1.69979e-01 -7.20351e-02
       H -1.44163e-01 -1.97924e-02 -5.79278e-01
       H  6.49662e-01  1.57491e-01 -2.21379e-01
7
# CELL(abcABC):  529.17722   529.17722   529.17722    90.00000    90.00000    90.00000  Step:        6860  Bead:       0 forces{eV/ang}  cell{angstrom}
       O  2.89948e-02  5.28167e-01  2.34405e-01
       H -6.56057e-01 -5.55171e-01 -3.89608e-01
       H  3.45620e-01  2.15434e-01  1.44133e-01
       O -2.17209e-01 -4.41437e-02 -1.87123e+00
       H  2.44903e-01 -2.50947e-01 -5.35326e-02
       H -8.58087e-02  9.42428e-02  5.66624e-01
       H  3.39556e-01  1.24179e-02  1.36921e+00
7
# CELL(abcABC):  529.17722   529.17722   529.17722    90.00000    90.00000    90.00000  Step:        6880  Bead:       0 forces{eV/ang}  cell{angstrom}
       O -4.42342e-01  7.54814e-01  3.43886e-01
       H -6.05950e-01 -4.39671e-01 -4.72375e-01
       H  6.45032e-01  1.76413e-02  1.52151e-01
       O  1.55535e-01 -3.25893e-01 -3.99855e-01
       H -7.92814e-02 -1.54746e-01  2.76004e-01
       H -6.81211e-01 -7.27879e-03 -5.83472e-01
       H  1.00822e+00  1.55133e-01  6.83662e-01
7
# CELL(abcABC):  529.17722   529.17722   529.17722    90.00000    90.00000    90.00000  Step:        6900  Bead:       0 forces{eV/ang}  cell{angstrom}
       O -6.27337e-02  2.69097e-01  2.24649e-01
       H -2.72326e-02 -2.94293e-01 -2.06588e-01
       H -7.45188e-03 -5.45190e-02  1.26477e-02
       O  1.42886e+00 -6.37722e-01 -4.95929e-01
       H -4.17253e-02  4.17080e-01 -1.20749e-01
       H -1.08304e+00  1.13304e-01  3.50045e-01
       H -2.06678e-01  1.87054e-01  2.35925e-01
7
# CELL(abcABC):  529.17722   529.17722   529.17722    90.00000    90.00000    90.00000  Step:        6920  Bead:       0 forces{eV/ang}  cell{angstrom}
       O -7.77433e-02 -7.19382e-01 -5.70721e-01
       H  3.73613e-01  5.33332e-01  5.54323e-01
       H  5.64070e-02 -1.44339e-01 -1.34882e-01
       O -1.76355e-01  1.02798e+00  8.89666e-01
       H -2.48565e-02 -3.27507e-01 -2.54930e-01
       H -8.07547e-01  2.48230e-02 -5.16477e-01
       H  6.56483e-01 -3.94905e-01  3.30219e-02
7
# CELL(abcABC):  529.17722   529.17722   529.17722    90.00000    90.00000    90.00000  Step:        6940  Bead:       0 forces{eV/ang}  cell{angstrom}
       O  3.02799e-01 -5.32160e-01 -4.76340e-01
       H  1.04680e-01  2.43224e-01  2.79168e-01
       H -5.07003e-02 -1.62250e-01 -1.50273e-01
       O  2.82389e-01 -6.13639e-01 -9.65992e-01
       H -7.03069e-02  3.51709e-01  3.06731e-01
       H -3.32248e-01  4.87969e-01  4.93945e-01
       H -2.36612e-01  2.25148e-01  5.12760e-01
7
# CELL(abcABC):  529.17722   529.17722   529.17722    90.00000    90.00000    90.00000  Step:        6960  Bead:       0 forces{eV/ang}  cell{angstrom}
       O  4.52268e-03  3.09530e-01  2.53862e-01
       H -7.92614e-02 -1.10188e-01 -6.39009e-02
       H -1.66943e-01  4.25258e-02  8.31596e-03
       O -9.14160e-02  6.12132e-01  3.60158e-01
       H  2.23340e-01 -3.07347e-01 -2.53857e-01
       H -6.85191e-02 -2.85249e-01 -3.68774e-01
       H  1.78276e-01 -2.61404e-01  6.41965e-02
7
# CELL(abcABC):  529.17722   529.17722   529.17722    90.00000    90.00000    90.00000  Step:        6980  Bead:       0 forces{eV/ang}  cell{angstrom}
       O  4.00892e-01  6.42289e-01  1.79592e-01
       H -1.92857e-01 -1.90051e-02 -6.79408e-02
       H -4.08326e-01  1.44592e-01  1.63310e-01
       O  5.32014e-01 -8.24070e-01 -4.83693e-01
       H -1.33332e-01 -1.61971e-01  2.23686e-01
       H  5.49281e-02 -7.00745e-02 -1.56599e-03
       H -2.53319e-01  2.88239e-01 -1.33884e-02
7
# CELL(abcABC):  529.17722   529.17722   529.17722    90.00000    90.00000    90.00000  Step:        7000  Bead:       0 forces{eV/ang}  cell{angstrom}
       O -1.67288e-01 -5.96578e-01 -4.44419e-01
       H  2.00614e-01  1.74045e-01  1.06542e-01
       H -2.65364e-01  2.69442e-01  3.09693e-01
       O  2.07542e-01 -6.45360e-02  7.34548e-01
       H  2.28240e-01  2.99563e-01  6.93896e-02
       H -2.32866e-02 -1.02259e-01 -2.34682e-01
       H -1.80458e-01  2.03239e-02 -5.41072e-01
7
# CELL(abcABC):  529.17722   529.17722   529.17722    90.00000    90.00000    90.00000  Step:        7020  Bead:       0 forces{eV/ang}  cell{angstrom}
       O -6.85411e-01 -3.25963e-02  1.46061e-01
       H  8.58769e-01  4.39304e-01  2.71866e-02
       H  7.17983e-03 -3.47863e-01 -3.65272e-01
       O  1.22775e-02  1.81330e-01  1.10173e+00
       H -1.51185e-01 -3.09921e-01 -1.79864e-01
       H  1.09514e-01 -1.48840e-01  6.37299e-02
       H -1.51145e-01  2.18587e-01 -7.93575e-01
7
# CELL(abcABC):  529.17722   529.17722   529.17722    90.00000    90.00000    90.00000  Step:        7040  Bead:       0 forces{eV/ang}  cell{angstrom}
       O -7.78105e-01  1.83745e-02  1.50672e-01
       H  3.69309e-01  2.27505e-01  4.56241e-01
       H  5.90942e-01  3.45103e-02 -5.69589e-01
       O -3.60704e-02  2.84623e-01 -5.91226e-02
       H -2.45715e-01 -2.93251e-01 -1.46464e-02
       H  2.15648e-02 -3.14715e-01  4.79388e-01
       H  7.80758e-02  4.29533e-02 -4.42943e-01
7
# CELL(abcABC):  529.17722   529.17722   529.17722    90.00000    90.00000    90.00000  Step:        7060  Bead:       0 forces{eV/ang}  cell{angstrom}
       O -1.39183e+00 -5.94118e-01  1.47606e+00
       H  6.03385e-01  1.53767e-01 -1.82413e-01
       H  3.67111e-01  2.63410e-01 -9.18680e-01
       O  8.04572e-01  8.84423e-01 -7.14259e-01
       H  3.73403e-01  5.97465e-01 -1.60066e-01
       H -6.49033e-01 -9.15191e-01  5.62997e-01
       H -1.07607e-01 -3.89757e-01 -6.36396e-02
7
# CELL(abcABC):  529.17722   529.17722   529.17722    90.00000    90.00000    90.00000  Step:        7080  Bead:       0 forces{eV/ang}  cell{angstrom}
       O  7.66806e-01  8.06372e-01  2.61967e-01
       H -7.63585e-01 -4.43662e-01  7.65663e-02
       H  1.58761e-01  1.99238e-02 -1.27541e-01
       O  7.15020e-01 -3.70499e-02 -1.05269e-01
       H -4.91675e-01 -7.66189e-03  1.91908e-01
       H -3.60528e-01 -2.95215e-01  6.79321e-01
       H -2.47993e-02 -4.27076e-02 -9.76953e-01
7
# CELL(abcABC):  529.17722   529.17722   529.17722    90.00000    90.00000    90.00000  Step:        7100  Bead:       0 forces{eV/ang}  cell{angstrom}
       O  1.95186e+00  1.89187e+00 -1.13358e+00
       H -1.59798e+00 -1.82084e+00 -8.05490e-02
       H -4.41876e-01 -1.95939e-01  1.08272e+00
       O -5.33739e-01  1.29956e+00  1.84063e+00
       H  5.69849e-01 -8.04277e-01 -4.59526e-01
       H  6.21044e-02 -1.90084e-01 -2.02671e-01
       H -1.02221e-02 -1.80299e-01 -1.04703e+00
7
# CELL(abcABC):  529.17722   529.17722   529.17722    90.00000    90.00000    90.00000  Step:        7120  Bead:       0 forces{eV/ang}  cell{angstrom}
       O  2.03073e+00 -3.21762e-02 -1.97132e+00
       H -1.32698e+00 -1.33247e+00  6.13179e-01
       H -1.97343e-01  2.81815e-01  7.96637e-01
       O -1.15556e-01 -5.53719e-01 -1.05354e-01
       H -4.95222e-01  8.93658e-01  4.26993e-01
       H  6.52796e-02  2.84610e-01  1.72074e-01
       H  3.90951e-02  4.58286e-01  6.77945e-02
7
# CELL(abcABC):  529.17722   529.17722   529.17722    90.00000    90.00000    90.00000  Step:        7140  Bead:       0 forces{eV/ang}  cell{angstrom}
       O  3.61646e-01  1.21401e+00  1.65756e-01
       H -3.76029e-01 -7.28946e-01 -1.42620e-01
       H -1.53048e-01 -2.52075e-01  7.82139e-02
       O -5.69758e-01  1.90112e-02 -6.80832e-01
       H  4.08409e-01 -5.73876e-01 -4.99825e-01
       H  1.37213e-01  3.96802e-01 -6.39020e-01
       H  1.91568e-01 -7.49225e-02  1.71833e+00
7
# CELL(abcABC):  529.17722   529.17722   529.17722    90.00000    90.00000    90.00000  Step:        7160  Bead:       0 forces{eV/ang}  cell{angstrom}
       O -9.59178e-01 -2.94154e-01  1.19325e+00
       H  4.37097e-01  6.34444e-01  3.50366e-01
       H  5.04045e-01  2.59463e-01 -1.38290e+00
       O -2.06111e-01 -1.73863e+00 -1.74880e+00
       H -3.01057e-01 -9.81931e-02  2.16175e-01
       H  1.03438e-01  6.87029e-01 -3.09097e-02
       H  4.21765e-01  5.50037e-01  1.40282e+00
7
# CELL(abcABC):  529.17722   529.17722   529.17722    90.00000    90.00000    90.00000  Step:        7180  Bead:       0 forces{eV/ang}  cell{angstrom}
       O -1.34554e+00 -4.27948e-01  2.30709e+00
       H  9.95581e-01  5.73754e-01 -6.87615e-01
       H  1.07505e-01 -2.44775e-01 -1.50115e+00
       O -3.71552e-02 -5.73362e-01 -5.59590e-01
       H  1.35994e-01  4.43109e-01 -8.13177e-03
       H -1.13727e-01  2.18178e-01 -4.85784e-01
       H  2.57346e-01  1.10444e-02  9.35181e-01
7
# CELL(abcABC):  529.17722   529.17722   529.17722    90.00000    90.00000    90.00000  Step:        7200  Bead:       0 forces{eV/ang}  cell{angstrom}
       O -2.90210e-01 -3.23297e-01  1.29992e-01
       H  8.94113e-02  3.08760e-01  2.89953e-01
       H  3.35984e-01  8.96677e-02 -4.60054e-01
       O -6.16786e-02 -1.94928e-01 -4.84268e-01
       H -2.33854e-01 -5.19268e-02  2.77673e-02
       H -4.94691e-02  1.21401e-02  2.56817e-02
       H  2.09815e-01  1.59584e-01  4.70927e-01
7
# CELL(abcABC):  529.17722   529.17722   529.17722    90.00000    90.00000    90.00000  Step:        7220  Bead:       0 forces{eV/ang}  cell{angstrom}
       O -1.61678e-01 -7.32362e-01 -1.47135e-01
       H  1.07531e-01  5.28887e-02 -4.64300e-03
       H  4.55917e-02  2.59878e-02 -1.46004e-02
       O -4.18908e-01  9.44479e-01  2.34789e-01
       H  4.89043e-01 -1.08786e-03 -9.78781e-02
       H  5.63642e-02 -3.21966e-01  3.53703e-01
       H -1.17943e-01  3.20604e-02 -3.24236e-01
7
# CELL(abcABC):  529.17722   529.17722   529.17722    90.00000    90.00000    90.00000  Step:        7240  Bead:       0 forces{eV/ang}  cell{angstrom}
       O  8.22987e-01 -5.73719e-01 -5.56013e-01
       H -1.77727e-01  8.97366e-02 -2.11439e-02
       H -1.68349e-01 -3.70858e-02  1.88479e-01
       O  1.39509e-01  1.56522e+00 -7.87417e-01
       H -4.64013e-01  1.90601e-01  4.43055e-01
       H -4.51245e-02 -1.17210e+00  7.19405e-01
       H -1.07283e-01 -6.26532e-02  1.36348e-02
7
# CELL(abcABC):  529.17722   529.17722   529.17722    90.00000    90.00000    90.00000  Step:        7260  Bead:       0 forces{eV/ang}  cell{angstrom}
       O  4.91496e-01 -1.33403e-01 -3.16247e-01
       H -1.97110e-01 -5.31463e-01  6.73567e-02
       H -5.13407e-01  4.91383e-01  4.16586e-01
       O  1.10146e-01  1.26275e+00 -7.15947e-02
       H  2.87961e-01 -3.93839e-02 -4.33027e-01
       H  2.22570e-01 -9.89833e-01  7.96259e-01
       H -4.01656e-01 -6.00508e-02 -4.59333e-01
7
# CELL(abcABC):  529.17722   529.17722   529.17722    90.00000    90.00000    90.00000  Step:        7280  Bead:       0 forces{eV/ang}  cell{angstrom}
       O  5.97502e-01  5.63943e-01 -3.53940e-01
       H -2.77277e-01 -4.65460e-01  1.14683e-01
       H -4.99191e-01  3.86432e-01  3.10865e-01
       O  2.75502e-01  7.66522e-01 -7.80874e-01
       H -1.29795e-01 -8.23767e-02  3.47791e-01
       H  3.01370e-01 -7.30916e-01  9.27218e-01
       H -2.68111e-01 -4.38145e-01 -5.65743e-01
7
# CELL(abcABC):  529.17722   529.17722   529.17722    90.00000    90.00000    90.00000  Step:        7300  Bead:       0 forces{eV/ang}  cell{angstrom}
       O -3.05906e-01 -4.18056e-01  1.86917e-01
       H  3.81932e-01  2.90947e-01 -1.38529e-01
       H -2.09930e-01  2.23095e-01  1.95207e-01
       O  3.60533e-01  8.74409e-01  2.89788e-01
       H -1.75257e-01  2.95396e-01 -3.81595e-01
       H  4.10021e-01 -5.36181e-01  5.36264e-01
       H -4.61393e-01 -7.29610e-01 -6.88051e-01
7
# CELL(abcABC):  529.17722   529.17722   529.17722    90.00000    90.00000    90.00000  Step:        7320  Bead:       0 forces{eV/ang}  cell{angstrom}
       O -9.85206e-01 -6.28727e-02  2.14456e-01
       H  4.22526e-01  3.91163e-01 -1.07234e-01
       H  6.02705e-01 -3.18088e-01 -2.37587e-01
       O -3.54059e-01  3.97771e-01 -1.37200e-01
       H  3.21829e-01 -1.66235e-01  4.29346e-01
       H  6.11024e-02  2.23728e-01  1.94348e-01
       H -6.88956e-02 -4.65466e-01 -3.56130e-01
7
# CELL(abcABC):  529.17722   529.17722   529.17722    90.00000    90.00000    90.00000  Step:        7340  Bead:       0 forces{eV/ang}  cell{angstrom}
       O -2.75211e-01  1.26564e-01  5.90348e-02
       H -3.82858e-01  1.15845e-01  2.15653e-01
       H  9.35672e-01 -2.47452e-02 -3.06880e-01
       O  7.66062e-01 -4.15876e-01  7.66135e-01
       H -5.55456e-01 -7.79174e-02 -1.37134e-01
       H -3.72009e-01  2.43826e-01 -5.12290e-01
       H -1.16201e-01  3.23036e-02 -8.45183e-02
7
# CELL(abcABC):  529.17722   529.17722   529.17722    90.00000    90.00000    90.00000  Step:        7360  Bead:       0 forces{eV/ang}  cell{angstrom}
       O -9.75486e-01  1.37211e+00  2.99365e-01
       H -7.72199e-02 -5.51495e-01  6.26089e-02
       H  6.75126e-01 -3.15851e-01 -2.88166e-01
       O  6.06620e-01 -1.73498e+00  6.72536e-01
       H  3.88793e-01  2.13367e-02 -6.02574e-03
       H -1.29087e+00  7.31428e-01 -1.02303e+00
       H  6.73041e-01  4.77451e-01  2.82715e-01
7
# CELL(abcABC):  529.17722   529.17722   529.17722    90.00000    90.00000    90.00000  Step:        7380  Bead:       0 forces{eV/ang}  cell{angstrom}
       O  8.82423e-01  9.94607e-01 -4.94683e-01
       H -9.41743e-01 -9.25371e-01  4.16859e-01
       H -8.47967e-02  3.40694e-01 -7.47415e-03
       O  9.22640e-01 -2.35520e+00  8.30628e-01
       H -2.67542e-01 -1.53527e-01  1.53419e-01
       H -1.66856e+00  1.00961e+00 -1.19494e+00
       H  1.15758e+00  1.08919e+00  2.96189e-01
7
# CELL(abcABC):  529.17722   529.17722   529.17722    90.00000    90.00000    90.00000  Step:        7400  Bead:       0 forces{eV/ang}  cell{angstrom}
       O  3.64296e-01  3.88276e-01 -3.70821e-01
       H -1.28432e-01 -5.89815e-01  2.32441e-02
       H -6.45072e-01  7.44248e-02  3.84697e-01
       O  1.19965e-01 -1.81900e+00  1.06915e+00
       H  8.66763e-01  8.10830e-03 -2.53358e-02
       H -1.77928e+00  1.12467e+00 -1.03891e+00
       H  1.20176e+00  8.13344e-01 -4.20265e-02
7
# CELL(abcABC):  529.17722   529.17722   529.17722    90.00000    90.00000    90.00000  Step:        7420  Bead:       0 forces{eV/ang}  cell{angstrom}
       O  1.71046e+00 -5.34844e-01 -1.34757e+00
       H -2.71570e-01 -1.73682e-01  7.91910e-02
       H -9.07613e-01  6.26510e-02  1.13272e+00
       O -1.59110e-01  2.69628e-02  3.65400e-01
       H -8.54387e-01 -1.15076e-01 -7.65349e-02
       H -4.10309e-01 -2.25998e-01 -1.87402e-01
       H  8.92531e-01  9.59986e-01  3.41939e-02
7
# CELL(abcABC):  529.17722   529.17722   529.17722    90.00000    90.00000    90.00000  Step:        7440  Bead:       0 forces{eV/ang}  cell{angstrom}
       O -4.84161e-01 -9.55943e-01 -1.24675e+00
       H  5.17559e-01  2.94782e-01 -4.24705e-02
       H -2.56884e-01  2.57795e-01  1.08556e+00
       O -1.72752e+00 -3.58637e-01 -2.10037e-01
       H  1.04157e+00 -4.67718e-02  3.48417e-01
       H  4.92618e-01  4.22527e-01  2.98504e-01
       H  4.16823e-01  3.86249e-01 -2.33217e-01
7
# CELL(abcABC):  529.17722   529.17722   529.17722    90.00000    90.00000    90.00000  Step:        7460  Bead:       0 forces{eV/ang}  cell{angstrom}
       O -3.40979e-01 -9.10671e-02  2.20466e-01
       H  5.57500e-01  3.95756e-01 -2.60483e-01
       H  8.20066e-04  2.10958e-01  1.85285e-01
       O -2.28810e-01  5.83496e-01 -7.36445e-01
       H -8.25283e-01 -3.54486e-01 -1.84117e-01
       H  7.67186e-01 -5.08530e-01  4.81117e-01
       H  6.95663e-02 -2.36127e-01  2.94178e-01
7
# CELL(abcABC):  529.17722   529.17722   529.17722    90.00000    90.00000    90.00000  Step:        7480  Bead:       0 forces{eV/ang}  cell{angstrom}
       O -3.48111e-01  6.60047e-01  8.45168e-01
       H  1.48574e-01 -2.05907e-01 -7.47416e-02
       H -2.73295e-02 -1.53331e-01 -5.04716e-01
       O -1.04297e+00 -8.23508e-01 -6.42506e-01
       H  3.25844e-01  3.99688e-01 -8.90881e-02
       H  1.21740e+00  5.04089e-01  5.31302e-01
       H -2.73407e-01 -3.81079e-01 -6.54185e-02
7
# CELL(abcABC):  529.17722   529.17722   529.17722    90.00000    90.00000    90.00000  Step:        7500  Bead:       0 forces{eV/ang}  cell{angstrom}
       O -2.36974e-01  6.33602e-01  1.80459e+00
       H  2.32974e-01  7.70537e-01 -6.32830e-01
       H  4.46263e-02 -9.87495e-01 -1.49770e+00
       O -1.64377e-01  9.61116e-01 -4.16376e-01
       H -1.29884e-01 -2.04751e-01  4.08472e-01
       H  4.16725e-01 -3.17399e-01  1.95282e-01
       H -1.63090e-01 -8.55611e-01  1.38561e-01
7
# CELL(abcABC):  529.17722   529.17722   529.17722    90.00000    90.00000    90.00000  Step:        7520  Bead:       0 forces{eV/ang}  cell{angstrom}
       O  4.18320e-01  2.92397e-01  2.58759e+00
       H -9.64972e-03  4.23506e-01 -6.60377e-01
       H -3.73883e-01 -9.48803e-01 -1.51237e+00
       O  1.59089e+00 -5.54796e-01  7.57408e-01
       H  4.73898e-02  1.38300e-01 -7.10930e-01
       H -9.04151e-01  7.06661e-01 -3.86835e-01
       H -7.68916e-01 -5.72645e-02 -7.44937e-02
7
# CELL(abcABC):  529.17722   529.17722   529.17722    90.00000    90.00000    90.00000  Step:        7540  Bead:       0 forces{eV/ang}  cell{angstrom}
       O  3.27152e-01 -5.07917e-01  2.96768e-01
       H -3.15314e-01  5.34924e-01 -5.77884e-02
       H -6.86100e-02 -6.99960e-01 -7.17335e-01
       O  9.15856e-01 -1.09229e-01  8.35474e-02
       H  3.69075e-01  2.93094e-01  4.73189e-01
       H -2.06788e+00  4.61169e-01  1.59202e-02
       H  8.39719e-01  2.79190e-02 -9.43015e-02
7
# CELL(abcABC):  529.17722   529.17722   529.17722    90.00000    90.00000    90.00000  Step:        7560  Bead:       0 forces{eV/ang}  cell{angstrom}
       O  2.18398e-01 -3.11757e-01  1.79230e-01
       H -9.30530e-03 -2.19101e-01 -1.30307e-01
       H -3.15092e-02  3.86477e-01  4.53316e-01
       O  1.69876e+00 -2.28271e+00  2.23962e-01
       H -4.11451e-01 -2.18447e-01 -5.72914e-01
       H -1.94416e+00  1.34114e+00  3.72466e-01
       H  4.79262e-01  1.30440e+00 -5.25753e-01
7
# CELL(abcABC):  529.17722   529.17722   529.17722    90.00000    90.00000    90.00000  Step:        7580  Bead:       0 forces{eV/ang}  cell{angstrom}
       O -1.04698e+00 -1.16950e+00 -1.94026e+00
       H  8.75963e-02 -9.53777e-02  6.47184e-01
       H  6.12822e-01  1.41150e+00  9.95043e-01
       O  1.65092e-01 -9.26318e-01 -8.94054e-02
       H  5.59638e-01 -3.68816e-02  3.66061e-01
       H -1.55832e+00  2.24889e-01  8.81921e-01
       H  1.18015e+00  5.91690e-01 -8.60545e-01
7
# CELL(abcABC):  529.17722   529.17722   529.17722    90.00000    90.00000    90.00000  Step:        7600  Bead:       0 forces{eV/ang}  cell{angstrom}
       O -2.82805e-01 -1.53841e+00 -2.97105e-01
       H  2.69754e-02 -2.17095e-01 -3.03112e-02
       H  7.26274e-01  1.66069e+00  5.99720e-01
       O -1.42845e-01 -2.15328e+00  1.01132e+00
       H -5.96778e-01  4.10775e-01 -3.83947e-01
       H -1.21816e-01  4.69692e-01 -6.84293e-02
       H  3.90994e-01  1.36762e+00 -8.31248e-01
7
# CELL(abcABC):  529.17722   529.17722   529.17722    90.00000    90.00000    90.00000  Step:        7620  Bead:       0 forces{eV/ang}  cell{angstrom}
       O -1.70953e+00 -1.05854e-01 -4.91879e-01
       H -1.09343e-02  9.72221e-02 -2.01924e-01
       H  1.27947e+00  8.13305e-01  2.16059e-01
       O -7.07499e-01 -6.90658e-01  1.34673e+00
       H  2.07618e-01 -2.27939e-01  6.03746e-01
       H  5.74561e-01 -4.43758e-01 -6.41076e-01
       H  3.66317e-01  5.57682e-01 -8.31658e-01
7
# CELL(abcABC):  529.17722   529.17722   529.17722    90.00000    90.00000    90.00000  Step:        7640  Bead:       0 forces{eV/ang}  cell{angstrom}
       O -2.61601e-01  4.97475e-01  7.09627e-01
       H -3.18724e-01 -3.25165e-02 -6.26922e-01
       H  3.71957e-01 -1.66697e-01  1.41000e-02
       O -7.80740e-01  8.32710e-02  1.91401e+00
       H  1.42809e-01 -1.55546e-01 -3.55534e-01
       H  8.54679e-01 -4.31574e-01 -1.74020e+00
       H -8.37869e-03  2.05588e-01  8.49172e-02
7
# CELL(abcABC):  529.17722   529.17722   529.17722    90.00000    90.00000    90.00000  Step:        7660  Bead:       0 forces{eV/ang}  cell{angstrom}
       O  1.92501e+00 -7.24919e-01  1.19095e+00
       H -8.67872e-01  3.22929e-01 -1.05144e+00
       H -5.87389e-01 -5.05178e-01  3.55700e-02
       O -1.13763e+00  2.90399e+00  2.65632e-01
       H -2.44119e-01  1.55858e-01 -4.12948e-02
       H  8.51524e-01 -1.57373e+00 -1.11876e+00
       H  6.04710e-02 -5.78951e-01  7.19346e-01
7
# CELL(abcABC):  529.17722   529.17722   529.17722    90.00000    90.00000    90.00000  Step:        7680  Bead:       0 forces{eV/ang}  cell{angstrom}
       O  1.45407e+00  1.85103e-01  5.79145e-01
       H -9.64552e-01  3.90835e-01 -6.62532e-01
       H -6.71064e-01 -9.59214e-01  1.70474e-01
       O  1.09729e-02  4.25487e-01 -1.03680e+00
       H  3.43969e-01  1.10465e-01  6.12496e-02
       H  2.39904e-01 -2.13163e-01 -4.19653e-01
       H -4.13298e-01  6.04871e-02  1.30811e+00
7
# CELL(abcABC):  529.17722   529.17722   529.17722    90.00000    90.00000    90.00000  Step:        7700  Bead:       0 forces{eV/ang}  cell{angstrom}
       O  7.94953e-01  1.57969e+00 -2.99138e-01
       H  3.27285e-02  1.98603e-02  6.29020e-02
       H -9.92820e-01 -9.79508e-01  2.51488e-01
       O  5.68504e-01 -4.85073e-01 -1.43591e+00
       H -4.14611e-02 -1.17910e-01 -7.96848e-02
       H -7.87114e-02  4.79066e-01  9.23763e-01
       H -2.83192e-01 -4.96126e-01  5.76577e-01
7
# CELL(abcABC):  529.17722   529.17722   529.17722    90.00000    90.00000    90.00000  Step:        7720  Bead:       0 forces{eV/ang}  cell{angstrom}
       O  1.02420e-01  2.02609e+00 -1.03871e+00
       H  8.38078e-01 -3.72258e-02  5.25180e-01
       H -1.18685e+00 -1.51813e+00  2.84086e-01
       O  2.21283e-01 -2.38978e+00 -1.33418e+00
       H -3.53298e-02  3.34526e-01  9.95202e-02
       H  1.70751e-01  1.38997e+00  1.22220e+00
       H -1.10349e-01  1.94550e-01  2.41900e-01
7
# CELL(abcABC):  529.17722   529.17722   529.17722    90.00000    90.00000    90.00000  Step:        7740  Bead:       0 forces{eV/ang}  cell{angstrom}
       O -5.92806e-01  1.34743e+00 -7.31173e-01
       H  1.04063e+00 -7.92337e-02  5.03915e-01
       H -5.93076e-01 -7.32244e-01  1.03711e-01
       O -2.08535e-01 -1.52950e+00  5.55040e-02
       H  9.70102e-02  3.26801e-02 -4.53478e-01
       H -8.78933e-02  1.03490e+00  1.51757e+00
       H  3.44666e-01 -7.40364e-02 -9.96045e-01
7
# CELL(abcABC):  529.17722   529.17722   529.17722    90.00000    90.00000    90.00000  Step:        7760  Bead:       0 forces{eV/ang}  cell{angstrom}
       O -4.78919e-01 -1.83960e-01 -2.10470e-01
       H  6.14756e-01 -2.61782e-01  2.45611e-01
       H  1.00436e-01  4.43513e-01 -1.57770e-01
       O -9.13997e-01 -4.10192e-01  4.31805e-01
       H  7.28823e-02 -8.24674e-01  8.28362e-01
       H  1.10820e-01  2.19606e-01  1.89874e-01
       H  4.94021e-01  1.01749e+00 -1.32741e+00
7
# CELL(abcABC):  529.17722   529.17722   529.17722    90.00000    90.00000    90.00000  Step:        7780  Bead:       0 forces{eV/ang}  cell{angstrom}
       O  7.40935e-03 -1.32518e+00  3.81925e-01
       H -6.34711e-02 -1.20417e-01  4.03354e-02
       H  3.77643e-01  9.97620e-01 -2.14248e-01
       O -6.00605e-01 -1.48237e-01  2.31468e+00
       H -9.81782e-02  2.99937e-01 -4.68031e-01
       H  4.62558e-03 -2.99427e-01 -2.94395e-01
       H  3.72577e-01  5.95700e-01 -1.76027e+00
7
# CELL(abcABC):  529.17722   529.17722   529.17722    90.00000    90.00000    90.00000  Step:        7800  Bead:       0 forces{eV/ang}  cell{angstrom}
       O -1.13555e-01 -6.69982e-01  2.81230e-01
       H -4.48197e-01 -1.60520e-01  1.13216e-01
       H  6.59810e-01  4.47474e-01 -9.48065e-02
       O -5.16477e-01  9.02263e-01  1.12749e+00
       H  1.17843e-01 -3.23105e-02 -6.28603e-01
       H  2.23039e-01 -3.30339e-01 -3.04192e-01
       H  7.75362e-02 -1.56584e-01 -4.94339e-01
7
# CELL(abcABC):  529.17722   529.17722   529.17722    90.00000    90.00000    90.00000  Step:        7820  Bead:       0 forces{eV/ang}  cell{angstrom}
       O  1.20915e+00 -4.99260e-01  9.22427e-02
       H -7.13891e-01  4.95415e-01 -2.13436e-01
       H -3.39212e-01  9.71443e-02 -3.89762e-04
       O  2.22334e-01 -3.85835e-02 -1.47974e+00
       H -4.11519e-01 -1.51448e-01  7.31056e-01
       H  6.90108e-02 -3.28172e-01  6.25586e-02
       H -3.58768e-02  4.24904e-01  8.07710e-01
7
# CELL(abcABC):  529.17722   529.17722   529.17722    90.00000    90.00000    90.00000  Step:        7840  Bead:       0 forces{eV/ang}  cell{angstrom}
       O  7.73622e-01  6.13799e-01 -3.11978e-01
       H -1.19386e+00  3.55840e-01  7.66001e-02
       H -6.34456e-02 -6.24845e-01  4.32814e-01
       O -1.36868e+00 -1.03915e+00 -5.01325e-01
       H  8.33578e-01 -1.60675e-01 -9.15404e-01
       H  8.52623e-02  5.11462e-01  1.13676e-01
       H  9.33516e-01  3.43567e-01  1.10562e+00
7
# CELL(abcABC):  529.17722   529.17722   529.17722    90.00000    90.00000    90.00000  Step:        7860  Bead:       0 forces{eV/ang}  cell{angstrom}
       O  1.67781e+00  6.85269e-01 -4.80475e-01
       H -7.27891e-01  1.25524e-01 -2.55113e-01
       H -6.24998e-01  3.33438e-03  3.52474e-01
       O  1.73927e+00 -2.25974e+00 -1.87453e+00
       H -1.11967e+00  1.79069e-01  4.38621e-01
       H -1.03852e+00  3.77136e-01  7.05783e-01
       H  9.39965e-02  8.89411e-01  1.11324e+00
7
# CELL(abcABC):  529.17722   529.17722   529.17722    90.00000    90.00000    90.00000  Step:        7880  Bead:       0 forces{eV/ang}  cell{angstrom}
       O -7.73118e-01  1.01125e+00 -5.94255e-01
       H -9.22983e-02 -4.23763e-03  2.20014e-01
       H  1.65682e-01 -3.95184e-01  4.22067e-01
       O -1.74093e-01 -1.47534e+00 -1.21843e+00
       H  8.38726e-01  2.38699e-02 -7.21795e-01
       H -7.06897e-01  8.19081e-01  6.55801e-01
       H  7.41999e-01  2.05627e-02  1.23660e+00
7
# CELL(abcABC):  529.17722   529.17722   529.17722    90.00000    90.00000    90.00000  Step:        7900  Bead:       0 forces{eV/ang}  cell{angstrom}
       O -3.61758e-01 -1.01199e+00 -2.43457e-02
       H  1.55126e+00  8.05544e-02  1.15538e-01
       H -4.78201e-01  2.42227e-01 -2.72189e-01
       O  2.27468e-01 -5.62645e-01 -1.70938e+00
       H -7.85783e-01  7.04541e-01  6.93579e-01
       H -3.85722e-01  4.48370e-01  5.10336e-01
       H  2.32731e-01  9.89456e-02  6.86463e-01
7
# CELL(abcABC):  529.17722   529.17722   529.17722    90.00000    90.00000    90.00000  Step:        7920  Bead:       0 forces{eV/ang}  cell{angstrom}
       O -2.54983e+00  4.08322e-01 -1.27188e-01
       H  1.91385e+00 -2.40865e-02  7.50710e-01
       H  4.05315e-01 -5.66444e-01 -6.65183e-02
       O -4.52882e-01  1.71342e+00  1.13795e+00
       H  5.41209e-01 -7.41701e-01 -7.39494e-01
       H  9.52923e-02 -5.42017e-01 -9.31411e-01
       H  4.70488e-02 -2.47496e-01 -2.40489e-02
7
# CELL(abcABC):  529.17722   529.17722   529.17722    90.00000    90.00000    90.00000  Step:        7940  Bead:       0 forces{eV/ang}  cell{angstrom}
       O -3.01654e-01 -5.63268e-01 -3.76575e-01
       H  8.33776e-01  7.87103e-02  8.38104e-02
       H -3.07279e-01  1.19753e-01 -8.64567e-02
       O  2.28768e-01  1.06606e+00  1.94835e+00
       H -3.15744e-01  5.95028e-01  8.27434e-01
       H  2.41454e-02 -1.71920e+00 -1.04495e+00
       H -1.62013e-01  4.22911e-01 -1.35161e+00
7
# CELL(abcABC):  529.17722   529.17722   529.17722    90.00000    90.00000    90.00000  Step:        7960  Bead:       0 forces{eV/ang}  cell{angstrom}
       O  7.10107e-01  1.10677e+00 -5.19227e-01
       H -9.36166e-01  6.53605e-02 -2.76522e-02
       H -1.89083e-01 -6.45666e-01  5.97604e-01
       O  7.10431e-01  1.25484e+00  3.49547e+00
       H  2.21899e-01 -4.14814e-01 -8.30713e-01
       H -7.33899e-01 -1.25359e+00 -6.52443e-01
       H  2.16711e-01 -1.12904e-01 -2.06304e+00
7
# CELL(abcABC):  529.17722   529.17722   529.17722    90.00000    90.00000    90.00000  Step:        7980  Bead:       0 forces{eV/ang}  cell{angstrom}
       O  2.26600e+00  2.25518e-01  5.62380e-01
       H -1.40339e+00  6.65425e-01 -1.03220e+00
       H -1.04978e+00 -5.26293e-01  1.25031e-01
       O  6.23522e-01 -3.51527e-01  4.24798e-01
       H -4.11714e-03  5.77766e-01  5.41699e-01
       H -3.91296e-01 -1.26427e+00 -6.10899e-01
       H -4.09371e-02  6.73380e-01 -1.08140e-02
7
# CELL(abcABC):  529.17722   529.17722   529.17722    90.00000    90.00000    90.00000  Step:        8000  Bead:       0 forces{eV/ang}  cell{angstrom}
       O  1.46012e+00  1.55286e+00  2.58595e-01
       H -1.52736e+00 -9.97847e-01 -4.78375e-01
       H  2.72235e-01  1.49650e-01  3.28941e-01
       O  4.72590e-01  6.74979e-01 -4.38049e-01
       H -3.50381e-01 -7.28584e-01 -7.36514e-01
       H -2.74145e-01 -2.82335e-01  1.40805e-01
       H -5.30564e-02 -3.68723e-01  9.24596e-01
7
# CELL(abcABC):  529.17722   529.17722   529.17722    90.00000    90.00000    90.00000  Step:        8020  Bead:       0 forces{eV/ang}  cell{angstrom}
       O  5.71643e-01 -1.84887e+00  1.17145e+00
       H -9.70965e-01  6.84988e-01 -9.96798e-01
       H -2.29282e-02  6.65521e-01 -3.61052e-01
       O -7.67061e-01 -1.52797e+00 -1.69748e+00
       H  6.91083e-01  1.06919e+00  1.13542e-01
       H  4.66758e-01  8.16002e-01  3.08437e-01
       H  3.14698e-02  1.41138e-01  1.46190e+00
7
# CELL(abcABC):  529.17722   529.17722   529.17722    90.00000    90.00000    90.00000  Step:        8040  Bead:       0 forces{eV/ang}  cell{angstrom}
       O -1.39022e-01 -1.08187e-01 -3.19938e-01
       H -3.79688e-01 -9.07510e-01  3.33095e-02
       H  9.83297e-01  1.18669e+00  5.18687e-01
       O -2.18309e-01 -1.33328e-01 -8.01669e-01
       H -6.18073e-01 -8.53347e-01 -3.07520e-01
       H  2.75599e-01  1.13901e+00  3.52956e-01
       H  9.61954e-02 -3.23324e-01  5.24174e-01
7
# CELL(abcABC):  529.17722   529.17722   529.17722    90.00000    90.00000    90.00000  Step:        8060  Bead:       0 forces{eV/ang}  cell{angstrom}
       O -1.58808e+00 -2.41132e+00 -2.12713e-01
       H  6.64243e-01  6.91512e-01  7.65938e-01
       H  1.00333e+00  1.07230e+00 -6.90766e-01
       O -6.30269e-01 -4.74261e-01 -4.33929e-01
       H  2.91132e-01  2.34742e-01  9.43602e-01
       H  3.08249e-01  4.95009e-01  1.91966e-01
       H -4.85991e-02  3.92022e-01 -5.64099e-01
7
# CELL(abcABC):  529.17722   529.17722   529.17722    90.00000    90.00000    90.00000  Step:        8080  Bead:       0 forces{eV/ang}  cell{angstrom}
       O -5.58453e-01 -3.91066e-01 -6.07327e-01
       H  2.14175e-01 -9.41672e-01  1.03906e+00
       H  7.59272e-01  7.09684e-01  7.10252e-01
       O -4.09991e-01  7.64020e-01  1.55545e+00
       H -1.12464e-01 -3.21659e-02 -1.24765e+00
       H -9.19971e-02  4.25889e-02  2.80589e-01
       H  1.99458e-01 -1.51389e-01 -1.73037e+00
7
# CELL(abcABC):  529.17722   529.17722   529.17722    90.00000    90.00000    90.00000  Step:        8100  Bead:       0 forces{eV/ang}  cell{angstrom}
       O -1.63105e-01 -4.21907e-01 -6.60850e-01
       H  6.19498e-01  4.95921e-01  9.56231e-01
       H -3.78696e-01 -2.23030e-01 -5.52934e-01
       O -5.57027e-01  7.38194e-02  1.39421e+00
       H -6.99806e-02  8.24643e-02  1.13631e+00
       H  1.95755e-01 -7.79003e-01 -3.17194e-01
       H  3.53556e-01  7.71735e-01 -1.95578e+00
7
# CELL(abcABC):  529.17722   529.17722   529.17722    90.00000    90.00000    90.00000  Step:        8120  Bead:       0 forces{eV/ang}  cell{angstrom}
       O  2.74307e-01  2.08517e+00 -2.48699e-01
       H  1.16457e-01 -2.14451e-01  4.48951e-01
       H -8.05432e-01 -1.31547e+00 -1.57157e-01
       O -7.75633e-01 -1.28244e-01  3.02879e+00
       H  4.19353e-01 -2.29631e-01 -9.13192e-01
       H -1.02357e-01 -5.12295e-01 -8.31788e-01
       H  8.73306e-01  3.14922e-01 -1.32691e+00
7
# CELL(abcABC):  529.17722   529.17722   529.17722    90.00000    90.00000    90.00000  Step:        8140  Bead:       0 forces{eV/ang}  cell{angstrom}
       O  2.36174e-01  8.30879e-01 -2.65130e-01
       H -1.10565e-01  3.72367e-01 -6.21122e-02
       H -5.07673e-01 -7.65261e-01 -2.45993e-01
       O  8.50682e-02 -1.03813e+00  7.62282e-01
       H -9.47925e-02  4.48282e-01  5.30549e-01
       H -1.13316e-01 -2.26380e-01  1.36799e-01
       H  5.05104e-01  3.78238e-01 -8.56395e-01
7
# CELL(abcABC):  529.17722   529.17722   529.17722    90.00000    90.00000    90.00000  Step:        8160  Bead:       0 forces{eV/ang}  cell{angstrom}
       O  4.44831e-01  1.27584e+00  2.73336e-01
       H -3.51188e-01 -3.76961e-01 -3.07632e-01
       H -1.24786e-01 -3.19770e-01  1.17345e-01
       O  1.48736e-01 -3.05435e-01  2.75946e-01
       H  7.95560e-02 -4.28278e-01 -5.45731e-01
       H -1.31036e-01  3.12983e-01  2.47726e-02
       H -6.61131e-02 -1.58375e-01  1.61963e-01
7
# CELL(abcABC):  529.17722   529.17722   529.17722    90.00000    90.00000    90.00000  Step:        8180  Bead:       0 forces{eV/ang}  cell{angstrom}
       O  8.38563e-01 -1.09040e+00  1.06630e+00
       H -6.95981e-01  4.45767e-01 -9.11695e-01
       H -5.39568e-02  5.73588e-01 -3.04986e-01
       O  5.12505e-01 -3.33522e-01 -7.70940e-01
       H -1.26132e-01  1.08792e-01  4.22602e-01
       H -5.70462e-01  3.21863e-01  5.55559e-01
       H  9.54638e-02 -2.60911e-02 -5.68405e-02
7
# CELL(abcABC):  529.17722   529.17722   529.17722    90.00000    90.00000    90.00000  Step:        8200  Bead:       0 forces{eV/ang}  cell{angstrom}
       O  5.54365e-01 -2.55342e-01  8.32376e-01
       H -1.47547e+00 -7.83386e-01 -8.93993e-01
       H  1.03010e+00  6.10265e-01  4.20147e-01
       O  3.84698e-01  4.50101e-01 -3.93318e-01
       H  2.13209e-01  1.44641e-01 -3.54658e-01
       H -6.60435e-01  2.64862e-01  2.00884e-01
       H -4.64685e-02 -4.31141e-01  1.88563e-01
7
# CELL(abcABC):  529.17722   529.17722   529.17722    90.00000    90.00000    90.00000  Step:        8220  Bead:       0 forces{eV/ang}  cell{angstrom}
       O -4.96982e-02 -8.87729e-01  2.63088e+00
       H -6.34169e-01  4.88895e-01 -1.56746e+00
       H  5.48269e-01  7.76015e-01 -1.07282e+00
       O  2.43107e+00 -2.27517e-01  1.17698e-01
       H -1.18799e-01 -2.37535e-01 -2.19651e-01
       H -1.29017e+00  5.68198e-01 -1.27763e-01
       H -8.86504e-01 -4.80328e-01  2.39111e-01
7
# CELL(abcABC):  529.17722   529.17722   529.17722    90.00000    90.00000    90.00000  Step:        8240  Bead:       0 forces{eV/ang}  cell{angstrom}
       O -1.21123e+00  5.34553e-01 -2.08126e-01
       H -1.04600e+00 -3.25149e-01 -1.43668e-01
       H  1.82133e+00  4.50993e-01 -7.36005e-02
       O  1.32341e+00  7.53190e-02  2.13149e-01
       H  1.83797e-01 -2.55355e-01  3.05338e-01
       H -6.36315e-01  5.46028e-02 -2.12484e-01
       H -4.34992e-01 -5.34963e-01  1.19392e-01
7
# CELL(abcABC):  529.17722   529.17722   529.17722    90.00000    90.00000    90.00000  Step:        8260  Bead:       0 forces{eV/ang}  cell{angstrom}
       O  3.35542e-02 -1.61120e+00  1.36423e+00
       H -3.71456e-02  1.52086e-01 -3.94666e-01
       H  4.94544e-01  5.93643e-01 -9.24353e-01
       O -2.47676e-01 -5.37205e-01  6.90650e-02
       H -5.34627e-01  1.07808e+00  1.08049e-01
       H -1.32134e-02  4.82493e-02 -8.67635e-02
       H  3.04564e-01  2.76345e-01 -1.35565e-01
7
# CELL(abcABC):  529.17722   529.17722   529.17722    90.00000    90.00000    90.00000  Step:        8280  Bead:       0 forces{eV/ang}  cell{angstrom}
       O -1.12802e+00  8.92999e-01 -3.20805e-01
       H  1.01565e-01 -2.13216e-01  3.98637e-01
       H  7.05210e-01 -2.25190e-01  5.59760e-02
       O -2.65770e+00 -1.49955e+00  3.95212e-02
       H  6.81826e-01 -4.74292e-01 -1.85284e-01
       H  9.69247e-01  1.13341e-01  5.00199e-01
       H  1.32787e+00  1.40591e+00 -4.88244e-01
7
# CELL(abcABC):  529.17722   529.17722   529.17722    90.00000    90.00000    90.00000  Step:        8300  Bead:       0 forces{eV/ang}  cell{angstrom}
       O  6.97248e-01  1.99893e-01 -1.70491e-01
       H  1.20485e+00 -1.86835e-02  1.71202e-03
       H -1.39129e+00 -2.26480e-01  4.27938e-01
       O -1.99085e+00 -1.51701e+00  1.19033e-01
       H -8.50454e-01 -1.63109e-01 -4.77028e-01
       H  1.36465e+00  3.43773e-01  9.05107e-01
       H  9.65842e-01  1.38162e+00 -8.06272e-01
7
# CELL(abcABC):  529.17722   529.17722   529.17722    90.00000    90.00000    90.00000  Step:        8320  Bead:       0 forces{eV/ang}  cell{angstrom}
       O -3.48426e-01  1.05806e+00 -2.11132e+00
       H  1.45970e+00 -4.95331e-01  7.02185e-01
       H -1.06483e+00 -1.04750e+00  1.41113e+00
       O -1.41087e+00 -8.17878e-01 -2.20340e+00
       H  5.08206e-01  3.52179e-01  7.51325e-01
       H  2.66481e-01  6.66463e-01  1.21171e+00
       H  5.89742e-01  2.84002e-01  2.38359e-01
7
# CELL(abcABC):  529.17722   529.17722   529.17722    90.00000    90.00000    90.00000  Step:        8340  Bead:       0 forces{eV/ang}  cell{angstrom}
       O  7.67788e-01  9.29490e-01 -1.13920e+00
       H  1.08868e+00 -1.04872e-01 -9.21165e-02
       H -1.73375e+00 -9.90306e-01  1.48286e+00
       O  6.40260e-01 -6.27805e-02  3.75230e-01
       H -5.92248e-01 -1.27393e-01 -5.85810e-01
       H  5.72142e-01  2.64591e-01  5.02242e-01
       H -7.42873e-01  9.12702e-02 -5.43203e-01
7
# CELL(abcABC):  529.17722   529.17722   529.17722    90.00000    90.00000    90.00000  Step:        8360  Bead:       0 forces{eV/ang}  cell{angstrom}
       O -5.50068e-01  1.56097e+00 -8.83241e-01
       H  5.46701e-01 -5.55882e-01  8.59206e-02
       H -3.97085e-01 -8.62186e-01  7.09747e-01
       O  3.67854e-01  1.01949e+00 -4.94949e-01
       H  1.00012e+00  1.12289e-03  3.33183e-01
       H -2.50896e-01 -5.00499e-02 -1.56346e-01
       H -7.16623e-01 -1.11347e+00  4.05685e-01
7
# CELL(abcABC):  529.17722   529.17722   529.17722    90.00000    90.00000    90.00000  Step:        8380  Bead:       0 forces{eV/ang}  cell{angstrom}
       O  2.29822e-01 -7.53230e-01  2.26907e-01
       H  4.54209e-01 -1.49845e-02 -1.82855e-01
       H -1.52569e-01  1.04095e+00 -4.99291e-01
       O  1.04003e+00 -1.36384e-01  1.71936e+00
       H -9.38324e-01  4.23168e-01  2.25783e-01
       H  3.78248e-02  2.27907e-01 -7.71547e-01
       H -6.70996e-01 -7.87423e-01 -7.18360e-01
7
# CELL(abcABC):  529.17722   529.17722   529.17722    90.00000    90.00000    90.00000  Step:        8400  Bead:       0 forces{eV/ang}  cell{angstrom}
       O -1.50277e+00  4.99706e-02  3.77586e-01
       H -3.70673e-01 -9.22873e-02  1.30228e-01
       H  1.42278e+00  5.06554e-01 -7.35778e-01
       O  3.83604e-02  3.40813e-01  1.87502e+00
       H  6.22062e-01 -4.40539e-01 -1.30267e-01
       H -9.11551e-02  3.11056e-03 -1.13126e+00
       H -1.18598e-01 -3.67622e-01 -3.85530e-01
7
# CELL(abcABC):  529.17722   529.17722   529.17722    90.00000    90.00000    90.00000  Step:        8420  Bead:       0 forces{eV/ang}  cell{angstrom}
       O -5.62058e-01 -2.18546e+00  8.70516e-01
       H -1.18993e-01  2.63410e-01  1.53805e-01
       H  1.19922e+00  1.11677e+00 -7.79800e-01
       O -2.07474e-03 -7.54811e-01 -6.44502e-01
       H -5.47853e-01  8.18916e-01  1.29512e-01
       H  9.71058e-03  8.51986e-02 -2.55067e-01
       H  2.20473e-02  6.55971e-01  5.25537e-01
7
# CELL(abcABC):  529.17722   529.17722   529.17722    90.00000    90.00000    90.00000  Step:        8440  Bead:       0 forces{eV/ang}  cell{angstrom}
       O -1.30904e+00 -5.00986e-01  2.84233e-01
       H -4.36611e-01  4.19349e-01  1.00264e-01
       H  1.61310e+00  1.10772e-01 -1.45718e-01
       O  2.79290e-01 -1.18396e+00 -1.03711e+00
       H  2.35672e-01 -6.86127e-01 -9.83952e-02
       H -1.51457e-03  1.58723e-01  2.08024e-01
       H -3.80903e-01  1.68223e+00  6.88700e-01
7
# CELL(abcABC):  529.17722   529.17722   529.17722    90.00000    90.00000    90.00000  Step:        8460  Bead:       0 forces{eV/ang}  cell{angstrom}
       O -3.47761e-01 -8.11839e-01 -7.40509e-02
       H  1.81152e-01  5.92590e-01  7.82258e-03
       H  9.86878e-02  2.40853e-01  2.13884e-01
       O  3.65734e-01 -5.32989e-01 -5.54501e-01
       H -1.73447e-01 -5.03694e-02  8.89099e-02
       H  2.20332e-02  1.31514e-01 -1.04693e-01
       H -1.46399e-01  4.30241e-01  4.22628e-01
7
# CELL(abcABC):  529.17722   529.17722   529.17722    90.00000    90.00000    90.00000  Step:        8480  Bead:       0 forces{eV/ang}  cell{angstrom}
       O  1.33315e+00  5.06146e-01  1.64489e-01
       H -4.57337e-01 -5.80351e-03  1.18118e-01
       H -9.39667e-01 -1.00164e+00 -1.09225e-02
       O -1.31880e-01  4.41579e-01  1.74881e-02
       H  6.73848e-03  4.89956e-01 -2.14485e-01
       H  3.81793e-02 -2.46204e-02 -6.34678e-02
       H  1.50814e-01 -4.05619e-01 -1.12191e-02
7
# CELL(abcABC):  529.17722   529.17722   529.17722    90.00000    90.00000    90.00000  Step:        8500  Bead:       0 forces{eV/ang}  cell{angstrom}
       O  1.67157e+00  1.07381e+00 -1.45665e-01
       H  1.82586e-01  1.25263e-02  1.79365e-01
       H -1.56016e+00 -9.68556e-01 -2.89284e-02
       O -6.34086e-01  5.89718e-01  5.89907e-01
       H -1.71589e-01 -4.05397e-01 -1.19131e-01
       H -4.57772e-02  8.92764e-02  1.25169e-01
       H  5.57457e-01 -3.91380e-01 -6.00716e-01
7
# CELL(abcABC):  529.17722   529.17722   529.17722    90.00000    90.00000    90.00000  Step:        8520  Bead:       0 forces{eV/ang}  cell{angstrom}
       O  5.56841e-01  9.78335e-01 -4.12080e-01
       H  9.74018e-02 -3.23544e-02  2.25872e-02
       H -8.55431e-01 -8.00624e-01 -2.07641e-02
       O -3.93348e-01  4.12639e-01  6.62468e-01
       H  4.17302e-01  3.63043e-01  3.16489e-01
       H -1.38701e-01 -2.00325e-01 -3.98536e-02
       H  3.15936e-01 -7.20714e-01 -5.28846e-01
7
# CELL(abcABC):  529.17722   529.17722   529.17722    90.00000    90.00000    90.00000  Step:        8540  Bead:       0 forces{eV/ang}  cell{angstrom}
       O -1.43377e-01  7.97685e-01  1.16245e-01
       H  7.75780e-01 -4.67052e-01  1.70105e-01
       H -3.60863e-01 -1.93567e-01 -2.04519e-01
       O  5.37394e-01 -5.08073e-01  9.73127e-01
       H -6.45790e-01 -7.55794e-03 -4.98638e-01
       H -1.31133e-01  2.71458e-01 -3.09209e-01
       H -3.20106e-02  1.07107e-01 -2.47112e-01
7
# CELL(abcABC):  529.17722   529.17722   529.17722    90.00000    90.00000    90.00000  Step:        8560  Bead:       0 forces{eV/ang}  cell{angstrom}
       O -9.82070e-01  2.02623e-02 -1.93781e-01
       H  4.22870e-01 -1.72588e-01  5.91919e-02
       H  3.11073e-01  7.77046e-02  1.04150e-01
       O -4.26901e-01  4.42790e-01 -5.18763e-01
       H  6.79334e-01 -6.23516e-01  4.23370e-01
       H  5.70758e-01 -1.42303e-01 -1.37588e-01
       H -5.75063e-01  3.97650e-01  2.63420e-01
7
# CELL(abcABC):  529.17722   529.17722   529.17722    90.00000    90.00000    90.00000  Step:        8580  Bead:       0 forces{eV/ang}  cell{angstrom}
       O  4.62507e-02 -8.02509e-01  2.84760e-01
       H -5.04174e-01  2.57699e-01 -3.17275e-01
       H  6.37044e-01  4.49621e-01  7.57637e-02
       O  5.75123e-01 -1.59890e+00 -3.33383e-02
       H -4.64768e-01  3.70901e-02  1.50471e-01
       H  8.05376e-01  7.97607e-01 -4.90354e-01
       H -1.09485e+00  8.59389e-01  3.29972e-01
7
# CELL(abcABC):  529.17722   529.17722   529.17722    90.00000    90.00000    90.00000  Step:        8600  Bead:       0 forces{eV/ang}  cell{angstrom}
       O  9.80013e-02 -1.49318e+00  8.67287e-01
       H -6.35661e-01  3.38215e-01 -4.43633e-01
       H  4.88515e-01  5.33749e-01  9.58791e-02
       O -7.43495e-02 -5.61351e-01  2.20849e-01
       H  3.07579e-01  2.34543e-01 -3.26453e-01
       H  9.70003e-01  4.67311e-01 -4.05339e-01
       H -1.15409e+00  4.80711e-01 -8.59076e-03
7
# CELL(abcABC):  529.17722   529.17722   529.17722    90.00000    90.00000    90.00000  Step:        8620  Bead:       0 forces{eV/ang}  cell{angstrom}
       O  3.39227e-01  1.66720e-01 -3.63125e-01
       H -5.66714e-01 -1.72961e-01 -2.03158e-01
       H  3.86081e-01  4.46839e-01  1.89254e-01
       O -2.04652e+00 -7.94375e-01  8.17358e-01
       H -1.71845e-01 -2.13851e-01  2.82577e-01
       H  1.42160e+00  8.43955e-01 -9.53645e-01
       H  6.38175e-01 -2.76328e-01  2.30740e-01
7
# CELL(abcABC):  529.17722   529.17722   529.17722    90.00000    90.00000    90.00000  Step:        8640  Bead:       0 forces{eV/ang}  cell{angstrom}
       O  1.45187e-01  1.39400e-01 -7.72590e-01
       H -8.45866e-02  1.99086e-01  8.58137e-02
       H -1.64418e-01  1.56317e-01  4.25642e-02
       O -1.66955e+00 -6.29540e-01  4.46944e-01
       H  9.29512e-02  1.97103e-01  3.68198e-01
       H  4.74397e-01  2.21862e-01 -5.49140e-01
       H  1.20601e+00 -2.84227e-01  3.78210e-01
7
# CELL(abcABC):  529.17722   529.17722   529.17722    90.00000    90.00000    90.00000  Step:        8660  Bead:       0 forces{eV/ang}  cell{angstrom}
       O -2.79478e-01  1.03971e+00  5.31848e-01
       H  8.91818e-02 -3.57240e-01  6.56569e-02
       H  1.91884e-01 -4.47967e-01 -2.68857e-01
       O -4.85374e-01  3.81402e-01 -9.53604e-01
       H  2.52074e-03 -5.78944e-02 -6.47317e-01
       H -5.09660e-01 -1.29243e-01  5.28871e-01
       H  9.90925e-01 -4.28768e-01  7.43403e-01
7
# CELL(abcABC):  529.17722   529.17722   529.17722    90.00000    90.00000    90.00000  Step:        8680  Bead:       0 forces{eV/ang}  cell{angstrom}
       O  8.51362e-02  2.72973e-01  5.71307e-01
       H -1.95617e-01  3.44555e-01  1.75919e-02
       H  7.68337e-02 -1.03461e+00 -6.32506e-01
       O  8.02940e-01  2.55789e-01 -1.77586e+00
       H -2.06870e-01  4.18647e-01  2.49831e-01
       H -1.61238e+00  1.64702e-01  1.17585e+00
       H  1.04996e+00 -4.22058e-01  3.93780e-01
7
# CELL(abcABC):  529.17722   529.17722   529.17722    90.00000    90.00000    90.00000  Step:        8700  Bead:       0 forces{eV/ang}  cell{angstrom}
       O -1.77529e-01  6.45616e-02  1.93500e-01
       H  8.14102e-02 -1.28199e-01  1.96992e-01
       H  5.36369e-02 -1.12853e-01 -6.86174e-02
       O  1.02255e+00  1.29105e+00 -1.67444e+00
       H  5.31475e-01 -7.51663e-01  6.66501e-02
       H -1.25941e+00 -5.58343e-01  1.50444e+00
       H -2.52129e-01  1.95450e-01 -2.18518e-01
7
# CELL(abcABC):  529.17722   529.17722   529.17722    90.00000    90.00000    90.00000  Step:        8720  Bead:       0 forces{eV/ang}  cell{angstrom}
       O  6.26621e-02 -6.81851e-01 -3.86169e-01
       H  1.50614e-01  1.13706e-01  3.73090e-01
       H -5.77682e-02  7.14290e-01 -7.26314e-02
       O  2.99386e+00 -2.22065e-01 -1.07993e+00
       H -5.24863e-01  3.17437e-01  8.59108e-02
       H -8.77642e-01 -3.29530e-01  1.48052e+00
       H -1.74686e+00  8.80138e-02 -4.00790e-01
7
# CELL(abcABC):  529.17722   529.17722   529.17722    90.00000    90.00000    90.00000  Step:        8740  Bead:       0 forces{eV/ang}  cell{angstrom}
       O -1.05116e-01 -1.82552e-01 -6.04488e-01
       H  1.55858e-01 -2.06910e-01  3.05775e-01
       H -1.95422e-01  8.41485e-01  1.68738e-01
       O  1.13004e+00 -3.40603e-01 -5.24861e-02
       H  6.43495e-01  3.67625e-02 -1.02916e-01
       H  1.06414e-01 -4.36210e-01  6.48766e-01
       H -1.73527e+00  2.88028e-01 -3.63390e-01
7
# CELL(abcABC):  529.17722   529.17722   529.17722    90.00000    90.00000    90.00000  Step:        8760  Bead:       0 forces{eV/ang}  cell{angstrom}
       O  5.75027e-01 -3.42364e-01 -1.07448e+00
       H  5.16518e-02  5.93074e-02  8.16266e-01
       H -2.30931e-01  2.52366e-01  1.85857e-01
       O  9.83963e-01  2.86410e-02  5.67588e-01
       H -8.72960e-01 -2.19919e-01  2.94911e-01
       H  1.08947e-01  2.61865e-01 -5.06700e-01
       H -6.15698e-01 -3.98967e-02 -2.83444e-01
7
# CELL(abcABC):  529.17722   529.17722   529.17722    90.00000    90.00000    90.00000  Step:        8780  Bead:       0 forces{eV/ang}  cell{angstrom}
       O -3.08071e-01 -8.43332e-01  7.13129e-01
       H -3.61910e-01  1.65542e-01  5.64124e-01
       H  6.78863e-01 -3.41571e-01 -4.40635e-01
       O -2.28280e+00  7.04382e-01  8.54308e-01
       H  6.16253e-01 -2.28079e-01 -1.81796e-01
       H  1.12462e+00  4.13776e-01 -1.42087e+00
       H  5.33047e-01  1.29282e-01 -8.82610e-02
7
# CELL(abcABC):  529.17722   529.17722   529.17722    90.00000    90.00000    90.00000  Step:        8800  Bead:       0 forces{eV/ang}  cell{angstrom}
       O -7.06284e-01 -1.77181e-01 -2.40207e-01
       H  3.31804e-01 -1.00649e-01  1.68817e-01
       H  7.56134e-01 -3.97444e-01  5.29942e-01
       O -2.21613e+00  3.32059e-01  3.12316e-01
       H -3.67688e-01  2.63147e-01 -7.90423e-02
       H  1.29066e+00  2.83602e-01 -1.37633e+00
       H  9.11505e-01 -2.03533e-01  6.84504e-01
7
# CELL(abcABC):  529.17722   529.17722   529.17722    90.00000    90.00000    90.00000  Step:        8820  Bead:       0 forces{eV/ang}  cell{angstrom}
       O -1.08095e+00  4.31190e-01  1.30724e+00
       H -8.97494e-02 -1.69359e-01 -9.68305e-01
       H  7.41433e-01  3.34221e-03 -4.18317e-01
       O -1.95045e+00 -1.61900e-01  8.80613e-01
       H  5.72786e-01 -7.29176e-02  1.66308e-01
       H  7.94922e-01  5.86098e-02 -1.25862e+00
       H  1.01201e+00 -8.89656e-02  2.91085e-01
7
# CELL(abcABC):  529.17722   529.17722   529.17722    90.00000    90.00000    90.00000  Step:        8840  Bead:       0 forces{eV/ang}  cell{angstrom}
       O -6.80235e-01  8.53923e-01  3.65273e-01
       H  9.83710e-01  1.18026e-01 -1.05071e+00
       H -5.04211e-01 -7.91323e-02  3.01647e-01
       O -3.83238e-01 -1.48113e-01  4.72634e-01
       H -3.91030e-01 -4.13340e-01 -1.94258e-01
       H  3.31752e-01  4.86241e-02 -4.71630e-01
       H  6.43253e-01 -3.79988e-01  5.77046e-01
7
# CELL(abcABC):  529.17722   529.17722   529.17722    90.00000    90.00000    90.00000  Step:        8860  Bead:       0 forces{eV/ang}  cell{angstrom}
       O  8.00782e-01 -4.78391e-01  9.68672e-01
       H  8.82726e-02  5.75861e-01 -1.14424e+00
       H -1.21884e+00  2.88098e-01 -4.56806e-01
       O  3.40778e-01 -1.39384e+00  2.51226e-01
       H  5.86021e-01  6.47980e-01  1.52650e-01
       H -4.70118e-01  3.17831e-02  5.95736e-01
       H -1.26893e-01  3.28506e-01 -3.67240e-01
7
# CELL(abcABC):  529.17722   529.17722   529.17722    90.00000    90.00000    90.00000  Step:        8880  Bead:       0 forces{eV/ang}  cell{angstrom}
       O  6.62387e-01  7.84091e-02  1.09256e-01
       H  5.76836e-01  5.24198e-01 -7.30574e-01
       H -9.82236e-01 -1.78454e-01  2.78935e-01
       O  8.10037e-01  2.75703e-01 -1.20176e+00
       H -5.09319e-01 -4.42695e-01  5.60083e-02
       H -1.27070e-01 -1.72510e-01  1.21630e+00
       H -4.30636e-01 -8.46500e-02  2.71835e-01
7
# CELL(abcABC):  529.17722   529.17722   529.17722    90.00000    90.00000    90.00000  Step:        8900  Bead:       0 forces{eV/ang}  cell{angstrom}
       O -2.96198e-01 -1.53676e+00  1.55791e+00
       H -1.84749e-02  2.61930e-01 -5.28189e-01
       H  3.71117e-01  4.18744e-01 -3.52552e-01
       O  1.28888e+00 -2.93412e-02 -3.03821e-01
       H  2.66676e-01  7.33510e-01 -7.33295e-01
       H -9.34092e-01 -1.31895e-01  9.60928e-01
       H -6.77907e-01  2.83814e-01 -6.00982e-01
7
# CELL(abcABC):  529.17722   529.17722   529.17722    90.00000    90.00000    90.00000  Step:        8920  Bead:       0 forces{eV/ang}  cell{angstrom}
       O -2.07516e-01 -1.73949e-01 -8.59718e-01
       H -1.00257e-01 -2.30902e-01  5.46368e-01
       H  5.12322e-01 -1.45760e-02  3.91221e-01
       O  8.10203e-01  7.92392e-01 -1.85937e+00
       H -3.08055e-01 -3.38294e-02  6.18749e-01
       H -2.01724e-01 -1.12808e-01  8.65149e-01
       H -5.04974e-01 -2.26328e-01  2.97603e-01
7
# CELL(abcABC):  529.17722   529.17722   529.17722    90.00000    90.00000    90.00000  Step:        8940  Bead:       0 forces{eV/ang}  cell{angstrom}
       O -4.46275e-01  1.26790e-01 -6.03776e-01
       H -5.12234e-01 -3.70108e-01  5.12051e-01
       H  7.31988e-01  3.32482e-01  1.57581e-01
       O -1.43495e+00 -2.89868e-01  1.38130e+00
       H  4.14386e-01 -5.69101e-02 -4.51865e-01
       H  9.57572e-02 -4.74027e-02 -6.24716e-01
       H  1.15133e+00  3.05016e-01 -3.70579e-01
7
# CELL(abcABC):  529.17722   529.17722   529.17722    90.00000    90.00000    90.00000  Step:        8960  Bead:       0 forces{eV/ang}  cell{angstrom}
       O  7.48322e-01  1.00291e+00 -1.81069e+00
       H -1.05376e+00 -5.51759e-01  1.18388e+00
       H  4.40340e-01  1.72690e-02  2.15489e-01
       O -2.23387e+00 -7.86705e-01  7.65721e-01
       H -5.87452e-01 -3.46694e-01  2.98594e-01
       H  7.15022e-01  2.01670e-01 -1.22057e+00
       H  1.97140e+00  4.63310e-01  5.67577e-01
7
# CELL(abcABC):  529.17722   529.17722   529.17722    90.00000    90.00000    90.00000  Step:        8980  Bead:       0 forces{eV/ang}  cell{angstrom}
       O -2.39640e-01  5.07329e-01 -1.34687e+00
       H -6.80955e-01 -4.24330e-01  9.17145e-01
       H  4.81577e-01  2.30668e-01  5.27478e-02
       O -2.64921e+00 -1.91688e+00  1.15924e+00
       H  4.98695e-01  3.58352e-01  4.20813e-03
       H  7.30439e-01  6.04374e-02 -1.12950e+00
       H  1.85909e+00  1.18442e+00  3.43021e-01
7
# CELL(abcABC):  529.17722   529.17722   529.17722    90.00000    90.00000    90.00000  Step:        9000  Bead:       0 forces{eV/ang}  cell{angstrom}
       O -4.81206e-01  4.39990e-01 -1.21938e-01
       H -8.25733e-02 -9.40977e-02 -6.22784e-03
       H  5.10902e-01  6.64917e-02  1.37372e-01
       O -1.99492e+00 -5.68896e-01 -7.07125e-02
       H -2.48505e-01 -6.04748e-01 -1.23404e-01
       H  3.75229e-01  1.30252e-01 -7.02628e-01
       H  1.92107e+00  6.31007e-01  8.87539e-01
7
# CELL(abcABC):  529.17722   529.17722   529.17722    90.00000    90.00000    90.00000  Step:        9020  Bead:       0 forces{eV/ang}  cell{angstrom}
       O -5.30858e-01 -5.19724e-01  9.86628e-01
       H  3.73508e-01  1.09095e-01 -6.97248e-01
       H  2.70327e-01  1.18164e-01  2.57390e-03
       O -7.04470e-01 -1.23173e-01 -1.32671e+00
       H -4.75927e-02 -2.42819e-02  2.16899e-01
       H -8.12802e-01 -4.79645e-02  3.21942e-01
       H  1.45189e+00  4.87885e-01  4.95918e-01
7
# CELL(abcABC):  529.17722   529.17722   529.17722    90.00000    90.00000    90.00000  Step:        9040  Bead:       0 forces{eV/ang}  cell{angstrom}
       O -1.00683e-01 -1.00117e+00  2.02247e+00
       H  8.91583e-01  3.62289e-01 -1.29607e+00
       H -4.02976e-01  4.44954e-02 -4.04329e-02
       O  7.56582e-01  1.03215e+00 -1.80986e+00
       H -1.10820e-01  2.95605e-01 -2.59880e-01
       H -9.57993e-01 -6.52532e-01  1.42120e+00
       H -7.56928e-02 -8.08394e-02 -3.74272e-02
7
# CELL(abcABC):  529.17722   529.17722   529.17722    90.00000    90.00000    90.00000  Step:        9060  Bead:       0 forces{eV/ang}  cell{angstrom}
       O  2.91014e-01 -2.17679e-01  1.66133e+00
       H  1.24796e+00  2.92875e-01 -1.73052e+00
       H -1.45879e+00 -4.32869e-02  5.91955e-02
       O  1.64027e+00  2.19596e+00 -1.72816e+00
       H  1.66012e-01 -3.74102e-01  2.98809e-01
       H -6.07036e-01 -1.13628e+00  1.73583e+00
       H -1.27943e+00 -7.17490e-01 -2.96494e-01
7
# CELL(abcABC):  529.17722   529.17722   529.17722    90.00000    90.00000    90.00000  Step:        9080  Bead:       0 forces{eV/ang}  cell{angstrom}
       O  9.91956e-01  3.59726e-01  1.64355e+00
       H  4.27687e-01 -3.44020e-02 -1.83719e+00
       H -1.25745e+00 -2.20788e-01 -2.38973e-01
       O  1.89541e+00  1.12929e+00 -5.25733e-02
       H -2.80213e-01  1.06087e-01  1.50005e-01
       H -7.52962e-01 -1.06903e+00  1.01531e+00
       H -1.02443e+00 -2.70882e-01 -6.80132e-01
7
# CELL(abcABC):  529.17722   529.17722   529.17722    90.00000    90.00000    90.00000  Step:        9100  Bead:       0 forces{eV/ang}  cell{angstrom}
       O  1.09719e+00  8.28852e-01 -1.09043e-01
       H  3.83762e-01 -3.12690e-01 -3.62140e-01
       H -1.40477e+00 -1.79552e-01  2.38581e-01
       O -4.47138e-01  2.35926e-01 -6.33488e-01
       H -1.22496e-01 -2.29539e-01  2.42116e-03
       H  4.64555e-01 -1.11059e-01  5.40939e-01
       H  2.88983e-02 -2.31938e-01  3.22730e-01
7
# CELL(abcABC):  529.17722   529.17722   529.17722    90.00000    90.00000    90.00000  Step:        9120  Bead:       0 forces{eV/ang}  cell{angstrom}
       O  1.14298e+00  2.19458e-01 -7.02687e-01
       H -1.47456e-01  1.33735e-01  4.48254e-01
       H -1.25854e+00  2.62510e-02 -1.76836e-01
       O -3.84355e-01 -1.05634e+00  1.41977e+00
       H -4.57916e-02 -1.10793e-01 -6.16098e-02
       H  2.40078e-01  5.05617e-01 -8.18917e-01
       H  4.53086e-01  2.82070e-01 -1.07972e-01
7
# CELL(abcABC):  529.17722   529.17722   529.17722    90.00000    90.00000    90.00000  Step:        9140  Bead:       0 forces{eV/ang}  cell{angstrom}
       O -3.67077e-02 -8.98171e-01 -1.52557e+00
       H  3.59901e-02  6.89903e-01  1.01406e+00
       H -3.85716e-01  2.62766e-01  1.04130e-01
       O -1.33161e+00 -6.68171e-01 -3.32574e-01
       H  4.02188e-01  2.23272e-01  1.72223e-01
       H  6.40968e-01  4.08589e-01 -1.06618e-01
       H  6.74885e-01 -1.81890e-02  6.74352e-01
7
# CELL(abcABC):  529.17722   529.17722   529.17722    90.00000    90.00000    90.00000  Step:        9160  Bead:       0 forces{eV/ang}  cell{angstrom}
       O  6.84300e-01 -3.44857e-01  1.98778e-01
       H -4.82129e-01  6.47936e-01  5.52012e-01
       H  3.66478e-01 -5.61638e-01 -2.40901e-01
       O -4.47804e-01 -6.28112e-01  5.10744e-01
       H -8.47370e-01 -2.21070e-01 -7.46002e-02
       H  1.18757e-01  8.34047e-01 -1.13927e+00
       H  6.07767e-01  2.73694e-01  1.93233e-01
7
# CELL(abcABC):  529.17722   529.17722   529.17722    90.00000    90.00000    90.00000  Step:        9180  Bead:       0 forces{eV/ang}  cell{angstrom}
       O -2.25327e+00  2.38723e-01 -5.29403e-02
       H  3.51433e-01  4.83325e-01  7.15031e-01
       H  1.75110e+00 -9.35120e-01 -1.54300e-01
       O -1.04380e+00 -5.96195e-01 -4.31751e-02
       H  1.14187e+00  2.54339e-01  2.81443e-01
       H  8.20233e-01  9.37285e-01 -4.63204e-01
       H -7.67556e-01 -3.82356e-01 -2.82855e-01
7
# CELL(abcABC):  529.17722   529.17722   529.17722    90.00000    90.00000    90.00000  Step:        9200  Bead:       0 forces{eV/ang}  cell{angstrom}
       O -3.42627e-01  2.49323e-01  3.05095e-01
       H  7.48649e-03  7.81893e-01  6.88615e-01
       H  8.12562e-01 -1.05001e+00 -3.45594e-01
       O  1.56830e+00  9.81150e-01  9.46288e-01
       H -7.02168e-01 -5.90916e-01 -2.68787e-01
       H -2.51349e-01  1.58169e-01 -7.10581e-01
       H -1.09220e+00 -5.29606e-01 -6.15037e-01
7
# CELL(abcABC):  529.17722   529.17722   529.17722    90.00000    90.00000    90.00000  Step:        9220  Bead:       0 forces{eV/ang}  cell{angstrom}
       O -9.18771e-01  7.57802e-03 -7.53130e-01
       H  6.07853e-02  4.81154e-01  1.30572e-01
       H  6.87091e-01 -7.82252e-01  1.38782e-01
       O  5.70244e-01  3.73330e-01  5.01062e-02
       H  6.48492e-01  5.43484e-01  4.16313e-01
       H  5.02814e-01  2.25020e-01  3.01804e-01
       H -1.55066e+00 -8.48313e-01 -2.84448e-01
7
# CELL(abcABC):  529.17722   529.17722   529.17722    90.00000    90.00000    90.00000  Step:        9240  Bead:       0 forces{eV/ang}  cell{angstrom}
       O  4.62535e-01  1.03723e+00  2.44948e-01
       H -4.20520e-01 -8.47789e-01 -5.50919e-01
       H -7.50061e-02  2.37486e-01 -5.10088e-02
       O  1.00443e+00  5.66742e-02  1.23893e+00
       H -2.56381e-01 -5.13302e-01 -1.35645e-01
       H -2.49951e-01  2.80662e-02 -3.02806e-01
       H -4.65104e-01  1.63473e-03 -4.43501e-01
7
# CELL(abcABC):  529.17722   529.17722   529.17722    90.00000    90.00000    90.00000  Step:        9260  Bead:       0 forces{eV/ang}  cell{angstrom}
       O  1.60184e+00 -3.66036e-01  1.27487e+00
       H -6.54627e-01 -6.76928e-01 -8.20892e-01
       H -6.79231e-01  7.06494e-01 -1.82523e-01
       O -8.21033e-01  3.32347e-01 -1.29370e+00
       H -6.03647e-01  3.81554e-01 -2.79426e-01
       H  2.90512e-01 -1.86775e-01  4.81449e-01
       H  8.66188e-01 -1.90655e-01  8.20226e-01
7
# CELL(abcABC):  529.17722   529.17722   529.17722    90.00000    90.00000    90.00000  Step:        9280  Bead:       0 forces{eV/ang}  cell{angstrom}
       O  8.05297e-01 -2.24783e-01  4.55500e-01
       H -2.47606e-01 -1.11346e+00 -2.14847e-01
       H -8.31205e-01  1.49473e+00 -3.50623e-01
       O -1.95261e+00 -1.47973e-01 -4.04560e-01
       H  1.11034e+00 -1.10262e-01  5.93183e-01
       H -4.16638e-01  2.75957e-02  2.78764e-01
       H  1.53242e+00  7.41503e-02 -3.57415e-01
7
# CELL(abcABC):  529.17722   529.17722   529.17722    90.00000    90.00000    90.00000  Step:        9300  Bead:       0 forces{eV/ang}  cell{angstrom}
       O  1.18256e+00  3.03257e-01  7.25662e-01
       H -3.77939e-01 -5.73032e-01 -1.27340e-01
       H -8.16100e-01  7.62681e-01 -7.30247e-01
       O -2.20459e-01  1.50650e+00 -9.75355e-01
       H -5.40773e-01 -5.57395e-01  9.62668e-02
       H -2.05783e-01 -6.01254e-01  2.18465e-01
       H  9.78498e-01 -8.40753e-01  7.92548e-01
7
# CELL(abcABC):  529.17722   529.17722   529.17722    90.00000    90.00000    90.00000  Step:        9320  Bead:       0 forces{eV/ang}  cell{angstrom}
       O -1.84495e-01 -3.13992e-01  3.14663e-01
       H  5.24327e-02 -6.57763e-01 -3.73237e-01
       H  1.84221e-01  2.94277e-01  4.78724e-01
       O -7.61218e-01 -6.29677e-02  5.47008e-01
       H  3.10952e-01  8.19965e-01 -4.83110e-01
       H -2.71361e-01  8.42020e-02 -1.67470e-02
       H  6.69468e-01 -1.63721e-01 -4.67301e-01
7
# CELL(abcABC):  529.17722   529.17722   529.17722    90.00000    90.00000    90.00000  Step:        9340  Bead:       0 forces{eV/ang}  cell{angstrom}
       O -2.72712e-01  7.33622e-01 -7.14705e-02
       H -1.02904e-01  6.27896e-01  3.56172e-01
       H  5.02915e-01 -1.10669e+00 -1.10343e-01
       O -1.38155e-01  8.01183e-01 -7.75739e-01
       H -1.33520e-01 -6.97721e-01  8.36916e-01
       H  2.63306e-02 -1.00331e-01 -3.38388e-01
       H  1.18045e-01 -2.57961e-01  1.02853e-01
7
# CELL(abcABC):  529.17722   529.17722   529.17722    90.00000    90.00000    90.00000  Step:        9360  Bead:       0 forces{eV/ang}  cell{angstrom}
       O -1.27039e+00 -2.58124e-01 -1.57428e+00
       H  3.75310e-01  1.30037e+00  1.00530e+00
       H  9.64805e-01 -1.40062e+00  4.53052e-01
       O -4.05640e-01 -1.00765e+00  1.66247e+00
       H -1.55329e-01  4.65025e-01 -3.24546e-01
       H  1.15250e+00  8.08643e-01 -1.16215e+00
       H -6.61256e-01  9.23468e-02 -5.98508e-02
7
# CELL(abcABC):  529.17722   529.17722   529.17722    90.00000    90.00000    90.00000  Step:        9380  Bead:       0 forces{eV/ang}  cell{angstrom}
       O -1.14904e+00 -1.73747e-01 -1.74381e+00
       H  3.66687e-01  1.49363e+00  1.34266e+00
       H  5.14847e-01 -8.59410e-01 -4.25438e-02
       O  1.99572e-01 -6.73124e-01  1.82689e+00
       H  2.97696e-01 -4.59908e-01 -3.18497e-01
       H  7.88097e-01  5.29031e-01 -7.96180e-01
       H -1.01786e+00  1.43525e-01 -2.68517e-01
7
# CELL(abcABC):  529.17722   529.17722   529.17722    90.00000    90.00000    90.00000  Step:        9400  Bead:       0 forces{eV/ang}  cell{angstrom}
       O -1.06126e-01 -1.46878e+00 -1.23490e+00
       H  2.86565e-01  1.02166e+00  7.31379e-01
       H -1.10421e-01  3.33819e-01 -2.49254e-02
       O  1.09908e+00 -1.59547e-01  7.94364e-01
       H -6.29113e-01  1.66463e-01  1.02790e-01
       H -1.04029e-01  7.52092e-02 -2.69118e-01
       H -4.35953e-01  3.11775e-02 -9.95904e-02
7
# CELL(abcABC):  529.17722   529.17722   529.17722    90.00000    90.00000    90.00000  Step:        9420  Bead:       0 forces{eV/ang}  cell{angstrom}
       O  2.01360e-01 -1.11247e+00  5.66382e-01
       H  7.11090e-02  7.12634e-02  2.23117e-01
       H -4.98785e-01  1.16916e+00 -4.08475e-01
       O -2.61263e-01  2.20284e-01 -9.79328e-01
       H  8.06392e-01 -2.44068e-01  1.98990e-01
       H -1.37280e-01 -1.01567e-01  4.51675e-01
       H -1.81533e-01 -2.59881e-03 -5.23619e-02
7
# CELL(abcABC):  529.17722   529.17722   529.17722    90.00000    90.00000    90.00000  Step:        9440  Bead:       0 forces{eV/ang}  cell{angstrom}
       O  7.95455e-01 -5.53867e-01  1.90572e+00
       H -4.24448e-01 -1.27970e+00 -7.75181e-01
       H -1.02129e-01  1.49196e+00 -2.10340e-01
       O  4.24544e-01  3.43009e-01 -5.79976e-01
       H -4.94639e-01  1.10927e-01 -9.65320e-02
       H -5.20048e-01 -1.52802e-01 -2.28452e-01
       H  3.21265e-01  4.04727e-02 -1.52361e-02
7
# CELL(abcABC):  529.17722   529.17722   529.17722    90.00000    90.00000    90.00000  Step:        9460  Bead:       0 forces{eV/ang}  cell{angstrom}
       O  1.43603e+00 -3.50669e-01  1.95244e+00
       H -1.06518e+00 -9.60918e-01 -1.05699e+00
       H -2.79249e-01  1.09572e+00 -6.22822e-01
       O -1.12937e+00 -4.74597e-01 -1.86522e+00
       H  4.21328e-02  1.39306e-01  2.45051e-01
       H  3.61659e-01  8.24048e-02  4.29644e-01
       H  6.33981e-01  4.68755e-01  9.17894e-01
7
# CELL(abcABC):  529.17722   529.17722   529.17722    90.00000    90.00000    90.00000  Step:        9480  Bead:       0 forces{eV/ang}  cell{angstrom}
       O  1.20015e+00  5.63263e-01  5.01209e-01
       H -8.99876e-01 -7.58534e-01 -1.82657e-01
       H -7.22907e-02  5.74187e-01 -2.99761e-01
       O -1.36078e+00 -8.03856e-01  8.16354e-01
       H -4.98199e-02 -2.79310e-01 -1.36254e-01
       H -1.20854e-01 -3.22993e-01 -2.84924e-01
       H  1.30348e+00  1.02724e+00 -4.13966e-01
7
# CELL(abcABC):  529.17722   529.17722   529.17722    90.00000    90.00000    90.00000  Step:        9500  Bead:       0 forces{eV/ang}  cell{angstrom}
       O  3.61063e-01  8.33377e-01 -4.10352e-01
       H -4.41472e-01 -3.49036e-01 -2.70220e-01
       H  2.27414e-01 -7.71214e-01  5.20802e-01
       O  2.56622e-01 -1.36713e+00 -9.45284e-01
       H -2.61987e-01  4.60099e-01  1.02946e-01
       H -1.51656e-01  5.15994e-01  5.46919e-01
       H  1.00147e-02  6.77906e-01  4.55190e-01
7
# CELL(abcABC):  529.17722   529.17722   529.17722    90.00000    90.00000    90.00000  Step:        9520  Bead:       0 forces{eV/ang}  cell{angstrom}
       O -3.79301e-02  1.07662e+00  2.87187e-01
       H -4.03643e-02  3.72585e-01 -1.18470e-01
       H -1.12508e-01 -1.27374e+00 -8.34207e-03
       O  4.48442e-01  4.17815e-01  7.14442e-01
       H  1.67753e-01 -4.05122e-01 -3.95847e-01
       H -6.01381e-01 -1.11449e-01 -2.22493e-01
       H  1.75989e-01 -7.67082e-02 -2.56477e-01
7
# CELL(abcABC):  529.17722   529.17722   529.17722    90.00000    90.00000    90.00000  Step:        9540  Bead:       0 forces{eV/ang}  cell{angstrom}
       O -9.80871e-01  6.23959e-01 -1.44228e+00
       H  6.51888e-01  3.98175e-01  5.10371e-01
       H  1.31947e-01 -1.37184e+00  7.41833e-01
       O  9.96921e-01  1.37884e-01 -3.25344e-01
       H -3.24514e-02  3.46234e-01  3.99440e-01
       H  8.02472e-02  8.71104e-02  1.15372e-01
       H -8.47681e-01 -2.21525e-01  6.02406e-04
7
# CELL(abcABC):  529.17722   529.17722   529.17722    90.00000    90.00000    90.00000  Step:        9560  Bead:       0 forces{eV/ang}  cell{angstrom}
       O -6.84613e-01 -2.21094e-01  1.47526e-01
       H  9.82121e-01  1.00269e+00  8.86931e-01
       H -6.40340e-02 -4.03284e-01 -2.78191e-01
       O  3.78333e-01  6.10511e-02  9.21116e-01
       H -4.31237e-01 -2.77222e-01 -8.37867e-01
       H  3.09631e-01 -9.35715e-02 -5.44968e-01
       H -4.90199e-01 -6.85693e-02 -2.94548e-01
7
# CELL(abcABC):  529.17722   529.17722   529.17722    90.00000    90.00000    90.00000  Step:        9580  Bead:       0 forces{eV/ang}  cell{angstrom}
       O -6.71384e-01 -1.01857e+00 -5.65736e-01
       H  5.39969e-01  4.44675e-01  5.13261e-01
       H  7.87867e-02  5.06010e-01 -3.72513e-01
       O -1.87414e+00  2.76132e-01  7.18350e-01
       H  2.61789e-01  3.85760e-01  2.77787e-01
       H  8.99373e-01 -6.12347e-01 -8.90864e-01
       H  7.65610e-01  1.83421e-02  3.19713e-01
7
# CELL(abcABC):  529.17722   529.17722   529.17722    90.00000    90.00000    90.00000  Step:        9600  Bead:       0 forces{eV/ang}  cell{angstrom}
       O  1.65026e-01 -1.19068e-01  2.75200e-02
       H -9.83321e-02 -5.86427e-02 -1.55887e-01
       H -2.29524e-02  5.34627e-02 -1.16997e-01
       O -1.61768e+00  7.96761e-01  5.78029e-01
       H  3.18096e-02  2.04523e-01  3.64867e-01
       H  2.71609e-01 -5.21927e-01 -7.29644e-01
       H  1.27052e+00 -3.55110e-01  3.21132e-02
7
# CELL(abcABC):  529.17722   529.17722   529.17722    90.00000    90.00000    90.00000  Step:        9620  Bead:       0 forces{eV/ang}  cell{angstrom}
       O  2.36065e-01  1.40682e-01  7.04131e-01
       H -2.72971e-02  1.37014e-02 -2.01856e-01
       H  4.34928e-02  6.79228e-02 -2.94666e-01
       O -5.36146e-01  2.02581e-01 -2.81513e-01
       H -5.09473e-01 -3.59417e-01 -4.40615e-01
       H  1.64832e-01  7.89385e-02  2.98373e-01
       H  6.28527e-01 -1.44408e-01  2.16146e-01
7
# CELL(abcABC):  529.17722   529.17722   529.17722    90.00000    90.00000    90.00000  Step:        9640  Bead:       0 forces{eV/ang}  cell{angstrom}
       O -2.09729e-01  1.74796e-01  8.45446e-03
       H -1.29130e-01 -2.89659e-01 -4.52216e-01
       H  8.28668e-02 -3.73750e-01  6.91256e-01
       O -6.14557e-02 -5.53900e-01 -1.17743e+00
       H  6.12434e-01  1.34465e-01  9.27835e-01
       H -4.21213e-02  6.64984e-01  4.03774e-01
       H -2.52865e-01  2.43064e-01 -4.01675e-01
7
# CELL(abcABC):  529.17722   529.17722   529.17722    90.00000    90.00000    90.00000  Step:        9660  Bead:       0 forces{eV/ang}  cell{angstrom}
       O  3.91219e-01  1.19161e+00  8.53227e-01
       H -1.81414e-01 -2.88337e-03 -4.30023e-01
       H -1.76885e-02 -7.27886e-01 -2.35951e-01
       O  1.06659e+00 -1.60150e+00  2.82886e-01
       H -5.35729e-01 -5.55610e-01 -4.71396e-01
       H -3.48511e-02  1.12830e+00  3.49265e-01
       H -6.88126e-01  5.67970e-01 -3.48009e-01
7
# CELL(abcABC):  529.17722   529.17722   529.17722    90.00000    90.00000    90.00000  Step:        9680  Bead:       0 forces{eV/ang}  cell{angstrom}
       O -1.33384e+00 -1.48567e-01 -1.44086e+00
       H  8.62384e-01  5.85667e-01  8.98775e-01
       H  4.24983e-01 -4.81613e-01  5.41910e-01
       O -1.03767e-01 -1.09572e+00 -5.08971e-01
       H -8.14348e-04  4.40084e-01 -8.43341e-02
       H  1.87380e-01  5.91416e-01  1.97978e-01
       H -3.63265e-02  1.08736e-01  3.95503e-01
7
# CELL(abcABC):  529.17722   529.17722   529.17722    90.00000    90.00000    90.00000  Step:        9700  Bead:       0 forces{eV/ang}  cell{angstrom}
       O -7.05682e-01  3.03274e-01 -7.12659e-01
       H  4.74748e-01  1.26696e+00  3.66314e-01
       H -7.22671e-02 -1.12146e+00 -1.79145e-01
       O -2.30192e-01  5.35135e-01 -9.98692e-02
       H  4.93624e-01 -5.46731e-01 -8.14083e-02
       H -4.84097e-02  3.16172e-01  4.43715e-01
       H  8.81787e-02 -7.53341e-01  2.63052e-01
7
# CELL(abcABC):  529.17722   529.17722   529.17722    90.00000    90.00000    90.00000  Step:        9720  Bead:       0 forces{eV/ang}  cell{angstrom}
       O -6.28680e-01 -1.47442e+00 -2.03433e+00
       H  9.15422e-01  7.27993e-01  7.33801e-01
       H  2.44022e-01  1.78409e-01  7.52962e-01
       O  1.07764e-01  1.13988e+00 -3.28565e-01
       H -7.31460e-01  8.61689e-01  2.62792e-01
       H  1.70341e-02  1.45190e-01  2.31274e-01
       H  7.58975e-02 -1.57875e+00  3.82065e-01
7
# CELL(abcABC):  529.17722   529.17722   529.17722    90.00000    90.00000    90.00000  Step:        9740  Bead:       0 forces{eV/ang}  cell{angstrom}
       O  4.25670e-02 -4.56090e-01  1.48851e+00
       H -3.13709e-02  1.22205e+00  1.52138e-01
       H -3.36102e-01 -4.33301e-01 -7.62112e-01
       O -6.35712e-02  1.67842e+00 -1.01036e+00
       H  4.38655e-01 -9.02454e-01 -5.63601e-01
       H -8.29400e-02 -1.57347e-01  4.88822e-01
       H  3.27620e-02 -9.51279e-01  2.06608e-01
7
# CELL(abcABC):  529.17722   529.17722   529.17722    90.00000    90.00000    90.00000  Step:        9760  Bead:       0 forces{eV/ang}  cell{angstrom}
       O -4.20068e-01 -7.59030e-01 -9.96894e-01
       H  4.50965e-01 -7.55477e-01  2.75897e-01
       H  2.15874e-03  9.61193e-01  8.24038e-01
       O -1.13221e-01 -9.64816e-01 -1.73501e-01
       H  1.54940e-01  1.15628e+00  4.19587e-01
       H  3.52438e-02  5.67605e-01 -3.50175e-01
       H -1.10019e-01 -2.05760e-01  1.04680e-03
7
# CELL(abcABC):  529.17722   529.17722   529.17722    90.00000    90.00000    90.00000  Step:        9780  Bead:       0 forces{eV/ang}  cell{angstrom}
       O -3.99325e-01  1.65467e+00  2.40158e+00
       H  1.89938e-01 -1.02746e+00 -1.43500e+00
       H  1.39171e-01 -2.23397e-01 -1.07614e+00
       O -5.79123e-02 -1.41352e+00  1.66290e+00
       H -2.29514e-01 -7.89855e-01 -1.75335e-01
       H  8.85946e-02  1.61935e-01  3.04792e-01
       H  2.69047e-01  1.63763e+00 -1.68280e+00
7
# CELL(abcABC):  529.17722   529.17722   529.17722    90.00000    90.00000    90.00000  Step:        9800  Bead:       0 forces{eV/ang}  cell{angstrom}
       O -1.24923e+00  9.68979e-01 -9.28579e-01
       H  1.80056e+00 -1.77195e+00 -1.41477e-01
       H -4.02632e-01  6.51068e-01  2.87477e-01
       O -9.71460e-01 -2.82871e+00  3.74528e+00
       H -3.24204e-02  7.86456e-01  4.90151e-01
       H  6.34514e-02  2.81868e-01 -5.55115e-01
       H  7.91730e-01  1.91229e+00 -2.89774e+00
7
# CELL(abcABC):  529.17722   529.17722   529.17722    90.00000    90.00000    90.00000  Step:        9820  Bead:       0 forces{eV/ang}  cell{angstrom}
       O -9.13133e-01  1.94244e+00  1.90905e+00
       H  6.29864e-01 -1.44053e+00 -1.01533e+00
       H  2.67881e-01 -4.46842e-01 -4.77099e-01
       O -3.48508e-02  1.34762e-01  1.75667e+00
       H -5.10940e-02 -1.12369e-01 -4.87542e-01
       H -8.41665e-01 -1.03260e+00 -2.12768e-01
       H  9.42998e-01  9.55137e-01 -1.47298e+00
7
# CELL(abcABC):  529.17722   529.17722   529.17722    90.00000    90.00000    90.00000  Step:        9840  Bead:       0 forces{eV/ang}  cell{angstrom}
       O -1.63060e+00  1.06390e-01 -9.03477e-01
       H  9.90940e-01 -3.39469e-01  1.59488e-01
       H  4.11688e-01  4.54747e-01  4.07320e-01
       O  1.22039e+00  9.00171e-01  1.06359e+00
       H  2.10374e-01 -3.31374e-01  1.64698e-01
       H -1.04755e+00 -7.03045e-01 -7.26319e-01
       H -1.55232e-01 -8.74196e-02 -1.65302e-01
7
# CELL(abcABC):  529.17722   529.17722   529.17722    90.00000    90.00000    90.00000  Step:        9860  Bead:       0 forces{eV/ang}  cell{angstrom}
       O -3.88055e-01 -1.01550e+00 -5.04548e-01
       H -9.93881e-01  6.35174e-02  1.99338e-01
       H  1.44171e+00  5.52114e-01  8.58152e-02
       O  2.03102e+00  3.73885e-01 -9.15067e-02
       H -2.27264e-01  6.49461e-01  6.67545e-02
       H -1.15017e+00 -2.91948e-01 -4.32967e-01
       H -7.13365e-01 -3.31528e-01  6.77114e-01
7
# CELL(abcABC):  529.17722   529.17722   529.17722    90.00000    90.00000    90.00000  Step:        9880  Bead:       0 forces{eV/ang}  cell{angstrom}
       O  6.59922e-01 -6.11022e-01 -1.45834e+00
       H -1.35507e+00  3.45882e-01  1.25666e+00
       H  5.16274e-01  6.43804e-01  4.32333e-01
       O  1.23312e+00  6.18442e-01 -4.36499e-01
       H  2.86309e-01 -6.47766e-01 -2.33401e-01
       H  1.88209e-02  8.50117e-02 -2.72751e-01
       H -1.35938e+00 -4.34352e-01  7.12002e-01
7
# CELL(abcABC):  529.17722   529.17722   529.17722    90.00000    90.00000    90.00000  Step:        9900  Bead:       0 forces{eV/ang}  cell{angstrom}
       O  2.36174e+00  6.84758e-01 -1.04574e+00
       H -2.57129e+00 -5.68418e-01  1.62336e+00
       H  2.88362e-01  2.63003e-02 -2.55291e-01
       O -2.88954e-01  9.06826e-01 -2.35942e+00
       H  2.45054e-02 -2.00654e-01 -2.08672e-01
       H  1.10850e+00 -4.89496e-01  8.22527e-01
       H -9.22870e-01 -3.59318e-01  1.42324e+00
7
# CELL(abcABC):  529.17722   529.17722   529.17722    90.00000    90.00000    90.00000  Step:        9920  Bead:       0 forces{eV/ang}  cell{angstrom}
       O  2.16305e+00  7.25998e-01 -1.81341e+00
       H -1.91469e+00 -8.19568e-01  1.94812e+00
       H -1.53364e-01 -2.37926e-01 -4.26389e-02
       O -3.38490e-01  1.52831e-01 -6.67628e-01
       H -2.60901e-01  6.18249e-01 -9.19048e-02
       H  1.88798e+00 -5.81221e-01 -8.17577e-02
       H -1.38358e+00  1.41637e-01  7.49215e-01
7
# CELL(abcABC):  529.17722   529.17722   529.17722    90.00000    90.00000    90.00000  Step:        9940  Bead:       0 forces{eV/ang}  cell{angstrom}
       O  2.09433e-01  7.71674e-01  4.44461e-01
       H  1.50920e-02 -2.55885e-01 -4.65990e-01
       H  7.16534e-02 -3.34049e-01 -2.64938e-01
       O -1.31453e+00  1.35835e+00 -2.24856e+00
       H -1.03031e-01 -3.58836e-01  3.89852e-02
       H  1.48268e+00 -1.12311e+00  9.06611e-01
       H -3.61300e-01 -5.81408e-02  1.58943e+00
7
# CELL(abcABC):  529.17722   529.17722   529.17722    90.00000    90.00000    90.00000  Step:        9960  Bead:       0 forces{eV/ang}  cell{angstrom}
       O -6.14431e-01 -1.39881e+00  5.43876e-01
       H  9.73115e-01  1.41275e+00 -4.78307e-01
       H -4.00850e-01 -3.19073e-01  3.15857e-01
       O -6.44881e-01  4.91204e-01  9.89864e-03
       H  5.94222e-02  3.27488e-01 -5.47070e-01
       H  1.34201e+00 -7.08899e-01  2.38979e-02
       H -7.14387e-01  1.95347e-01  1.31847e-01
7
# CELL(abcABC):  529.17722   529.17722   529.17722    90.00000    90.00000    90.00000  Step:        9980  Bead:       0 forces{eV/ang}  cell{angstrom}
       O -1.04048e+00 -4.33889e-01  1.89552e+00
       H  8.93373e-01  4.49670e-01 -1.49301e+00
       H  2.31707e-01  2.01327e-01 -1.71784e-01
       O -4.09724e-01  1.20269e-02 -7.59308e-01
       H  3.79568e-02 -2.05636e-02  6.81511e-01
       H -2.64700e-01 -3.54254e-02  3.51980e-02
       H  5.51868e-01 -1.73146e-01 -1.88129e-01
7
# CELL(abcABC):  529.17722   529.17722   529.17722    90.00000    90.00000    90.00000  Step:       10000  Bead:       0 forces{eV/ang}  cell{angstrom}
       O -4.66433e-01 -1.20078e+00  7.69922e-01
       H  4.44117e-01  1.20621e+00 -8.61858e-01
       H -1.04678e-01 -4.53850e-02  3.35795e-01
       O -4.73137e-01 -3.40472e-01  1.04077e+00
       H  8.56808e-02  1.21299e-01 -6.38987e-02
       H -4.15585e-01  3.28223e-01 -4.60857e-01
       H  9.30035e-01 -6.90987e-02 -7.59877e-01
7
# CELL(abcABC):  529.17722   529.17722   529.17722    90.00000    90.00000    90.00000  Step:       10020  Bead:       0 forces{eV/ang}  cell{angstrom}
       O -3.92752e-01 -3.40312e-01  1.23057e+00
       H  2.12510e-01  4.23013e-01 -8.69764e-01
       H  8.20062e-02  9.47547e-03 -2.50490e-01
       O -1.20588e+00 -4.10813e-01  2.17172e+00
       H  1.67353e-01 -1.67021e-01 -1.29202e-01
       H -1.20131e+00  8.90223e-01 -1.00604e+00
       H  2.33807e+00 -4.04566e-01 -1.14679e+00
7
# CELL(abcABC):  529.17722   529.17722   529.17722    90.00000    90.00000    90.00000  Step:       10040  Bead:       0 forces{eV/ang}  cell{angstrom}
       O -2.13545e-01 -3.45862e-01  4.22026e-01
       H -1.51283e-01  1.00347e+00 -6.72579e-01
       H  2.86758e-01 -5.44345e-01 -5.89926e-02
       O -5.26944e-01 -5.44008e-01  1.51610e+00
       H -1.01444e-01  1.15020e-01  8.48513e-01
       H -1.17016e+00  9.51908e-01 -9.46155e-01
       H  1.87662e+00 -6.36181e-01 -1.10892e+00
7
# CELL(abcABC):  529.17722   529.17722   529.17722    90.00000    90.00000    90.00000  Step:       10060  Bead:       0 forces{eV/ang}  cell{angstrom}
       O -3.56388e-01 -4.84228e-02  8.22647e-01
       H -4.35785e-02  3.64583e-01 -2.36714e-01
       H  3.67550e-01 -6.42337e-01 -8.40744e-01
       O -4.63140e-01  1.25511e-01  2.16696e+00
       H  1.27753e-01  1.86026e-01 -2.37212e-01
       H -6.17890e-01  4.31208e-01 -7.57811e-01
       H  9.85693e-01 -4.16568e-01 -9.17126e-01
7
# CELL(abcABC):  529.17722   529.17722   529.17722    90.00000    90.00000    90.00000  Step:       10080  Bead:       0 forces{eV/ang}  cell{angstrom}
       O -6.36484e-01  9.52818e-01 -7.51572e-01
       H  1.51414e-02 -4.53324e-01  5.94841e-01
       H  5.88130e-01 -6.61188e-01 -2.34180e-01
       O -2.80347e-01  2.42749e-01 -1.85561e-01
       H  6.35136e-02 -3.63143e-02 -1.33543e-02
       H -1.13358e-01  6.53715e-02  2.32717e-01
       H  3.63403e-01 -1.10113e-01  3.57109e-01
7
# CELL(abcABC):  529.17722   529.17722   529.17722    90.00000    90.00000    90.00000  Step:       10100  Bead:       0 forces{eV/ang}  cell{angstrom}
       O -2.70406e-01  3.25283e-01 -6.48875e-01
       H  1.83382e-01 -4.84621e-01  2.21160e-01
       H  1.32338e-01  4.93350e-02 -1.15943e-01
       O  5.07174e-01 -1.07244e-02  3.61402e-01
       H -3.45087e-01 -1.62739e-01 -5.22629e-02
       H  5.05388e-01 -5.44142e-01 -2.12660e-01
       H -7.12790e-01  8.27609e-01  4.47178e-01
7
# CELL(abcABC):  529.17722   529.17722   529.17722    90.00000    90.00000    90.00000  Step:       10120  Bead:       0 forces{eV/ang}  cell{angstrom}
       O  2.05291e-01 -8.59441e-01 -1.19682e+00
       H  5.77112e-02  5.56130e-02 -5.88821e-02
       H -5.98446e-01  6.89488e-01  5.49258e-01
       O  8.32954e-01 -3.98248e-01 -2.31389e+00
       H  1.17575e-01  3.72280e-02  1.28711e-01
       H  3.03703e-01 -3.26511e-01  1.11697e+00
       H -9.18787e-01  8.01871e-01  1.77465e+00
7
# CELL(abcABC):  529.17722   529.17722   529.17722    90.00000    90.00000    90.00000  Step:       10140  Bead:       0 forces{eV/ang}  cell{angstrom}
       O  4.05946e-01 -1.46447e+00  2.67548e-01
       H  8.97741e-02  4.30466e-01 -7.33274e-01
       H -6.35171e-01  9.79379e-01  3.69186e-01
       O  6.11530e-01 -1.02743e-01 -2.27427e-01
       H -1.54927e-01  2.03244e-01 -2.68322e-01
       H  1.25800e+00 -1.33301e+00  5.90178e-01
       H -1.57515e+00  1.28714e+00  2.11117e-03
7
# CELL(abcABC):  529.17722   529.17722   529.17722    90.00000    90.00000    90.00000  Step:       10160  Bead:       0 forces{eV/ang}  cell{angstrom}
       O  1.31508e-01  9.18903e-03  3.42483e-01
       H -7.53618e-02  1.36968e-01 -1.17010e-01
       H -1.56936e-02  1.34273e-01  2.13253e-01
       O  1.24118e-01  1.46299e-01 -2.87223e+00
       H  3.01475e-01  3.00121e-02  3.34601e-01
       H  1.36039e-01 -6.44840e-01  1.24233e+00
       H -6.02086e-01  1.88099e-01  8.56574e-01
7
# CELL(abcABC):  529.17722   529.17722   529.17722    90.00000    90.00000    90.00000  Step:       10180  Bead:       0 forces{eV/ang}  cell{angstrom}
       O  4.82590e-01  3.29030e-01  1.24244e+00
       H -2.69235e-02 -2.43363e-03  1.06995e-01
       H -3.42758e-02 -2.03411e-01 -2.82469e-01
       O -7.41870e-01  4.99574e-01 -3.27490e-01
       H -3.50954e-01  1.29953e-01 -1.40666e-01
       H  4.26271e-01 -6.52705e-01  9.46295e-02
       H  2.45163e-01 -1.00007e-01 -6.93435e-01
7
# CELL(abcABC):  529.17722   529.17722   529.17722    90.00000    90.00000    90.00000  Step:       10200  Bead:       0 forces{eV/ang}  cell{angstrom}
       O  3.74171e-01  1.19584e+00  3.33935e-01
       H -2.11396e-01 -4.99704e-01  4.64900e-01
       H -5.67686e-02 -4.52414e-01 -2.83273e-01
       O -8.40657e-01  5.11323e-01 -1.59591e-05
       H  1.77210e-01 -3.89760e-01 -1.43567e-01
       H -3.59626e-01  9.28604e-02 -6.29718e-02
       H  9.17066e-01 -4.58148e-01 -3.09007e-01
7
# CELL(abcABC):  529.17722   529.17722   529.17722    90.00000    90.00000    90.00000  Step:       10220  Bead:       0 forces{eV/ang}  cell{angstrom}
       O  2.12742e-01  3.31885e-01 -1.07021e+00
       H -3.26755e-01 -4.52847e-01  8.05323e-01
       H -1.05857e-01 -2.08845e-01 -9.00994e-02
       O  2.17741e-01 -5.41283e-01  2.15855e+00
       H -3.60922e-02  2.90548e-01 -1.68028e-01
       H -8.37944e-01  8.64698e-01 -8.58440e-01
       H  8.76164e-01 -2.84155e-01 -7.77103e-01
7
# CELL(abcABC):  529.17722   529.17722   529.17722    90.00000    90.00000    90.00000  Step:       10240  Bead:       0 forces{eV/ang}  cell{angstrom}
       O -7.86832e-02  5.98898e-01 -1.37399e+00
       H -3.86212e-01 -6.27294e-01  5.71580e-01
       H  1.87781e-01 -7.52725e-03  7.10257e-03
       O  8.19263e-01 -4.82803e-01  1.47789e+00
       H  4.22293e-02 -2.01497e-01  1.85529e-01
       H -1.08101e+00  9.50644e-01 -6.70211e-01
       H  4.96634e-01 -2.30420e-01 -1.97895e-01
7
# CELL(abcABC):  529.17722   529.17722   529.17722    90.00000    90.00000    90.00000  Step:       10260  Bead:       0 forces{eV/ang}  cell{angstrom}
       O  8.37539e-03 -5.65936e-01 -1.03052e+00
       H -1.06470e-01 -1.99575e-01  3.12914e-01
       H  6.76776e-03  4.94775e-01  1.33196e-01
       O  9.45695e-01 -4.96844e-01  4.39118e-01
       H -1.12330e-01  2.75296e-01  1.93445e-01
       H -5.15986e-01  4.60709e-01 -3.13186e-01
       H -2.26052e-01  3.15757e-02  2.65036e-01
7
# CELL(abcABC):  529.17722   529.17722   529.17722    90.00000    90.00000    90.00000  Step:       10280  Bead:       0 forces{eV/ang}  cell{angstrom}
       O  2.06215e-01 -6.90108e-01  1.89688e-02
       H -1.18693e-01 -2.90050e-01  1.11298e-01
       H  1.15481e-02  9.14576e-01  1.18645e-01
       O  1.55397e-01  3.53760e-01 -4.99041e-01
       H  2.05101e-01 -5.10088e-02 -4.24467e-01
       H  9.24400e-02 -2.35921e-01 -2.86977e-01
       H -5.52007e-01 -1.24799e-03  9.61572e-01
7
# CELL(abcABC):  529.17722   529.17722   529.17722    90.00000    90.00000    90.00000  Step:       10300  Bead:       0 forces{eV/ang}  cell{angstrom}
       O  3.14664e-01 -4.52847e-01 -4.29182e-01
       H -3.32679e-02  1.43640e-01  1.55666e-01
       H -9.87303e-02  3.89600e-01  4.67121e-01
       O -2.04471e-01  8.39408e-02 -1.89997e+00
       H -1.98872e-01  2.36737e-01  7.70997e-01
       H  6.10269e-01 -2.89255e-01  4.13225e-01
       H -3.89593e-01 -1.11816e-01  5.22145e-01
7
# CELL(abcABC):  529.17722   529.17722   529.17722    90.00000    90.00000    90.00000  Step:       10320  Bead:       0 forces{eV/ang}  cell{angstrom}
       O -2.46521e-01 -8.83941e-02  1.28523e+00
       H  1.49514e-01 -1.32803e-01 -5.05449e-01
       H  6.57608e-02  1.06717e-01 -5.24337e-01
       O -6.50651e-01  4.67538e-02  3.43755e-03
       H  3.19438e-01  1.53650e-01 -4.00930e-01
       H  7.92273e-01 -9.29531e-02  7.22040e-02
       H -4.29815e-01  7.02931e-03  6.98412e-02
7
# CELL(abcABC):  529.17722   529.17722   529.17722    90.00000    90.00000    90.00000  Step:       10340  Bead:       0 forces{eV/ang}  cell{angstrom}
       O  2.51312e-02 -5.64974e-01 -8.34523e-01
       H  5.50996e-02  7.79771e-01  5.50380e-02
       H -2.46819e-01 -2.33644e-01  3.54641e-01
       O -4.28536e-01  2.08490e-01 -1.68491e-01
       H  8.69054e-02 -1.12548e-01 -1.00153e-02
       H  1.32146e-01 -8.95198e-02  6.41512e-01
       H  3.76073e-01  1.24236e-02 -3.81613e-02
7
# CELL(abcABC):  529.17722   529.17722   529.17722    90.00000    90.00000    90.00000  Step:       10360  Bead:       0 forces{eV/ang}  cell{angstrom}
       O -4.60945e-01 -9.98875e-02  1.24512e+00
       H  3.16593e-01  3.81010e-01 -6.31495e-01
       H  1.75664e-01 -5.47845e-01 -1.02846e+00
       O -3.40542e-01 -2.78832e-01  8.88647e-01
       H -1.51953e-01  1.93147e-01 -1.84933e-01
       H  1.83156e-01  1.55856e-01  1.54080e-01
       H  2.78027e-01  1.96551e-01 -4.42959e-01
7
# CELL(abcABC):  529.17722   529.17722   529.17722    90.00000    90.00000    90.00000  Step:       10380  Bead:       0 forces{eV/ang}  cell{angstrom}
       O -4.10585e-01  6.31392e-01  2.29415e-01
       H  1.45086e-01  6.88559e-01 -2.50012e-01
       H  1.89464e-01 -1.09929e+00 -2.32555e-01
       O -1.14874e+00 -7.23157e-01  8.46138e-01
       H  3.94128e-01 -1.29601e-01  5.44458e-01
       H -4.06682e-01 -9.84049e-02 -3.55842e-01
       H  1.23733e+00  7.30498e-01 -7.81601e-01
7
# CELL(abcABC):  529.17722   529.17722   529.17722    90.00000    90.00000    90.00000  Step:       10400  Bead:       0 forces{eV/ang}  cell{angstrom}
       O -3.58626e-01  4.13683e-01  1.46986e+00
       H  2.71159e-01  4.34614e-01 -3.34068e-01
       H  3.81076e-01 -8.38701e-01 -5.56512e-01
       O  6.85186e-03 -7.90603e-02  1.18244e+00
       H -4.25471e-01  2.35238e-02 -3.80091e-01
       H -8.64977e-01 -3.75032e-01 -5.65422e-01
       H  9.89987e-01  4.20972e-01 -8.16202e-01
7
# CELL(abcABC):  529.17722   529.17722   529.17722    90.00000    90.00000    90.00000  Step:       10420  Bead:       0 forces{eV/ang}  cell{angstrom}
       O -2.11939e-01  4.25860e-01 -2.90374e-01
       H  6.88762e-02  2.48134e-01  6.66415e-02
       H  1.69336e-01 -5.86036e-01  1.21835e-01
       O -7.04497e-01 -3.01037e-01  7.06934e-01
       H  1.72056e-01  3.79923e-02  1.24407e-01
       H -3.45727e-01 -1.47540e-01 -3.39348e-01
       H  8.51895e-01  3.22628e-01 -3.90095e-01
7
# CELL(abcABC):  529.17722   529.17722   529.17722    90.00000    90.00000    90.00000  Step:       10440  Bead:       0 forces{eV/ang}  cell{angstrom}
       O  8.21427e-02  5.47036e-01 -5.52508e-01
       H -1.06430e-01 -4.26975e-01  9.96362e-02
       H  1.94337e-01 -8.31738e-02  2.54389e-02
       O  8.61910e-01  2.68554e-01  2.96377e-01
       H -3.33169e-01 -2.85681e-03  1.19610e-01
       H -2.63507e-02 -5.35513e-02 -2.02324e-01
       H -6.72440e-01 -2.49033e-01  2.13771e-01
7
# CELL(abcABC):  529.17722   529.17722   529.17722    90.00000    90.00000    90.00000  Step:       10460  Bead:       0 forces{eV/ang}  cell{angstrom}
       O -9.86823e-02 -3.45324e-01 -9.33147e-01
       H  3.09239e-03 -1.57360e-01  1.07933e-01
       H -1.24801e-01  4.68227e-01  2.81456e-01
       O  8.99840e-01  1.89090e-01 -2.33871e-01
       H  2.96096e-01  8.97433e-02  2.31271e-01
       H  3.17233e-01  2.31979e-02  3.81836e-01
       H -1.29278e+00 -2.67574e-01  1.64522e-01
7
# CELL(abcABC):  529.17722   529.17722   529.17722    90.00000    90.00000    90.00000  Step:       10480  Bead:       0 forces{eV/ang}  cell{angstrom}
       O -1.67935e-01 -7.38230e-01  8.31701e-01
       H  1.66601e-01 -1.96880e-02 -3.38198e-01
       H -1.28411e-01  8.13258e-01  2.52765e-01
       O  1.34097e+00  4.11738e-02 -1.49655e+00
       H  9.05748e-02 -9.50675e-02 -7.07848e-01
       H  9.41783e-02  8.80413e-02  1.10124e+00
       H -1.39598e+00 -8.94870e-02  3.56893e-01
7
# CELL(abcABC):  529.17722   529.17722   529.17722    90.00000    90.00000    90.00000  Step:       10500  Bead:       0 forces{eV/ang}  cell{angstrom}
       O  5.64066e-02 -1.07849e+00 -4.47084e-01
       H  2.24427e-01  9.09169e-01  1.00350e-02
       H -3.51446e-01  1.41051e-02  4.46441e-01
       O  3.80598e-01  3.28676e-02 -5.01498e-01
       H -2.89581e-01  1.51511e-01  1.15820e-01
       H  5.34511e-01  2.13174e-02  8.40994e-01
       H -5.54915e-01 -5.04751e-02 -4.64708e-01
7
# CELL(abcABC):  529.17722   529.17722   529.17722    90.00000    90.00000    90.00000  Step:       10520  Bead:       0 forces{eV/ang}  cell{angstrom}
       O -1.12174e+00 -5.90454e-01  1.59130e+00
       H  8.07267e-01  5.36427e-01 -9.98175e-01
       H  2.57242e-01 -1.24312e-02 -5.25365e-01
       O -8.92477e-01  1.77588e-01 -3.53779e-01
       H  4.54698e-01  4.70854e-02  3.99415e-01
       H -7.37343e-02 -1.55468e-02 -2.22929e-01
       H  5.68744e-01 -1.42668e-01  1.09532e-01
7
# CELL(abcABC):  529.17722   529.17722   529.17722    90.00000    90.00000    90.00000  Step:       10540  Bead:       0 forces{eV/ang}  cell{angstrom}
       O  3.85820e-01 -3.78266e-02 -2.69097e-01
       H  5.45828e-01  1.17030e+00  2.62203e-01
       H -5.93622e-01 -8.86605e-01  1.35420e-01
       O  4.14282e-01  1.61777e-01  1.24363e+00
       H -6.80659e-01 -5.27282e-02 -3.16204e-01
       H -5.68215e-01 -3.02272e-01 -6.28006e-01
       H  4.96566e-01 -5.26480e-02 -4.27951e-01
7
# CELL(abcABC):  529.17722   529.17722   529.17722    90.00000    90.00000    90.00000  Step:       10560  Bead:       0 forces{eV/ang}  cell{angstrom}
       O -1.62008e+00  2.78281e-01 -1.04227e-01
       H  7.76157e-01 -2.37280e-01  1.29771e-01
       H  7.01828e-01 -6.38896e-02 -3.50086e-01
       O  1.32144e-01  2.99549e-01  1.21688e+00
       H  2.02673e-01  9.79302e-02  4.82344e-02
       H -1.14499e+00 -5.33705e-02 -7.66939e-01
       H  9.52265e-01 -3.21220e-01 -1.73635e-01
7
# CELL(abcABC):  529.17722   529.17722   529.17722    90.00000    90.00000    90.00000  Step:       10580  Bead:       0 forces{eV/ang}  cell{angstrom}
       O  2.88767e-02  6.22731e-01 -5.30201e-01
       H  3.39617e-01  2.35226e-01  5.00358e-01
       H -3.00048e-01 -4.32238e-01 -1.50144e-01
       O  1.32800e+00  2.97574e-01  7.55636e-01
       H -4.74774e-01 -7.61050e-01  4.35360e-01
       H -7.85775e-01  5.75630e-02 -7.91824e-01
       H -1.35902e-01 -1.98064e-02 -2.19184e-01
7
# CELL(abcABC):  529.17722   529.17722   529.17722    90.00000    90.00000    90.00000  Step:       10600  Bead:       0 forces{eV/ang}  cell{angstrom}
       O -6.61774e-01 -6.47025e-01  1.86051e+00
       H -1.88031e-01 -2.40330e-01 -3.18296e-01
       H  4.08775e-01  2.26621e-01 -7.80797e-01
       O  7.42556e-01 -7.27167e-01 -4.71659e-02
       H  4.11337e-01  8.02881e-01 -8.01629e-01
       H -4.71491e-01  3.44410e-01 -1.99879e-01
       H -2.41373e-01  2.40612e-01  2.87254e-01
7
# CELL(abcABC):  529.17722   529.17722   529.17722    90.00000    90.00000    90.00000  Step:       10620  Bead:       0 forces{eV/ang}  cell{angstrom}
       O  6.16933e-01  5.09063e-01 -2.39629e+00
       H -3.11771e-01 -7.26704e-02  6.77277e-01
       H -2.10556e-02 -3.76717e-02  1.18924e+00
       O  1.48854e-01 -3.47478e-02 -3.80524e-01
       H -1.84000e-02 -3.15868e-01  9.82746e-02
       H  1.32221e-01 -5.36010e-01  4.22790e-01
       H -5.46781e-01  4.87906e-01  3.89229e-01
7
# CELL(abcABC):  529.17722   529.17722   529.17722    90.00000    90.00000    90.00000  Step:       10640  Bead:       0 forces{eV/ang}  cell{angstrom}
       O  8.91528e-01  4.12788e-01 -4.37968e-01
       H -1.90071e+00 -7.57086e-01  3.16509e-01
       H  1.15192e+00  4.60288e-01  1.14102e-02
       O -1.79114e-01  1.15352e+00 -9.74588e-01
       H -6.49475e-04 -1.60579e-01  9.24723e-02
       H  5.44504e-01 -1.61616e+00  6.84097e-01
       H -5.07479e-01  5.07229e-01  3.08067e-01
7
# CELL(abcABC):  529.17722   529.17722   529.17722    90.00000    90.00000    90.00000  Step:       10660  Bead:       0 forces{eV/ang}  cell{angstrom}
       O -7.16419e-01  5.99861e-01 -2.17970e+00
       H  1.08166e-01 -2.29476e-01  4.93983e-01
       H  6.00075e-01 -2.94205e-01  1.11434e+00
       O -4.90312e-01  9.21359e-01 -7.88885e-01
       H  2.35402e-01  2.52643e-01  3.39858e-01
       H  5.34951e-01 -1.56980e+00  7.52442e-01
       H -2.71862e-01  3.19614e-01  2.67966e-01
7
# CELL(abcABC):  529.17722   529.17722   529.17722    90.00000    90.00000    90.00000  Step:       10680  Bead:       0 forces{eV/ang}  cell{angstrom}
       O -1.29520e+00 -2.72933e-01  6.41879e-01
       H  6.74469e-01  3.36050e-01 -2.99641e-01
       H  4.76264e-01 -8.30195e-02  1.75671e-01
       O -5.25563e-01  1.00501e+00 -1.13766e+00
       H  1.37212e-01 -1.10017e-01 -6.67896e-01
       H  5.41589e-01 -8.61758e-01  7.38905e-01
       H -8.77259e-03 -1.33307e-02  5.48745e-01
7
# CELL(abcABC):  529.17722   529.17722   529.17722    90.00000    90.00000    90.00000  Step:       10700  Bead:       0 forces{eV/ang}  cell{angstrom}
       O -3.33724e-01 -8.78819e-01  1.28613e-01
       H  7.09177e-01  1.91428e-01  4.34683e-01
       H -5.01581e-01  7.40301e-01 -9.02344e-01
       O  5.65592e-01 -5.99166e-01  6.64526e-01
       H -1.05888e-01  2.44248e-01  3.20148e-01
       H -1.28557e-01 -7.35732e-02 -2.76412e-01
       H -2.05018e-01  3.75581e-01 -3.69215e-01
7
# CELL(abcABC):  529.17722   529.17722   529.17722    90.00000    90.00000    90.00000  Step:       10720  Bead:       0 forces{eV/ang}  cell{angstrom}
       O  4.07433e-01 -1.54812e+00  1.72953e-01
       H  3.16038e-01  6.96349e-02  3.93273e-01
       H -7.33572e-01  1.58714e+00 -8.88272e-01
       O  1.73025e-01 -7.39561e-01 -2.36500e-01
       H -1.42747e-02 -3.80062e-01  1.95319e-01
       H -6.84160e-01  1.33680e+00  1.56328e-01
       H  5.35511e-01 -3.25837e-01  2.06899e-01
7
# CELL(abcABC):  529.17722   529.17722   529.17722    90.00000    90.00000    90.00000  Step:       10740  Bead:       0 forces{eV/ang}  cell{angstrom}
       O  1.26686e+00 -1.51059e+00  3.15338e-01
       H  2.45785e-01 -5.91250e-02 -4.33851e-02
       H -1.14969e+00  1.41014e+00 -3.16703e-01
       O  1.46907e+00 -2.03057e+00  1.01546e+00
       H -3.04215e-01  3.61971e-01 -1.51341e-01
       H -1.35208e+00  1.60513e+00 -4.29870e-01
       H -1.75744e-01  2.23036e-01 -3.89494e-01
7
# CELL(abcABC):  529.17722   529.17722   529.17722    90.00000    90.00000    90.00000  Step:       10760  Bead:       0 forces{eV/ang}  cell{angstrom}
       O  1.12176e+00 -1.25346e+00  2.56010e-01
       H -2.49859e-02 -1.21505e-01  3.11694e-02
       H -1.33570e+00  1.52035e+00 -3.59195e-01
       O  1.87904e-01 -1.10472e+00 -1.18149e-01
       H  4.45838e-01 -1.65612e-01  1.73306e-01
       H -6.15104e-01  1.90706e+00  2.56073e-01
       H  2.20291e-01 -7.82106e-01 -2.39215e-01
7
# CELL(abcABC):  529.17722   529.17722   529.17722    90.00000    90.00000    90.00000  Step:       10780  Bead:       0 forces{eV/ang}  cell{angstrom}
       O  1.44498e+00 -1.19361e+00 -1.79302e-01
       H  2.62609e-01 -1.30069e-01 -1.78189e-01
       H -1.61434e+00  1.33434e+00  3.41618e-01
       O  1.98221e-01 -4.21855e-01  1.71705e+00
       H  2.95324e-02 -5.87125e-02  4.67285e-02
       H -1.16328e-01  4.83945e-01 -5.65733e-01
       H -2.04676e-01 -1.40366e-02 -1.18217e+00
7
# CELL(abcABC):  529.17722   529.17722   529.17722    90.00000    90.00000    90.00000  Step:       10800  Bead:       0 forces{eV/ang}  cell{angstrom}
       O  6.27532e-01 -9.67090e-01  9.79942e-01
       H  3.65098e-01  1.41739e-01 -7.78375e-01
       H -8.58204e-01  8.97553e-01 -3.24716e-01
       O  4.89200e-01  1.12830e+00 -6.22207e-01
       H -2.54276e-01 -4.05098e-01  4.20427e-01
       H  1.02842e-01  1.38570e-01  7.22562e-01
       H -4.72191e-01 -9.33976e-01 -3.97633e-01
7
# CELL(abcABC):  529.17722   529.17722   529.17722    90.00000    90.00000    90.00000  Step:       10820  Bead:       0 forces{eV/ang}  cell{angstrom}
       O -5.35816e-01 -3.48728e-01  1.49204e+00
       H -1.44346e-02 -2.70494e-01 -1.06005e-01
       H  1.10071e-01 -4.95603e-02 -1.43907e-01
       O -2.41897e-01 -9.14554e-01  1.40300e+00
       H  5.26703e-01  6.87687e-01 -1.14195e+00
       H -8.36198e-02  2.75677e-01 -8.34562e-01
       H  2.38994e-01  6.19973e-01 -6.68614e-01
7
# CELL(abcABC):  529.17722   529.17722   529.17722    90.00000    90.00000    90.00000  Step:       10840  Bead:       0 forces{eV/ang}  cell{angstrom}
       O  3.64657e-01  7.62123e-01 -1.02457e+00
       H -3.93064e-01  1.03217e-01  5.43681e-01
       H  3.65881e-01 -5.81686e-01  2.13916e-01
       O  6.23320e-01  7.99078e-01 -6.53410e-01
       H -4.56149e-01 -2.42858e-01  5.36656e-01
       H  4.37890e-01 -2.96849e-01  6.08924e-01
       H -9.42535e-01 -5.43025e-01 -2.25198e-01
7
# CELL(abcABC):  529.17722   529.17722   529.17722    90.00000    90.00000    90.00000  Step:       10860  Bead:       0 forces{eV/ang}  cell{angstrom}
       O -1.14427e+00  2.92203e-01 -3.00953e-01
       H  4.44244e-02  7.35794e-02  6.27843e-01
       H  9.16523e-01 -8.07733e-01  3.85045e-01
       O  2.32127e-01 -1.18165e+00  9.33029e-01
       H  4.44687e-01  5.38453e-01 -5.70092e-01
       H -6.53463e-01  3.21894e-01 -4.07359e-01
       H  1.59973e-01  7.63253e-01 -6.67513e-01
7
# CELL(abcABC):  529.17722   529.17722   529.17722    90.00000    90.00000    90.00000  Step:       10880  Bead:       0 forces{eV/ang}  cell{angstrom}
       O -2.74807e-01  8.53066e-01  1.69771e-01
       H -1.62713e-01  3.28542e-01  5.48675e-02
       H  5.34358e-01 -9.90204e-01 -3.10708e-01
       O  2.45920e-01  1.41032e+00 -1.22064e+00
       H -1.93520e-01 -2.50827e-01  3.77546e-01
       H  4.39840e-01 -7.23501e-01  4.65544e-01
       H -5.89078e-01 -6.27398e-01  4.63624e-01
7
# CELL(abcABC):  529.17722   529.17722   529.17722    90.00000    90.00000    90.00000  Step:       10900  Bead:       0 forces{eV/ang}  cell{angstrom}
       O -1.48321e-01  6.94539e-01  3.67165e-01
       H  8.13415e-02 -2.43909e-02 -2.39733e-01
       H  1.53083e-01 -7.49202e-01  1.86052e-02
       O  1.93506e-01 -3.97280e-01  7.31585e-01
       H -1.08269e-01 -4.85292e-01 -1.87018e-01
       H -6.16677e-01  4.49916e-01 -1.35747e-01
       H  4.45337e-01  5.11710e-01 -5.54858e-01
7
# CELL(abcABC):  529.17722   529.17722   529.17722    90.00000    90.00000    90.00000  Step:       10920  Bead:       0 forces{eV/ang}  cell{angstrom}
       O -1.90731e-01 -8.38551e-01  7.47871e-01
       H  2.99187e-02  1.67089e-01 -6.06359e-01
       H -3.73441e-02 -1.99764e-01  1.65745e-01
       O -6.46866e-01  1.18895e+00 -1.70961e-01
       H  3.53115e-01  5.05792e-01  2.20998e-01
       H  1.15290e+00 -3.49546e-01 -1.62826e-01
       H -6.60990e-01 -4.73971e-01 -1.94469e-01
7
# CELL(abcABC):  529.17722   529.17722   529.17722    90.00000    90.00000    90.00000  Step:       10940  Bead:       0 forces{eV/ang}  cell{angstrom}
       O  1.72287e-01  5.46507e-02  5.56177e-01
       H -2.52949e-01 -5.40670e-01 -5.36617e-02
       H  2.96154e-01  6.91400e-01 -6.14114e-02
       O -4.13555e-01 -1.31104e+00  3.03784e-01
       H -5.13135e-01 -6.49972e-01 -1.71943e-01
       H  1.08757e+00  9.86401e-01 -4.42818e-01
       H -3.76368e-01  7.69228e-01 -1.30127e-01
7
# CELL(abcABC):  529.17722   529.17722   529.17722    90.00000    90.00000    90.00000  Step:       10960  Bead:       0 forces{eV/ang}  cell{angstrom}
       O -8.78661e-01 -1.50042e+00 -7.16788e-02
       H -2.73589e-02  1.37603e-01 -2.70600e-01
       H  6.18186e-01  1.38814e+00 -4.99822e-01
       O -9.02234e-01 -9.50490e-01  2.73616e-01
       H  7.70341e-01  7.34010e-01  6.78985e-01
       H  8.71555e-01  2.00455e-02 -7.04939e-02
       H -4.51827e-01  1.71120e-01 -4.00068e-02
7
# CELL(abcABC):  529.17722   529.17722   529.17722    90.00000    90.00000    90.00000  Step:       10980  Bead:       0 forces{eV/ang}  cell{angstrom}
       O  6.33483e-01 -2.92412e-02  1.30168e+00
       H -8.07815e-01 -8.93343e-01 -3.48713e-01
       H  7.87958e-01  1.32619e+00 -4.18089e-01
       O  3.79807e-01 -1.25316e-01  1.96160e-01
       H -7.62570e-01 -2.33966e-01 -8.65909e-01
       H -3.00615e-01 -2.28418e-02  2.26365e-02
       H  6.97508e-02 -2.14809e-02  1.12240e-01
7
# CELL(abcABC):  529.17722   529.17722   529.17722    90.00000    90.00000    90.00000  Step:       11000  Bead:       0 forces{eV/ang}  cell{angstrom}
       O -6.80253e-03 -8.21912e-01  1.39407e+00
       H -5.62990e-01  2.34823e-01 -1.30604e+00
       H  1.51323e-01  6.49623e-02 -2.96511e-02
       O  1.50251e-01  2.52955e-01 -5.53276e-01
       H  8.13901e-01  4.16750e-01  2.05122e-01
       H -6.90302e-01 -2.33634e-01  3.77587e-01
       H  1.44620e-01  8.60550e-02 -8.78123e-02
7
# CELL(abcABC):  529.17722   529.17722   529.17722    90.00000    90.00000    90.00000  Step:       11020  Bead:       0 forces{eV/ang}  cell{angstrom}
       O  9.37703e-01  4.40712e-01  6.96622e-02
       H -3.46052e-01 -5.65900e-02 -3.90499e-01
       H -2.89083e-01 -2.05706e-01  1.77300e-01
       O  9.77793e-01 -1.34882e-02 -5.76541e-01
       H -8.84164e-01 -1.16272e-01  2.71417e-01
       H -6.67009e-01  1.19767e-01  1.91298e-01
       H  2.70812e-01 -1.68423e-01  2.57363e-01
7
# CELL(abcABC):  529.17722   529.17722   529.17722    90.00000    90.00000    90.00000  Step:       11040  Bead:       0 forces{eV/ang}  cell{angstrom}
       O  4.01519e-01  3.83514e-01 -4.02393e-02
       H  3.09441e-01  3.63311e-01 -2.43448e-02
       H -9.89438e-01 -5.56556e-01 -9.38446e-02
       O -8.70943e-01  9.27676e-01  2.09657e-01
       H  5.63318e-01 -2.34077e-01 -3.66888e-01
       H -1.89607e-01 -9.01093e-02  4.01380e-01
       H  7.75710e-01 -7.93759e-01 -8.57195e-02
7
# CELL(abcABC):  529.17722   529.17722   529.17722    90.00000    90.00000    90.00000  Step:       11060  Bead:       0 forces{eV/ang}  cell{angstrom}
       O  1.22089e+00  6.39623e-01 -1.60893e+00
       H  2.93311e-02  7.86443e-02  7.23795e-01
       H -7.50669e-01 -2.00749e-01  2.44364e-01
       O -2.97421e-01  9.03636e-01  5.05324e-02
       H -9.56356e-01  5.58997e-02  3.86596e-01
       H  1.20186e-01 -4.42878e-02 -1.15015e-01
       H  6.34041e-01 -1.43277e+00  3.18653e-01
7
# CELL(abcABC):  529.17722   529.17722   529.17722    90.00000    90.00000    90.00000  Step:       11080  Bead:       0 forces{eV/ang}  cell{angstrom}
       O -1.18878e+00  1.82556e-01 -4.72456e-01
       H  6.33884e-01  2.74157e-01  5.98190e-01
       H  3.87008e-01 -1.65435e-01 -3.73981e-01
       O -1.16717e+00  9.55082e-01  7.86196e-01
       H  4.54876e-01 -4.33671e-01  1.69460e-01
       H  5.96156e-01 -1.62651e-01 -4.05471e-01
       H  2.84024e-01 -6.50038e-01 -3.01939e-01
7
# CELL(abcABC):  529.17722   529.17722   529.17722    90.00000    90.00000    90.00000  Step:       11100  Bead:       0 forces{eV/ang}  cell{angstrom}
       O -4.80393e-01 -5.81761e-01 -1.35806e-01
       H -7.61554e-02 -8.78122e-02  4.34921e-01
       H  5.28721e-01  3.15321e-01  6.98859e-02
       O -1.11144e-01 -3.92702e-01 -1.28256e-01
       H -1.42482e-02  3.04196e-01 -3.95865e-02
       H  2.36757e-01 -5.06561e-02 -3.36994e-01
       H -8.35387e-02  4.93414e-01  1.35837e-01
7
# CELL(abcABC):  529.17722   529.17722   529.17722    90.00000    90.00000    90.00000  Step:       11120  Bead:       0 forces{eV/ang}  cell{angstrom}
       O  2.61081e-01 -3.42485e-01  1.22785e+00
       H -5.62219e-01 -1.62748e-01 -8.42378e-01
       H  1.70623e-01  1.89406e-01  1.51712e-02
       O  2.06496e-01 -7.07306e-01 -5.90693e-01
       H  1.75494e-01 -3.29789e-02 -1.53924e-02
       H -1.15854e-01 -1.42717e-01 -5.86023e-02
       H -1.35622e-01  1.19883e+00  2.64041e-01
7
# CELL(abcABC):  529.17722   529.17722   529.17722    90.00000    90.00000    90.00000  Step:       11140  Bead:       0 forces{eV/ang}  cell{angstrom}
       O  4.80948e-02 -2.80561e-01  1.13249e+00
       H -4.11596e-01  9.62249e-02 -9.51068e-01
       H  3.23390e-01  2.76104e-01 -8.66857e-02
       O -1.86138e-01 -2.69927e+00 -4.48854e-01
       H -1.38719e-02 -5.16072e-01  2.07433e-01
       H -1.38203e-01  4.01004e-01  8.09399e-02
       H  3.78325e-01  2.72257e+00  6.57401e-02
7
# CELL(abcABC):  529.17722   529.17722   529.17722    90.00000    90.00000    90.00000  Step:       11160  Bead:       0 forces{eV/ang}  cell{angstrom}
       O -2.49283e-01  3.01082e-02 -1.88841e-01
       H -3.03215e-01  8.38733e-02 -3.59960e-01
       H  6.97200e-01  3.24782e-01  2.53401e-01
       O  8.81804e-01 -1.80189e+00 -3.84611e-01
       H -2.73835e-01 -2.39300e-01 -2.26254e-01
       H -7.87741e-01 -1.54965e-01  4.10475e-01
       H  3.50692e-02  1.75739e+00  4.95790e-01
7
# CELL(abcABC):  529.17722   529.17722   529.17722    90.00000    90.00000    90.00000  Step:       11180  Bead:       0 forces{eV/ang}  cell{angstrom}
       O -7.32973e-01 -2.31936e-01 -5.27818e-01
       H  3.55298e-01  1.77001e-01  1.99602e-01
       H  2.52596e-01  4.50869e-02  3.58595e-02
       O -2.36953e-01 -1.04258e+00 -3.43706e-02
       H  3.43310e-02  1.95551e-01  2.17076e-01
       H -3.59653e-03  3.73950e-01  1.64699e-01
       H  3.31297e-01  4.82927e-01 -5.50474e-02
7
# CELL(abcABC):  529.17722   529.17722   529.17722    90.00000    90.00000    90.00000  Step:       11200  Bead:       0 forces{eV/ang}  cell{angstrom}
       O -1.22953e+00 -3.54191e-01 -1.02902e+00
       H  9.23826e-01 -1.87521e-02  1.34698e+00
       H  4.74965e-01  1.96244e-01 -2.54169e-01
       O  1.61546e-01  1.03529e+00  6.54478e-01
       H -3.21705e-01  2.02334e-02 -7.21629e-02
       H  2.37134e-01 -1.41752e-01 -2.40922e-01
       H -2.46233e-01 -7.37070e-01 -4.05185e-01
7
# CELL(abcABC):  529.17722   529.17722   529.17722    90.00000    90.00000    90.00000  Step:       11220  Bead:       0 forces{eV/ang}  cell{angstrom}
       O -6.27725e-01 -4.90296e-01 -1.19021e+00
       H  3.71409e-01  6.15011e-02  1.01876e+00
       H  4.06125e-02 -8.50842e-03  3.95732e-01
       O  6.89546e-01  1.14653e+00 -1.73640e-01
       H  2.45913e-01  3.36367e-01  1.12172e-01
       H -9.61295e-02 -2.77547e-01 -1.03852e-01
       H -6.23627e-01 -7.68051e-01 -5.89553e-02
7
# CELL(abcABC):  529.17722   529.17722   529.17722    90.00000    90.00000    90.00000  Step:       11240  Bead:       0 forces{eV/ang}  cell{angstrom}
       O -2.54192e-01  3.45468e-01 -2.19651e-01
       H  8.27859e-01 -1.85483e-01  4.65888e-01
       H -5.41402e-01 -8.24029e-02 -2.83705e-01
       O  4.13940e-02  3.86208e-01  7.88496e-01
       H  6.54772e-02 -1.13487e-01  5.02051e-02
       H  3.28952e-01  1.14069e-01 -2.88121e-02
       H -4.68088e-01 -4.64372e-01 -7.72421e-01
7
# CELL(abcABC):  529.17722   529.17722   529.17722    90.00000    90.00000    90.00000  Step:       11260  Bead:       0 forces{eV/ang}  cell{angstrom}
       O  4.53746e-01  3.65482e-01 -4.99334e-01
       H -3.54852e-01 -1.46367e-01  7.70888e-02
       H -3.97266e-02  2.25417e-02  1.20829e-01
       O  5.15858e-01 -4.09008e-01 -4.94285e-01
       H  2.24440e-01  4.70780e-02  2.22846e-01
       H -4.78532e-01  1.41017e-02  1.48267e-01
       H -3.20933e-01  1.06172e-01  4.24589e-01
7
# CELL(abcABC):  529.17722   529.17722   529.17722    90.00000    90.00000    90.00000  Step:       11280  Bead:       0 forces{eV/ang}  cell{angstrom}
       O  1.37520e+00 -1.07649e+00  1.01605e+00
       H -6.62104e-01  4.62046e-01 -1.15085e+00
       H -8.29126e-01  3.88038e-01  2.72386e-01
       O  4.44224e-01 -3.23926e-01  1.32907e+00
       H  5.43257e-02  5.70309e-01 -2.32371e-01
       H  2.05615e-01 -6.55326e-03 -7.67790e-01
       H -5.88135e-01 -1.34262e-02 -4.66496e-01
7
# CELL(abcABC):  529.17722   529.17722   529.17722    90.00000    90.00000    90.00000  Step:       11300  Bead:       0 forces{eV/ang}  cell{angstrom}
       O  1.51832e+00 -1.50244e+00  9.59474e-01
       H -1.13962e+00  1.65166e+00 -1.43937e+00
       H -7.22222e-01 -3.26524e-02  7.83829e-01
       O  8.62621e-01  1.51301e+00 -1.25618e+00
       H  8.36262e-02 -1.34923e+00  8.52132e-01
       H -6.64443e-01 -2.51820e-01 -4.17967e-01
       H  6.17152e-02 -2.85363e-02  5.18084e-01
7
# CELL(abcABC):  529.17722   529.17722   529.17722    90.00000    90.00000    90.00000  Step:       11320  Bead:       0 forces{eV/ang}  cell{angstrom}
       O  1.17879e+00 -3.63464e+00  1.90462e+00
       H -9.29012e-01  1.99291e+00 -1.27941e+00
       H -5.33998e-01  6.01220e-01  2.16445e-01
       O -3.50384e-01 -2.44370e-01  3.76701e-01
       H  1.77774e-02  1.05657e+00 -7.47008e-01
       H -1.10434e-01  8.28346e-02 -2.22026e-01
       H  7.27263e-01  1.45466e-01 -2.49319e-01
7
# CELL(abcABC):  529.17722   529.17722   529.17722    90.00000    90.00000    90.00000  Step:       11340  Bead:       0 forces{eV/ang}  cell{angstrom}
       O  8.58812e-01 -8.75054e-01 -1.04980e-02
       H -1.15234e+00  1.19549e+00 -2.22477e-01
       H  1.88729e-01 -3.78060e-01  2.94862e-01
       O -2.50716e+00  1.49438e+00 -1.00674e+00
       H  1.23081e-01 -1.09180e+00  1.02379e+00
       H  9.75266e-01 -4.58579e-02  5.00491e-01
       H  1.51361e+00 -2.99105e-01 -5.79431e-01
7
# CELL(abcABC):  529.17722   529.17722   529.17722    90.00000    90.00000    90.00000  Step:       11360  Bead:       0 forces{eV/ang}  cell{angstrom}
       O  2.39079e-01 -1.09605e+00  6.92699e-01
       H -2.71751e-01  7.74978e-01 -5.27548e-01
       H  3.64010e-01  3.63217e-01 -4.74846e-01
       O -1.32308e+00  3.93255e-02  9.04684e-01
       H -3.61445e-01  4.64029e-01 -1.52125e-01
       H  2.69357e-01 -4.19552e-01  2.70155e-01
       H  1.08383e+00 -1.25948e-01 -7.13019e-01
7
# CELL(abcABC):  529.17722   529.17722   529.17722    90.00000    90.00000    90.00000  Step:       11380  Bead:       0 forces{eV/ang}  cell{angstrom}
       O -1.81745e+00  1.40356e+00 -6.19877e-01
       H  3.67848e-01 -4.43004e-01  6.22148e-01
       H  9.82096e-01 -7.14320e-01 -1.72791e-02
       O -3.53184e-01  3.15459e-01  5.68367e-02
       H  6.11763e-01  1.39249e-01 -2.75539e-01
       H -2.89918e-02 -6.27679e-01  4.52967e-01
       H  2.37917e-01 -7.32600e-02 -2.19257e-01
7
# CELL(abcABC):  529.17722   529.17722   529.17722    90.00000    90.00000    90.00000  Step:       11400  Bead:       0 forces{eV/ang}  cell{angstrom}
       O -1.85925e+00  1.63773e+00 -6.96191e-01
       H  1.93565e+00 -1.43569e+00  9.37099e-01
       H  3.64905e-01  4.11023e-01 -7.80328e-01
       O  3.79516e-01 -8.89226e-01 -2.86884e-01
       H -1.58336e-01  6.32867e-02 -7.21144e-02
       H -4.50983e-02 -4.49430e-01  1.63094e-01
       H -6.17393e-01  6.62301e-01  7.35325e-01
7
# CELL(abcABC):  529.17722   529.17722   529.17722    90.00000    90.00000    90.00000  Step:       11420  Bead:       0 forces{eV/ang}  cell{angstrom}
       O -9.82272e-01  1.04179e+00 -9.31386e-01
       H  1.21604e+00 -9.77494e-01  9.27853e-01
       H -6.32428e-02  6.86676e-02  1.78422e-02
       O  2.55657e-01 -4.67496e-01 -9.20046e-01
       H -1.66057e-01 -5.40953e-01 -3.29169e-02
       H  2.03261e-01  4.52141e-01 -1.27816e-01
       H -4.63389e-01  4.23343e-01  1.06647e+00
7
# CELL(abcABC):  529.17722   529.17722   529.17722    90.00000    90.00000    90.00000  Step:       11440  Bead:       0 forces{eV/ang}  cell{angstrom}
       O -8.31677e-01 -2.82221e-01 -3.10906e-01
       H  5.15193e-01 -3.56126e-01  4.88438e-01
       H -1.10510e-01 -3.67502e-03  1.76755e-01
       O -8.16157e-03 -2.36724e-01 -1.31898e+00
       H  3.78431e-01  3.06092e-01  2.79373e-01
       H  2.58113e-01  6.90111e-01  5.01576e-01
       H -2.01389e-01 -1.17457e-01  1.83742e-01
7
# CELL(abcABC):  529.17722   529.17722   529.17722    90.00000    90.00000    90.00000  Step:       11460  Bead:       0 forces{eV/ang}  cell{angstrom}
       O  1.11919e+00 -4.19837e-01  9.09935e-01
       H -6.79295e-01  7.86855e-02 -7.55491e-01
       H -6.05361e-01  1.10488e-01  1.84867e-01
       O  1.16930e-01  2.65883e-01  1.41442e+00
       H -4.07260e-02 -1.74970e-01 -2.19098e-01
       H -3.01487e-02  2.48365e-02 -5.60582e-01
       H  1.19413e-01  1.14914e-01 -9.74051e-01
7
# CELL(abcABC):  529.17722   529.17722   529.17722    90.00000    90.00000    90.00000  Step:       11480  Bead:       0 forces{eV/ang}  cell{angstrom}
       O  1.86466e+00 -7.95250e-01 -8.74512e-02
       H -1.40096e+00  8.60748e-01 -8.28979e-01
       H -2.47272e-01  3.97487e-02  5.46121e-01
       O  1.25158e+00  8.62497e-01  1.57220e+00
       H -2.06394e-01  3.38094e-02  5.83541e-01
       H -9.04470e-01 -1.00214e+00 -1.99814e-01
       H -3.57152e-01  5.83200e-04 -1.58561e+00
7
# CELL(abcABC):  529.17722   529.17722   529.17722    90.00000    90.00000    90.00000  Step:       11500  Bead:       0 forces{eV/ang}  cell{angstrom}
       O  2.55907e-01 -1.98518e+00  2.08117e+00
       H -3.62120e-01  1.36260e+00 -1.58453e+00
       H -3.33020e-01  3.51711e-01 -2.09626e-01
       O  9.26432e-01  2.74111e-01  1.26974e+00
       H  3.27904e-01  3.21307e-01 -6.22547e-01
       H -8.34173e-01 -4.03536e-01 -4.59362e-01
       H  1.90697e-02  7.89933e-02 -4.74846e-01
7
# CELL(abcABC):  529.17722   529.17722   529.17722    90.00000    90.00000    90.00000  Step:       11520  Bead:       0 forces{eV/ang}  cell{angstrom}
       O  1.35301e+00 -8.82524e-01  7.28215e-02
       H -1.81237e+00  1.46830e+00 -2.20839e-01
       H  6.62678e-01 -5.53789e-01  7.72624e-02
       O  4.11924e-01  9.90731e-01 -9.36070e-01
       H -2.01653e-01 -4.83529e-01  5.65238e-01
       H -7.72604e-01 -5.94350e-01  9.02862e-02
       H  3.59015e-01  5.51644e-02  3.51300e-01
7
# CELL(abcABC):  529.17722   529.17722   529.17722    90.00000    90.00000    90.00000  Step:       11540  Bead:       0 forces{eV/ang}  cell{angstrom}
       O -3.33364e-01 -1.57352e+00  1.70289e+00
       H -2.90472e-01  5.25487e-01 -5.05581e-01
       H  4.08602e-01  3.31813e-01 -9.16414e-01
       O  1.76982e-01  8.73799e-02 -9.22279e-01
       H  2.32374e-01  6.19496e-01 -1.50576e-01
       H -3.11005e-01 -7.18158e-02  3.09864e-01
       H  1.16883e-01  8.11559e-02  4.82096e-01
7
# CELL(abcABC):  529.17722   529.17722   529.17722    90.00000    90.00000    90.00000  Step:       11560  Bead:       0 forces{eV/ang}  cell{angstrom}
       O -4.43044e-01  1.33210e+00  7.70772e-02
       H  3.00572e-03 -1.01610e-01  4.29993e-01
       H  4.47824e-01 -7.82614e-01 -3.11344e-01
       O -9.02105e-01 -1.45940e-01  1.20421e-02
       H -1.50747e-01 -2.35706e-01 -5.51546e-01
       H  5.54202e-01  1.43608e-01 -3.76513e-01
       H  4.90864e-01 -2.09835e-01  7.20291e-01
7
# CELL(abcABC):  529.17722   529.17722   529.17722    90.00000    90.00000    90.00000  Step:       11580  Bead:       0 forces{eV/ang}  cell{angstrom}
       O -9.16761e-01  1.28292e+00  2.47242e-01
       H  6.50021e-01 -1.39627e+00 -5.96825e-02
       H  2.10670e-01  1.34350e-01 -6.53872e-01
       O -2.02368e+00 -1.41607e-01 -1.03953e+00
       H  2.19444e-01  4.17683e-01  9.42911e-01
       H  1.34943e+00 -1.70313e-01 -3.98652e-01
       H  5.10876e-01 -1.26764e-01  9.61580e-01
7
# CELL(abcABC):  529.17722   529.17722   529.17722    90.00000    90.00000    90.00000  Step:       11600  Bead:       0 forces{eV/ang}  cell{angstrom}
       O -4.34021e-01  1.66390e+00  7.89011e-02
       H  3.94716e-01 -1.15162e+00 -1.80503e-01
       H -6.13855e-02 -9.75762e-02  2.25101e-01
       O -1.77939e+00  8.89378e-01  5.38991e-01
       H  8.34822e-02 -3.32318e-01 -4.10242e-01
       H  1.45060e+00 -4.13228e-01 -8.03055e-01
       H  3.46004e-01 -5.58533e-01  5.50807e-01
7
# CELL(abcABC):  529.17722   529.17722   529.17722    90.00000    90.00000    90.00000  Step:       11620  Bead:       0 forces{eV/ang}  cell{angstrom}
       O  1.61256e-01 -1.10474e+00 -1.07047e+00
       H -1.66849e-01  4.26682e-01  2.39776e-01
       H -9.81243e-03  2.93421e-01  6.39239e-01
       O  4.58136e-01 -9.47689e-02  2.06717e-02
       H -1.38283e-01  4.82064e-01  1.41498e-01
       H -1.01671e-03 -4.10377e-02  6.01462e-02
       H -3.03431e-01  3.83774e-02 -3.08624e-02
7
# CELL(abcABC):  529.17722   529.17722   529.17722    90.00000    90.00000    90.00000  Step:       11640  Bead:       0 forces{eV/ang}  cell{angstrom}
       O  2.90914e-01 -1.61889e+00 -1.73571e+00
       H -3.49811e-01  1.36441e+00  5.95149e-01
       H  3.85713e-02  8.29271e-02  8.93609e-01
       O  2.66052e-01 -1.60204e-01  2.44017e-01
       H  1.72415e-01 -4.47250e-01  6.15684e-01
       H  2.09653e-02 -1.10890e-01 -4.21625e-02
       H -4.39106e-01  8.89894e-01 -5.70588e-01
7
# CELL(abcABC):  529.17722   529.17722   529.17722    90.00000    90.00000    90.00000  Step:       11660  Bead:       0 forces{eV/ang}  cell{angstrom}
       O  8.02417e-01 -1.27126e+00 -1.19393e-01
       H -1.95896e-01  1.44104e+00 -6.22503e-02
       H -1.59168e-01  4.84170e-02  4.63061e-01
       O  9.85420e-01 -1.78613e-01 -4.00654e-02
       H -5.47132e-01 -1.33468e-01 -4.95267e-01
       H -3.02463e-01 -3.34132e-01  4.04850e-01
       H -5.83179e-01  4.28019e-01 -1.50934e-01
7
# CELL(abcABC):  529.17722   529.17722   529.17722    90.00000    90.00000    90.00000  Step:       11680  Bead:       0 forces{eV/ang}  cell{angstrom}
       O -3.61305e-03 -1.40012e+00  3.23875e-01
       H -1.70660e-01  1.25692e+00  2.04433e-01
       H -2.08226e-03 -2.84549e-01 -4.07795e-01
       O  1.88048e-01  2.16432e-02 -2.15051e-01
       H  3.76707e-01  5.59757e-01 -1.08253e-01
       H -8.30162e-01 -1.04293e-01  3.72626e-01
       H  4.41762e-01 -4.93526e-02 -1.69834e-01
7
# CELL(abcABC):  529.17722   529.17722   529.17722    90.00000    90.00000    90.00000  Step:       11700  Bead:       0 forces{eV/ang}  cell{angstrom}
       O  2.81896e-01  4.09987e-01  1.72014e-01
       H  3.92934e-02  3.38379e-01 -2.24610e-02
       H -1.35629e-01 -4.16998e-01 -3.91973e-01
       O  3.16357e-01  5.86948e-01 -9.97591e-01
       H -2.41516e-01 -2.69523e-01  2.56177e-01
       H -6.61252e-01  3.48879e-02  5.03298e-01
       H  4.00850e-01 -6.83681e-01  4.80537e-01
7
# CELL(abcABC):  529.17722   529.17722   529.17722    90.00000    90.00000    90.00000  Step:       11720  Bead:       0 forces{eV/ang}  cell{angstrom}
       O -4.37719e-01 -4.47236e-01  1.62680e+00
       H  1.50032e-01  3.03539e-01 -5.88931e-01
       H  4.17319e-02  1.99120e-01 -7.62591e-01
       O -7.80554e-01 -1.55735e-01 -2.76547e-01
       H  3.34232e-01  2.67775e-01 -3.21177e-01
       H  9.59463e-02  2.65382e-01 -1.65809e-01
       H  5.96329e-01 -4.32845e-01  4.88251e-01
7
# CELL(abcABC):  529.17722   529.17722   529.17722    90.00000    90.00000    90.00000  Step:       11740  Bead:       0 forces{eV/ang}  cell{angstrom}
       O  2.38166e-01  1.37349e+00  3.91556e-01
       H -2.92469e-01 -8.67606e-01  2.86694e-01
       H -9.04869e-02 -6.18886e-01 -3.77835e-01
       O -8.99394e-01  2.36344e-01 -8.39958e-01
       H  3.61568e-02 -6.67286e-02 -4.88320e-02
       H  2.71475e-01  1.62959e-01 -7.39557e-02
       H  7.36552e-01 -2.19570e-01  6.62330e-01
7
# CELL(abcABC):  529.17722   529.17722   529.17722    90.00000    90.00000    90.00000  Step:       11760  Bead:       0 forces{eV/ang}  cell{angstrom}
       O  9.54480e-02  2.61197e-02  6.62394e-01
       H -4.25841e-01 -1.08609e+00 -9.85851e-01
       H  1.99223e-01  6.47685e-01  6.11865e-01
       O -2.24596e-03  7.19296e-01 -4.27191e-01
       H -1.48117e-01 -1.60571e-01  6.62951e-02
       H -1.93099e-01  1.56907e-01 -3.19189e-03
       H  4.74633e-01 -3.03350e-01  7.56794e-02
7
# CELL(abcABC):  529.17722   529.17722   529.17722    90.00000    90.00000    90.00000  Step:       11780  Bead:       0 forces{eV/ang}  cell{angstrom}
       O  1.52244e+00  1.02889e+00 -9.34452e-01
       H -1.12824e+00 -1.25627e+00 -3.27928e-01
       H -3.60494e-01  1.56576e-01  9.25348e-01
       O  6.52292e-01 -3.80606e-01  1.13503e-01
       H -1.08402e-01  9.60973e-02  2.30956e-01
       H -1.21590e-01 -4.65424e-02  1.70214e-01
       H -4.56000e-01  4.01861e-01 -1.77642e-01
7
# CELL(abcABC):  529.17722   529.17722   529.17722    90.00000    90.00000    90.00000  Step:       11800  Bead:       0 forces{eV/ang}  cell{angstrom}
       O  5.69099e-01  1.23162e-01 -2.40722e-01
       H -5.05088e-01 -3.45855e-01 -2.23300e-01
       H -9.52630e-02  1.57881e-01  7.31445e-01
       O  5.70903e-01 -9.79358e-01  5.54139e-01
       H  2.18993e-02  2.09825e-01 -5.20300e-01
       H  5.61758e-02 -1.83775e-02  1.00886e-02
       H -6.17726e-01  8.52721e-01 -3.11349e-01
7
# CELL(abcABC):  529.17722   529.17722   529.17722    90.00000    90.00000    90.00000  Step:       11820  Bead:       0 forces{eV/ang}  cell{angstrom}
       O -4.52099e-02  5.77197e-01 -1.33838e+00
       H -1.71251e-01 -2.84975e-01 -2.28439e-01
       H  1.97887e-01  3.85962e-01  9.67105e-01
       O  2.65204e-01 -1.52105e+00  9.18960e-01
       H  2.48647e-01 -1.16759e-01  1.57779e-01
       H -9.57914e-02  1.78475e-01 -1.07216e-01
       H -3.99487e-01  7.81147e-01 -3.69807e-01
7
# CELL(abcABC):  529.17722   529.17722   529.17722    90.00000    90.00000    90.00000  Step:       11840  Bead:       0 forces{eV/ang}  cell{angstrom}
       O -2.10222e-01 -6.73329e-02 -4.40237e-01
       H  4.79262e-01  3.98045e-01 -1.89348e-01
       H -3.53248e-02 -3.33559e-02  3.48621e-01
       O  7.10447e-01 -3.28063e-01 -2.10972e-02
       H -4.01895e-01  1.84380e-02  3.02797e-01
       H -4.88007e-02 -1.11107e-01 -6.78302e-03
       H -4.93467e-01  1.23376e-01  6.04689e-03
7
# CELL(abcABC):  529.17722   529.17722   529.17722    90.00000    90.00000    90.00000  Step:       11860  Bead:       0 forces{eV/ang}  cell{angstrom}
       O -8.07101e-01 -3.81001e-01  9.32799e-01
       H  9.63727e-01  5.58749e-01  4.24372e-02
       H -5.26021e-01 -4.80968e-01 -5.60655e-01
       O -1.16965e+00  7.66343e-01 -7.24943e-01
       H  7.82924e-01 -2.35978e-01  1.32912e-01
       H  2.37222e-01  1.95620e-02  8.48776e-02
       H  5.18900e-01 -2.46707e-01  9.25716e-02
7
# CELL(abcABC):  529.17722   529.17722   529.17722    90.00000    90.00000    90.00000  Step:       11880  Bead:       0 forces{eV/ang}  cell{angstrom}
       O -3.45522e-02 -7.10716e-01  2.25829e+00
       H  6.85126e-01  3.14648e-01 -3.00496e-01
       H -5.28349e-01 -3.03816e-01 -1.28660e+00
       O  4.11752e-01  1.31405e+00 -6.23962e-01
       H -7.46991e-01  1.07332e-01 -6.37889e-02
       H -4.06856e-01  9.97113e-03 -3.17290e-01
       H  6.19870e-01 -7.31465e-01  3.33847e-01
7
# CELL(abcABC):  529.17722   529.17722   529.17722    90.00000    90.00000    90.00000  Step:       11900  Bead:       0 forces{eV/ang}  cell{angstrom}
       O -3.32053e-01 -4.49123e-02  6.21230e-01
       H  6.31756e-01 -1.86270e-01  3.76718e-01
       H -7.04945e-01  1.83211e-01 -1.34860e+00
       O -1.21512e-01  1.14999e+00  5.35027e-01
       H  7.40936e-01  1.28739e-01  3.66142e-01
       H -8.15152e-01 -7.92868e-01 -3.12194e-01
       H  6.00970e-01 -4.37887e-01 -2.38321e-01
7
# CELL(abcABC):  529.17722   529.17722   529.17722    90.00000    90.00000    90.00000  Step:       11920  Bead:       0 forces{eV/ang}  cell{angstrom}
       O  1.62711e+00  4.90333e-01  7.39943e-01
       H -8.20122e-01 -1.02696e-01 -1.81131e-01
       H -2.27559e-01  1.10390e-01 -7.81062e-01
       O  1.38361e+00  5.13316e-02  1.31315e+00
       H -9.86344e-01 -6.68936e-03 -6.02940e-01
       H -1.03935e+00 -5.92146e-01 -4.89267e-01
       H  6.26565e-02  4.94775e-02  1.30554e-03
7
# CELL(abcABC):  529.17722   529.17722   529.17722    90.00000    90.00000    90.00000  Step:       11940  Bead:       0 forces{eV/ang}  cell{angstrom}
       O  4.83810e-01  8.98677e-01 -9.43216e-01
       H -7.60442e-01 -6.46817e-01  2.93541e-01
       H  3.00642e-02 -6.19872e-02  3.29945e-01
       O  2.12650e-01  8.47820e-01 -6.68378e-01
       H  9.23381e-01 -3.87564e-01  8.42912e-01
       H -7.96387e-01 -1.00367e+00  3.75088e-01
       H -9.30762e-02  3.53539e-01 -2.29891e-01
7
# CELL(abcABC):  529.17722   529.17722   529.17722    90.00000    90.00000    90.00000  Step:       11960  Bead:       0 forces{eV/ang}  cell{angstrom}
       O  3.45957e-01  1.91322e-01  6.78340e-02
       H -9.24940e-01 -5.35778e-01 -4.65783e-01
       H  9.61606e-01 -2.45014e-01  1.22174e+00
       O  5.03177e-01  5.15926e-01 -1.97211e-01
       H -7.36501e-01  4.45892e-01 -8.34090e-01
       H -4.84328e-01 -1.77954e-01 -9.86408e-02
       H  3.35029e-01 -1.94394e-01  3.06156e-01
7
# CELL(abcABC):  529.17722   529.17722   529.17722    90.00000    90.00000    90.00000  Step:       11980  Bead:       0 forces{eV/ang}  cell{angstrom}
       O -1.95567e+00  1.36560e-01 -1.55912e+00
       H  3.61369e-02 -2.75835e-01  1.52632e-01
       H  1.40753e+00 -3.11061e-01  1.33672e+00
       O -1.53482e+00  1.30016e-01 -9.40831e-01
       H  9.04031e-01  2.09711e-01  4.35317e-01
       H  5.80220e-01  2.36606e-01 -2.30929e-03
       H  5.62574e-01 -1.25997e-01  5.77596e-01
7
# CELL(abcABC):  529.17722   529.17722   529.17722    90.00000    90.00000    90.00000  Step:       12000  Bead:       0 forces{eV/ang}  cell{angstrom}
       O -6.19371e-01  5.41207e-02 -1.29901e+00
       H  5.17646e-02  5.17687e-01  2.94309e-01
       H  8.71511e-01 -3.29495e-01  1.06217e+00
       O -1.00115e+00 -2.52125e-01 -9.85153e-01
       H -7.51598e-01 -4.28435e-01 -2.94693e-01
       H  1.17809e+00  7.43749e-01 -6.37800e-02
       H  2.70757e-01 -3.05501e-01  1.28615e+00
7
# CELL(abcABC):  529.17722   529.17722   529.17722    90.00000    90.00000    90.00000  Step:       12020  Bead:       0 forces{eV/ang}  cell{angstrom}
       O  3.92387e-01  4.70584e-01 -1.66978e-01
       H -1.54992e-01 -1.78430e-01 -1.75229e-01
       H -2.09733e-01  1.21413e-01  8.27504e-02
       O -6.56485e-01 -1.33869e+00 -1.90679e-01
       H  2.50982e-01  2.27285e-01  3.18116e-01
       H  9.31791e-02 -6.25589e-03 -1.22356e-01
       H  2.84662e-01  7.04097e-01  2.54375e-01
7
# CELL(abcABC):  529.17722   529.17722   529.17722    90.00000    90.00000    90.00000  Step:       12040  Bead:       0 forces{eV/ang}  cell{angstrom}
       O  3.50277e-01  9.52306e-01  1.14994e+00
       H  1.31488e-01 -6.80645e-02 -1.24591e-01
       H -4.89410e-01 -3.23055e-01 -7.09788e-01
       O  4.31730e-01  6.64354e-01  1.85802e-01
       H  2.50382e-01 -5.72153e-01 -5.89811e-01
       H -2.63213e-01 -4.12194e-01  4.43586e-01
       H -4.11255e-01 -2.41193e-01 -3.55133e-01
7
# CELL(abcABC):  529.17722   529.17722   529.17722    90.00000    90.00000    90.00000  Step:       12060  Bead:       0 forces{eV/ang}  cell{angstrom}
       O  4.33441e-01 -1.14853e+00  9.65213e-01
       H -4.89231e-02 -1.71480e-01  9.00942e-02
       H -1.84552e-01  6.62150e-01 -1.47180e+00
       O  9.72152e-01  9.92770e-02  3.89762e-01
       H -4.95576e-01  7.56328e-01  6.83964e-01
       H -7.19170e-01 -4.64371e-01 -3.60149e-01
       H  4.26295e-02  2.66624e-01 -2.97081e-01
7
# CELL(abcABC):  529.17722   529.17722   529.17722    90.00000    90.00000    90.00000  Step:       12080  Bead:       0 forces{eV/ang}  cell{angstrom}
       O -4.75721e-02 -9.83224e-01  1.07313e+00
       H -3.72789e-01  9.20303e-01  5.77529e-01
       H  2.92983e-01 -3.88820e-01 -8.56997e-01
       O  7.14399e-01  2.19120e+00  1.92299e-01
       H  2.05949e-01 -7.14780e-01 -7.08995e-01
       H -4.10702e-01 -5.75211e-01  1.55263e-01
       H -3.82267e-01 -4.49469e-01 -4.32231e-01
7
# CELL(abcABC):  529.17722   529.17722   529.17722    90.00000    90.00000    90.00000  Step:       12100  Bead:       0 forces{eV/ang}  cell{angstrom}
       O  1.21367e+00 -1.39603e+00 -1.09157e+00
       H -3.93826e-01  1.07593e+00  1.11216e-01
       H -7.80974e-01 -4.49889e-02  9.57389e-01
       O -5.35157e-01 -1.29450e+00  3.89250e-01
       H  1.41820e-01  5.78955e-01  5.07713e-01
       H  3.83427e-01  4.47300e-01 -1.81234e-01
       H -2.89638e-02  6.33331e-01 -6.92767e-01
7
# CELL(abcABC):  529.17722   529.17722   529.17722    90.00000    90.00000    90.00000  Step:       12120  Bead:       0 forces{eV/ang}  cell{angstrom}
       O  1.75517e+00  4.07630e-01 -1.36518e+00
       H -3.66116e-01  7.12220e-01  1.41887e-01
       H -1.42059e+00 -6.15089e-01  1.13035e+00
       O -1.34559e+00 -7.94567e-01 -9.58838e-01
       H -3.83992e-01 -7.41208e-01 -2.58859e-01
       H  1.70947e+00  1.95127e+00  1.09123e+00
       H  5.16518e-02 -9.20251e-01  2.19410e-01
7
# CELL(abcABC):  529.17722   529.17722   529.17722    90.00000    90.00000    90.00000  Step:       12140  Bead:       0 forces{eV/ang}  cell{angstrom}
       O  4.21600e-01  8.96521e-01 -8.08299e-01
       H  3.59210e-01 -1.23632e-01 -3.77133e-01
       H -1.18192e+00 -5.05923e-01  8.22915e-01
       O -1.89406e+00 -3.30944e+00 -1.19938e+00
       H  3.50391e-01  4.31110e-01  6.02431e-01
       H  1.59667e+00  2.20676e+00  6.72368e-01
       H  3.48111e-01  4.04602e-01  2.87100e-01
7
# CELL(abcABC):  529.17722   529.17722   529.17722    90.00000    90.00000    90.00000  Step:       12160  Bead:       0 forces{eV/ang}  cell{angstrom}
       O  9.10299e-01  3.57367e-01 -1.58405e-01
       H  2.69310e-01 -2.59071e-01 -1.38253e-01
       H -7.45651e-01 -3.34025e-01  2.99973e-01
       O -3.38710e-02 -5.08939e-02  3.00978e-01
       H -5.80779e-01 -8.85283e-02 -9.64109e-02
       H  5.68652e-01  7.34320e-01  5.99491e-01
       H -3.87960e-01 -3.59170e-01 -8.07373e-01
7
# CELL(abcABC):  529.17722   529.17722   529.17722    90.00000    90.00000    90.00000  Step:       12180  Bead:       0 forces{eV/ang}  cell{angstrom}
       O -1.01766e+00  1.99565e-01  9.68378e-01
       H  1.10491e+00 -5.23742e-01 -7.56248e-01
       H -1.28335e-01 -2.49071e-01  8.95726e-02
       O -3.26377e-02  5.41456e-01  8.39682e-01
       H  5.82426e-01  1.04130e-01 -1.08666e-01
       H -3.46975e-01 -4.40148e-01 -3.98150e-01
       H -1.61723e-01  3.67811e-01 -6.34569e-01
7
# CELL(abcABC):  529.17722   529.17722   529.17722    90.00000    90.00000    90.00000  Step:       12200  Bead:       0 forces{eV/ang}  cell{angstrom}
       O  4.37979e-01 -1.41711e+00  2.31741e-01
       H  5.11585e-01  1.39105e-01 -7.52624e-02
       H -3.72380e-01  8.82377e-01  1.12181e-01
       O  4.92586e-01  1.71267e+00  1.67155e+00
       H -2.51924e-01 -2.27585e-01 -1.53483e-01
       H -6.43853e-01 -1.28300e+00 -5.82896e-01
       H -1.73993e-01  1.93546e-01 -1.20383e+00
7
# CELL(abcABC):  529.17722   529.17722   529.17722    90.00000    90.00000    90.00000  Step:       12220  Bead:       0 forces{eV/ang}  cell{angstrom}
       O -6.95436e-01  5.88724e-01 -1.67284e-01
       H -5.71753e-01 -5.25361e-01  8.63596e-02
       H  9.26712e-01  2.13281e-01 -1.09034e-01
       O  5.34004e-01  1.46684e+00  4.66528e-01
       H  3.60532e-01  1.81236e-01  2.14003e-01
       H -3.97201e-01 -1.82149e+00 -1.16964e-01
       H -1.56858e-01 -1.03227e-01 -3.73609e-01
7
# CELL(abcABC):  529.17722   529.17722   529.17722    90.00000    90.00000    90.00000  Step:       12240  Bead:       0 forces{eV/ang}  cell{angstrom}
       O  6.10406e-01 -3.11656e-01 -6.77319e-01
       H -7.60874e-01  9.11785e-01  2.32266e-01
       H -3.17311e-01  1.65098e-01  1.97392e-01
       O  8.22442e-01  2.67115e-01  3.07211e-01
       H -1.65494e-01 -5.81539e-02 -1.31158e-01
       H -3.59537e-01 -1.09040e+00 -8.68089e-01
       H  1.70369e-01  1.16215e-01  9.39698e-01
7
# CELL(abcABC):  529.17722   529.17722   529.17722    90.00000    90.00000    90.00000  Step:       12260  Bead:       0 forces{eV/ang}  cell{angstrom}
       O -1.49300e-01 -3.00559e-01 -1.23532e-01
       H -2.18222e-01 -2.09483e-01 -5.22915e-02
       H  4.50955e-01 -2.89551e-01  2.46393e-01
       O  5.21317e-01  1.51017e+00 -9.27080e-01
       H -5.21430e-01  1.16808e+00 -2.69589e-01
       H -1.73221e-01 -8.23440e-01 -2.94003e-02
       H  8.99018e-02 -1.05522e+00  1.15550e+00
7
# CELL(abcABC):  529.17722   529.17722   529.17722    90.00000    90.00000    90.00000  Step:       12280  Bead:       0 forces{eV/ang}  cell{angstrom}
       O -1.96939e-01 -2.13491e-01 -5.77753e-01
       H -2.27735e-01  6.86894e-01 -2.41830e-02
       H -1.70152e-01  6.21810e-01  1.48571e-01
       O  1.02062e+00 -1.21206e+00 -1.46567e+00
       H -2.89015e-01 -1.48267e-01 -1.36405e-01
       H -1.30175e-01  8.13957e-01  3.05328e-01
       H -6.60006e-03 -5.48839e-01  1.75011e+00
7
# CELL(abcABC):  529.17722   529.17722   529.17722    90.00000    90.00000    90.00000  Step:       12300  Bead:       0 forces{eV/ang}  cell{angstrom}
       O -1.34340e+00  7.79783e-01 -1.08062e-01
       H  8.57236e-01 -4.07489e-01  2.48347e-02
       H  3.60662e-01 -1.70702e-01  2.19320e-02
       O  6.24099e-02  2.36848e-01 -2.80262e+00
       H  9.19449e-01 -1.12286e+00  6.10113e-01
       H -6.14239e-01  1.14737e+00  1.24752e+00
       H -2.42117e-01 -4.62947e-01  1.00628e+00
7
# CELL(abcABC):  529.17722   529.17722   529.17722    90.00000    90.00000    90.00000  Step:       12320  Bead:       0 forces{eV/ang}  cell{angstrom}
       O  7.77825e-01 -1.14052e+00  9.45109e-01
       H  9.89741e-01  2.81705e-01  1.04728e-01
       H -5.45916e-01 -4.31333e-01 -2.00668e-01
       O  7.47565e-01 -1.19113e+00 -4.89171e-01
       H -1.01724e+00  1.01654e+00 -8.11217e-01
       H -8.98169e-01  1.10813e+00  6.91517e-01
       H -5.38049e-02  3.56611e-01 -2.40297e-01
7
# CELL(abcABC):  529.17722   529.17722   529.17722    90.00000    90.00000    90.00000  Step:       12340  Bead:       0 forces{eV/ang}  cell{angstrom}
       O -6.18653e-01  6.43085e-01  1.35833e-01
       H  6.09661e-01 -2.54531e-02  1.74390e-02
       H -3.22923e-02 -9.67839e-01 -1.69872e-01
       O -1.20054e+00 -4.65847e-01  7.36063e-01
       H  5.38781e-01 -6.23344e-02  5.08856e-01
       H -1.16143e-02 -1.32329e-01  2.05357e-01
       H  7.14655e-01  1.01072e+00 -1.43368e+00
7
# CELL(abcABC):  529.17722   529.17722   529.17722    90.00000    90.00000    90.00000  Step:       12360  Bead:       0 forces{eV/ang}  cell{angstrom}
       O  5.92300e-01  6.50216e-01  8.01735e-02
       H -9.28514e-02  8.35765e-02  1.36561e-01
       H -4.76581e-01 -3.23615e-01 -2.53599e-01
       O -6.37066e-01 -1.66859e+00  1.38428e+00
       H -1.24524e-01 -1.26869e-01 -1.44726e-01
       H -1.13441e-01  7.26918e-02  1.03050e-01
       H  8.52162e-01  1.31259e+00 -1.30574e+00
7
# CELL(abcABC):  529.17722   529.17722   529.17722    90.00000    90.00000    90.00000  Step:       12380  Bead:       0 forces{eV/ang}  cell{angstrom}
       O  1.69768e-01  1.20885e+00  1.33111e-01
       H -2.46110e-01 -2.15096e-01 -4.13169e-02
       H -3.56798e-02 -5.84934e-01 -2.93123e-01
       O -1.53299e-01 -1.18820e+00  1.09246e+00
       H -1.70381e-01 -1.19074e-01 -2.80692e-02
       H  5.94353e-02  7.97595e-02 -3.33109e-01
       H  3.76266e-01  8.18704e-01 -5.29955e-01
7
# CELL(abcABC):  529.17722   529.17722   529.17722    90.00000    90.00000    90.00000  Step:       12400  Bead:       0 forces{eV/ang}  cell{angstrom}
       O -1.06990e-01 -9.01100e-01 -7.41234e-01
       H -1.13124e-01  3.55681e-01  1.45093e-02
       H  5.30968e-02  3.17974e-01  5.12604e-01
       O  3.48863e-01  1.82144e-01  1.97273e-01
       H  6.01027e-02  2.55057e-01  8.33629e-02
       H -5.91337e-02  5.30547e-02 -3.01132e-01
       H -1.82815e-01 -2.62810e-01  2.34617e-01
7
# CELL(abcABC):  529.17722   529.17722   529.17722    90.00000    90.00000    90.00000  Step:       12420  Bead:       0 forces{eV/ang}  cell{angstrom}
       O  7.94674e-01 -1.03757e+00 -4.81418e-01
       H -5.74588e-01 -9.66182e-02 -1.60965e-01
       H  1.69007e-01  9.31763e-01  7.96878e-01
       O  8.78890e-02  1.93066e+00 -5.18860e-01
       H -2.01530e-01 -3.34322e-01 -7.06537e-02
       H  2.67685e-01 -2.81193e-01 -6.25469e-01
       H -5.43137e-01 -1.11272e+00  1.06049e+00
7
# CELL(abcABC):  529.17722   529.17722   529.17722    90.00000    90.00000    90.00000  Step:       12440  Bead:       0 forces{eV/ang}  cell{angstrom}
       O  5.15771e-02 -9.38854e-01 -3.53584e-01
       H -4.57878e-01 -3.02659e-01 -3.24994e-01
       H  4.09122e-01  8.78642e-01  6.96202e-01
       O -8.88145e-01  2.18370e+00 -1.18259e+00
       H  3.66836e-01  1.35104e-01  2.13464e-01
       H  9.38714e-01 -6.36849e-01 -6.38923e-01
       H -4.20226e-01 -1.31908e+00  1.59043e+00
7
# CELL(abcABC):  529.17722   529.17722   529.17722    90.00000    90.00000    90.00000  Step:       12460  Bead:       0 forces{eV/ang}  cell{angstrom}
       O  5.17559e-01 -1.36955e+00 -4.25500e-01
       H -2.71224e-01  2.67895e-01  5.11780e-02
       H -6.37844e-01  1.35047e+00  4.75552e-01
       O  9.52436e-02  9.83105e-01 -1.08884e+00
       H -1.40293e-02  1.79093e-01 -1.18239e-01
       H  1.10920e+00 -4.00562e-01 -5.58243e-01
       H -7.98903e-01 -1.01045e+00  1.66410e+00
7
# CELL(abcABC):  529.17722   529.17722   529.17722    90.00000    90.00000    90.00000  Step:       12480  Bead:       0 forces{eV/ang}  cell{angstrom}
       O -9.93336e-01  4.80778e-01 -1.71142e-01
       H  5.66335e-02 -5.86066e-01 -1.68081e-01
       H  2.24794e-01  9.02643e-01  2.74138e-01
       O  2.20090e-01  5.38317e-01 -9.30567e-01
       H  1.39683e-01 -2.30626e-01 -1.62128e-01
       H  6.78682e-01 -1.06258e-01 -2.28425e-01
       H -3.26547e-01 -9.98788e-01  1.38621e+00
7
# CELL(abcABC):  529.17722   529.17722   529.17722    90.00000    90.00000    90.00000  Step:       12500  Bead:       0 forces{eV/ang}  cell{angstrom}
       O  2.79552e-01  1.77259e-01 -5.50214e-01
       H -9.98104e-02  3.81918e-01  4.00237e-01
       H -3.14885e-01 -6.06332e-01 -1.01261e-01
       O  6.42573e-02 -5.47223e-01 -1.40209e-01
       H -1.16638e-01  5.41404e-01  1.81146e-01
       H -2.11916e-02  8.91273e-02  1.49313e-01
       H  2.08715e-01 -3.61530e-02  6.09881e-02
7
# CELL(abcABC):  529.17722   529.17722   529.17722    90.00000    90.00000    90.00000  Step:       12520  Bead:       0 forces{eV/ang}  cell{angstrom}
       O -1.12084e+00  2.21473e+00  1.09891e+00
       H  9.52560e-01 -1.85349e-01 -1.31636e-02
       H  3.65870e-01 -1.45178e+00 -1.21935e+00
       O  1.05646e+00 -7.14187e-01  1.63306e+00
       H -1.77861e-01 -3.49947e-01 -1.33136e-01
       H -9.49245e-01 -1.82953e-01  2.57648e-01
       H -1.26940e-01  6.69486e-01 -1.62397e+00
7
# CELL(abcABC):  529.17722   529.17722   529.17722    90.00000    90.00000    90.00000  Step:       12540  Bead:       0 forces{eV/ang}  cell{angstrom}
       O  2.95674e-01  1.42691e+00  1.01669e+00
       H  5.88045e-01  7.36974e-01  4.24650e-01
       H -5.60484e-01 -2.20397e+00 -1.38948e+00
       O  7.04069e-01 -2.38783e-01  1.41048e+00
       H -4.38179e-02 -2.23875e-01  1.07980e-01
       H -5.92884e-01 -8.55551e-02  1.59383e-01
       H -3.90602e-01  5.88302e-01 -1.72971e+00
7
# CELL(abcABC):  529.17722   529.17722   529.17722    90.00000    90.00000    90.00000  Step:       12560  Bead:       0 forces{eV/ang}  cell{angstrom}
       O -1.40534e+00  1.04134e+00  3.02957e-01
       H  7.96281e-01  7.21410e-02  1.05938e-01
       H  4.88619e-01 -1.35611e+00 -5.47563e-01
       O -3.64501e-01 -2.09942e-01  7.33376e-01
       H  6.49173e-03  5.48104e-02  3.04006e-01
       H  5.46686e-01  3.42095e-03  1.38931e-01
       H -6.82345e-02  3.94341e-01 -1.03765e+00
7
# CELL(abcABC):  529.17722   529.17722   529.17722    90.00000    90.00000    90.00000  Step:       12580  Bead:       0 forces{eV/ang}  cell{angstrom}
       O  9.45174e-01 -4.61507e-01  2.62568e-01
       H -3.73165e-01  2.09865e-01 -3.52681e-02
       H -5.47309e-01  3.79792e-01  4.34368e-02
       O -2.16272e-01 -2.37831e-01  1.52939e+00
       H -2.58484e-01  5.68650e-02 -6.56351e-01
       H  8.26827e-01 -3.78035e-02 -1.00961e+00
       H -3.76772e-01  9.06191e-02 -1.34168e-01
7
# CELL(abcABC):  529.17722   529.17722   529.17722    90.00000    90.00000    90.00000  Step:       12600  Bead:       0 forces{eV/ang}  cell{angstrom}
       O  2.59513e-02 -2.71833e-02  3.21623e-01
       H -3.29322e-01 -7.42956e-01 -7.25531e-01
       H -3.19029e-02  7.63157e-01  3.60652e-01
       O -2.15613e+00  1.82481e+00 -3.67038e-01
       H  8.62431e-01 -3.44858e-01  5.09277e-01
       H  1.42811e+00 -1.04792e+00 -9.46343e-01
       H  2.00857e-01 -4.25057e-01  8.47360e-01
7
# CELL(abcABC):  529.17722   529.17722   529.17722    90.00000    90.00000    90.00000  Step:       12620  Bead:       0 forces{eV/ang}  cell{angstrom}
       O  2.08639e+00 -9.58186e-01  2.20220e+00
       H -2.66710e-01 -1.73880e-01 -1.42263e+00
       H -6.67150e-01  8.87639e-01 -4.32736e-01
       O -1.28353e+00  9.75055e-01  3.56955e-01
       H -1.15589e+00  4.44695e-01 -4.03989e-01
       H  8.98662e-01 -4.55390e-01 -2.01496e+00
       H  3.88229e-01 -7.19933e-01  1.71517e+00
7
# CELL(abcABC):  529.17722   529.17722   529.17722    90.00000    90.00000    90.00000  Step:       12640  Bead:       0 forces{eV/ang}  cell{angstrom}
       O -1.23885e+00  1.35860e-01  2.95684e-01
       H -4.34536e-01 -9.92919e-01 -1.19875e+00
       H  7.48112e-01  9.23125e-01  5.60583e-01
       O -1.56259e+00  1.33806e+00 -5.09664e-01
       H  8.46366e-01  3.11233e-01  4.93330e-01
       H  5.10382e-01 -4.48700e-01 -7.13380e-01
       H  1.13111e+00 -1.26666e+00  1.07220e+00
7
# CELL(abcABC):  529.17722   529.17722   529.17722    90.00000    90.00000    90.00000  Step:       12660  Bead:       0 forces{eV/ang}  cell{angstrom}
       O -2.22644e-02  8.43944e-02  1.66814e+00
       H -6.67043e-02  1.53355e-01 -1.04623e+00
       H -7.07670e-02  7.66639e-01 -6.20246e-01
       O  6.39137e-01 -2.13495e-01 -8.03019e-01
       H -5.72059e-01 -8.23759e-01 -2.41779e-01
       H -4.61020e-01  4.86543e-01 -2.68900e-01
       H  5.53678e-01 -4.53676e-01  1.31204e+00
7
# CELL(abcABC):  529.17722   529.17722   529.17722    90.00000    90.00000    90.00000  Step:       12680  Bead:       0 forces{eV/ang}  cell{angstrom}
       O -2.76533e-01  6.65950e-01 -7.77586e-01
       H -5.14388e-01 -3.79456e-01  5.87902e-02
       H  5.97401e-01 -1.11437e+00  5.57379e-01
       O  1.98621e-01 -2.93474e-01 -1.01120e+00
       H  1.62797e-01  7.95964e-01  2.43110e-01
       H -4.67796e-01  5.04201e-01  1.82883e+00
       H  2.99898e-01 -1.78816e-01 -8.99322e-01
7
# CELL(abcABC):  529.17722   529.17722   529.17722    90.00000    90.00000    90.00000  Step:       12700  Bead:       0 forces{eV/ang}  cell{angstrom}
       O  5.75913e-01  1.99467e-01  1.05486e-01
       H  7.34104e-01  6.81358e-01  3.60935e-01
       H -1.02190e+00 -4.96728e-01 -2.52033e-01
       O  2.10231e+00 -2.26144e+00  3.86530e-01
       H -7.41707e-01 -5.63114e-01 -5.02548e-01
       H -1.30000e+00  1.63231e+00  1.29766e+00
       H -3.48719e-01  8.08146e-01 -1.39603e+00
7
# CELL(abcABC):  529.17722   529.17722   529.17722    90.00000    90.00000    90.00000  Step:       12720  Bead:       0 forces{eV/ang}  cell{angstrom}
       O  1.51996e-01  9.49134e-01  2.50940e-02
       H -3.26876e-01 -4.58304e-01  1.35724e-02
       H  3.51453e-01 -1.14990e+00  1.73362e-01
       O -1.46157e+00  1.20278e-01  6.11546e-01
       H  1.36046e+00 -5.49852e-01  3.54727e-01
       H -3.44454e-01  4.10550e-01  9.19261e-01
       H  2.68994e-01  6.78097e-01 -2.09756e+00
7
# CELL(abcABC):  529.17722   529.17722   529.17722    90.00000    90.00000    90.00000  Step:       12740  Bead:       0 forces{eV/ang}  cell{angstrom}
       O  1.74332e+00 -4.98411e-01 -1.36485e-01
       H  3.69892e-01 -3.45502e-01  8.08680e-02
       H -2.82146e-01  1.06090e-01  1.72003e-01
       O -5.85917e-01 -5.91093e-01  2.01774e+00
       H -1.74635e+00  4.06737e-01 -8.86616e-02
       H  2.27157e-01 -3.58246e-01 -3.60587e-01
       H  2.74043e-01  1.28042e+00 -1.68488e+00
7
# CELL(abcABC):  529.17722   529.17722   529.17722    90.00000    90.00000    90.00000  Step:       12760  Bead:       0 forces{eV/ang}  cell{angstrom}
       O -1.84556e-01 -6.35555e-01  4.88697e-01
       H  1.41524e-02  2.25935e-01 -1.12915e-01
       H -2.53435e-01  4.61812e-01 -4.21329e-01
       O -1.60938e+00  4.52948e-01  1.52347e+00
       H  1.22861e+00 -4.50396e-01  3.32081e-01
       H  3.91335e-01 -7.44496e-01 -9.33053e-01
       H  4.13276e-01  6.89752e-01 -8.76951e-01
7
# CELL(abcABC):  529.17722   529.17722   529.17722    90.00000    90.00000    90.00000  Step:       12780  Bead:       0 forces{eV/ang}  cell{angstrom}
       O -1.54375e+00  1.15009e-01 -1.69082e-01
       H  6.63185e-01 -1.51762e-01  3.81115e-01
       H  1.24581e-01  8.44684e-01 -3.34224e-01
       O  1.31356e+00 -8.57688e-01  8.55921e-01
       H -2.94292e-01  2.00263e-01  2.80689e-02
       H  1.44745e-02 -7.17614e-02 -1.24066e+00
       H -2.77753e-01 -7.87456e-02  4.78862e-01
7
# CELL(abcABC):  529.17722   529.17722   529.17722    90.00000    90.00000    90.00000  Step:       12800  Bead:       0 forces{eV/ang}  cell{angstrom}
       O -2.54370e-02  2.92452e-01  8.03267e-01
       H  3.55161e-01  3.64679e-01 -3.45907e-01
       H -6.09848e-01 -5.90565e-02 -4.70845e-01
       O -3.69784e-01  2.50855e+00  8.90607e-01
       H  5.23785e-01 -7.13519e-01 -1.90427e-01
       H  1.76342e-02 -1.06705e+00 -1.08321e+00
       H  1.08488e-01 -1.32606e+00  3.96511e-01
7
# CELL(abcABC):  529.17722   529.17722   529.17722    90.00000    90.00000    90.00000  Step:       12820  Bead:       0 forces{eV/ang}  cell{angstrom}
       O -9.47141e-01  4.57777e-01 -7.24532e-01
       H  7.74143e-02  3.52000e-03  1.79116e-01
       H  2.60376e-01 -6.40223e-01  3.57414e-01
       O  1.19825e-01  4.95462e-01 -4.16596e-01
       H  2.67146e-01  7.68861e-01  4.44105e-01
       H  5.49050e-01 -2.86646e-01 -1.93214e+00
       H -3.26670e-01 -7.98752e-01  2.09263e+00
7
# CELL(abcABC):  529.17722   529.17722   529.17722    90.00000    90.00000    90.00000  Step:       12840  Bead:       0 forces{eV/ang}  cell{angstrom}
       O  9.12847e-01 -4.65105e-01 -9.49918e-02
       H  3.97894e-01 -4.34484e-02  1.06502e-01
       H -7.88685e-02 -3.29177e-02  1.04763e-01
       O -1.93677e+00  3.44834e+00 -1.48479e+00
       H -4.24227e-01 -2.04209e-01 -1.75346e-01
       H  4.77015e-01 -8.19319e-01  5.05631e-02
       H  6.52108e-01 -1.88334e+00  1.49330e+00
7
# CELL(abcABC):  529.17722   529.17722   529.17722    90.00000    90.00000    90.00000  Step:       12860  Bead:       0 forces{eV/ang}  cell{angstrom}
       O  6.26767e-01 -1.26009e+00  1.27802e-01
       H  7.28670e-01  3.19641e-01  3.41152e-02
       H -6.28291e-02 -2.03519e-01  3.61298e-02
       O -8.55423e-01  6.55853e-01 -2.04001e+00
       H  3.62762e-01 -1.66513e-01  1.08680e-01
       H -2.75037e-01  6.32431e-01 -3.98049e-01
       H -5.24910e-01  2.22002e-02  2.13133e+00
7
# CELL(abcABC):  529.17722   529.17722   529.17722    90.00000    90.00000    90.00000  Step:       12880  Bead:       0 forces{eV/ang}  cell{angstrom}
       O  6.02069e-02 -2.92178e-01  5.91021e-02
       H -3.03126e-01  1.91502e-01  3.50016e-02
       H  2.64316e-01 -1.58215e-01  2.86468e-02
       O -2.89306e-01  4.38436e-01 -2.42056e+00
       H  2.65152e-02  1.55993e-01  1.27043e-01
       H -8.36185e-02  5.67765e-01  1.42396e+00
       H  3.25012e-01 -9.03303e-01  7.46807e-01
7
# CELL(abcABC):  529.17722   529.17722   529.17722    90.00000    90.00000    90.00000  Step:       12900  Bead:       0 forces{eV/ang}  cell{angstrom}
       O -1.86453e-01  2.11559e-01  4.11634e-02
       H -6.84548e-01 -8.30438e-02  1.37020e-01
       H  2.01404e-01  5.07166e-01 -1.01510e-02
       O  1.93827e+00 -2.30614e+00  6.12187e-01
       H -5.21519e-01 -2.91518e-01 -4.10130e-01
       H -3.51820e-01  1.27364e+00  1.49083e-01
       H -3.95338e-01  6.88335e-01 -5.19173e-01
7
# CELL(abcABC):  529.17722   529.17722   529.17722    90.00000    90.00000    90.00000  Step:       12920  Bead:       0 forces{eV/ang}  cell{angstrom}
       O  4.67247e-01 -1.17114e-01 -2.18075e-01
       H -8.77972e-01 -2.56758e-01  2.74758e-01
       H -1.47831e-01  6.02354e-01 -4.30714e-02
       O -5.22875e-01  9.02636e-02  7.03134e-01
       H  1.00277e+00 -2.62074e-01 -1.04755e-01
       H  1.96498e-01  2.48334e-01  9.90286e-01
       H -1.17842e-01 -3.05006e-01 -1.60228e+00
7
# CELL(abcABC):  529.17722   529.17722   529.17722    90.00000    90.00000    90.00000  Step:       12940  Bead:       0 forces{eV/ang}  cell{angstrom}
       O -7.97118e-01  1.37588e-01 -5.47293e-02
       H  2.96707e-01 -4.32548e-01  4.51457e-02
       H -2.69987e-01  1.04554e+00 -3.46246e-01
       O  1.73890e+00 -2.52117e+00  1.74145e+00
       H -3.02119e-01 -1.34306e-01  1.62709e-01
       H -2.36682e-01  9.67981e-01  2.46086e-01
       H -4.29699e-01  9.36916e-01 -1.79442e+00
7
# CELL(abcABC):  529.17722   529.17722   529.17722    90.00000    90.00000    90.00000  Step:       12960  Bead:       0 forces{eV/ang}  cell{angstrom}
       O -4.15734e-01 -1.32548e+00  1.76196e-01
       H  4.71030e-01  6.21180e-01 -4.13118e-01
       H -5.07101e-01  6.02982e-01  1.50872e-01
       O  4.46417e-01 -8.53135e-01  1.48554e+00
       H  3.73672e-01  5.89336e-01  1.12356e-02
       H  1.98260e-01  1.25016e-01  9.16915e-01
       H -5.66544e-01  2.40104e-01 -2.32764e+00
7
# CELL(abcABC):  529.17722   529.17722   529.17722    90.00000    90.00000    90.00000  Step:       12980  Bead:       0 forces{eV/ang}  cell{angstrom}
       O -3.17495e-01 -4.48955e-01  4.36570e-01
       H  8.90346e-01 -1.05501e-01 -3.68125e-01
       H  3.29744e-01  2.35825e-01  4.23937e-02
       O -1.97875e-02 -2.85345e-01  6.59496e-01
       H -9.14875e-02 -4.85788e-01 -2.72339e-01
       H -5.58203e-01  5.99711e-01 -9.92839e-02
       H -2.33116e-01  4.90054e-01 -3.98712e-01
7
# CELL(abcABC):  529.17722   529.17722   529.17722    90.00000    90.00000    90.00000  Step:       13000  Bead:       0 forces{eV/ang}  cell{angstrom}
       O -1.11767e-01 -8.34458e-01 -1.88552e-01
       H  2.93843e-01  5.48072e-01 -9.98895e-02
       H  5.18076e-02 -1.79588e-01  3.71507e-01
       O -8.37244e-01  2.36017e-01 -2.13065e+00
       H  1.46008e-01  1.32776e-01  3.02588e-01
       H -1.94525e-02  4.12124e-01  8.07173e-01
       H  4.76805e-01 -3.14943e-01  9.37825e-01
7
# CELL(abcABC):  529.17722   529.17722   529.17722    90.00000    90.00000    90.00000  Step:       13020  Bead:       0 forces{eV/ang}  cell{angstrom}
       O  6.23405e-01  9.61832e-01  3.18664e-01
       H -4.58123e-01 -3.47224e-02 -2.87849e-02
       H  3.98453e-03 -6.69803e-01 -3.66120e-02
       O  8.88828e-01 -4.33976e-01 -1.65677e+00
       H -5.51132e-01 -5.12847e-01 -3.69657e-01
       H -4.87405e-01  5.06457e-01  8.02265e-02
       H -1.95576e-02  1.83059e-01  1.69293e+00
7
# CELL(abcABC):  529.17722   529.17722   529.17722    90.00000    90.00000    90.00000  Step:       13040  Bead:       0 forces{eV/ang}  cell{angstrom}
       O  7.46238e-01  1.36308e+00 -3.95336e-01
       H -1.51625e+00 -2.03693e-01  2.87771e-02
       H  2.60776e-02 -6.93062e-01  2.81097e-01
       O -2.02125e-01 -6.25350e-02 -1.60023e+00
       H  6.06663e-02 -2.21217e-01 -1.25935e-01
       H  1.95581e-01  4.96091e-02  5.66599e-01
       H  6.89815e-01 -2.32187e-01  1.24503e+00
7
# CELL(abcABC):  529.17722   529.17722   529.17722    90.00000    90.00000    90.00000  Step:       13060  Bead:       0 forces{eV/ang}  cell{angstrom}
       O  8.30522e-01  9.54540e-01 -2.63808e-01
       H -1.26248e+00 -7.08583e-01 -7.38793e-02
       H -1.73248e-01 -2.03986e-02  1.00948e-02
       O  9.39136e-01 -6.43612e-01  6.81046e-01
       H  5.07942e-02  3.94566e-01  2.35306e-01
       H  2.96651e-02 -2.43415e-01 -5.63770e-01
       H -4.14387e-01  2.66902e-01 -2.49888e-02
7
# CELL(abcABC):  529.17722   529.17722   529.17722    90.00000    90.00000    90.00000  Step:       13080  Bead:       0 forces{eV/ang}  cell{angstrom}
       O  6.81529e-01  1.36960e-01  6.42921e-01
       H -4.06568e-02 -5.89877e-01  2.37649e-02
       H -4.54701e-01  6.88132e-01 -7.68231e-01
       O -7.02792e-02  9.83257e-01  1.35957e+00
       H  9.50996e-02 -4.93421e-01 -5.65354e-02
       H  1.59747e-01 -2.71729e-01 -1.87416e-01
       H -3.70739e-01 -4.53321e-01 -1.01407e+00
7
# CELL(abcABC):  529.17722   529.17722   529.17722    90.00000    90.00000    90.00000  Step:       13100  Bead:       0 forces{eV/ang}  cell{angstrom}
       O -5.82665e-01 -2.23650e+00  1.75559e+00
       H  7.03539e-01  6.92133e-01  1.95172e-01
       H  5.73681e-01  6.21857e-01 -1.32709e+00
       O -3.01244e-01  1.20318e+00  1.23414e+00
       H  8.95448e-02  8.57989e-01 -1.52201e-01
       H  5.00829e-01 -6.80029e-01 -3.72591e-01
       H -9.83684e-01 -4.58633e-01 -1.33302e+00
7
# CELL(abcABC):  529.17722   529.17722   529.17722    90.00000    90.00000    90.00000  Step:       13120  Bead:       0 forces{eV/ang}  cell{angstrom}
       O -8.67858e-01 -2.49938e-01  1.84862e+00
       H  6.85976e-01  1.21035e-01 -6.87562e-03
       H  5.66865e-01  9.48868e-02 -1.43050e+00
       O -6.34348e-01  9.06394e-01  1.67908e-01
       H  1.18079e-01 -3.41595e-01 -8.75219e-02
       H  2.73820e-01 -5.38141e-01 -4.57759e-01
       H -1.42534e-01  7.35911e-03 -3.38754e-02
7
# CELL(abcABC):  529.17722   529.17722   529.17722    90.00000    90.00000    90.00000  Step:       13140  Bead:       0 forces{eV/ang}  cell{angstrom}
       O -6.00764e-01 -4.24927e-01  1.42410e+00
       H  6.19182e-02  2.07119e-01 -1.21715e-01
       H  4.18884e-01  2.62004e-01 -1.22717e+00
       O -4.54888e-01 -3.00041e-01 -2.80700e-01
       H -1.71904e-01 -9.97932e-02 -2.21401e-01
       H  1.25819e-01  9.53448e-02  5.59117e-02
       H  6.20935e-01  2.60293e-01  3.70979e-01
7
# CELL(abcABC):  529.17722   529.17722   529.17722    90.00000    90.00000    90.00000  Step:       13160  Bead:       0 forces{eV/ang}  cell{angstrom}
       O  2.71706e-01  1.41430e-01 -6.71317e-01
       H -9.25944e-01  2.33756e-01  1.98388e-01
       H  7.15352e-02 -3.37980e-02  6.31099e-02
       O  9.72635e-01 -1.92942e+00 -5.84465e-01
       H -1.53047e-01  3.37880e-01  7.60659e-02
       H -5.63331e-01  4.62423e-01  4.83662e-01
       H  3.26446e-01  7.87730e-01  4.34556e-01
7
# CELL(abcABC):  529.17722   529.17722   529.17722    90.00000    90.00000    90.00000  Step:       13180  Bead:       0 forces{eV/ang}  cell{angstrom}
       O  4.40449e-01  3.24116e-01 -1.82380e+00
       H -6.18569e-01  4.02219e-01  5.33129e-01
       H -6.87116e-02 -5.00218e-01  1.12393e+00
       O -1.50469e-01 -1.08866e+00 -1.19873e+00
       H  7.71435e-01 -8.31413e-01  2.40267e-01
       H -9.95474e-01  1.37970e+00  8.08435e-01
       H  6.21338e-01  3.14258e-01  3.16772e-01
7
# CELL(abcABC):  529.17722   529.17722   529.17722    90.00000    90.00000    90.00000  Step:       13200  Bead:       0 forces{eV/ang}  cell{angstrom}
       O -1.13560e-01  8.90544e-01 -2.68650e+00
       H  3.18064e-01 -8.21448e-03  4.30783e-01
       H -3.53975e-01 -7.07274e-01  1.43351e+00
       O  1.20168e+00 -2.52928e+00 -3.40938e-01
       H -3.09253e-01  3.31488e-01  3.02365e-01
       H -9.26891e-01  1.63550e+00  7.04210e-01
       H  1.83933e-01  3.87236e-01  1.56575e-01
7
# CELL(abcABC):  529.17722   529.17722   529.17722    90.00000    90.00000    90.00000  Step:       13220  Bead:       0 forces{eV/ang}  cell{angstrom}
       O -3.65403e-01  6.52286e-01  6.92655e-01
       H  2.86936e-01 -4.80578e-01 -4.61060e-01
       H  5.58916e-02 -1.49059e-01  2.74612e-01
       O -1.26707e-01 -5.62893e-01  9.11135e-02
       H  1.83111e-01 -7.32943e-02 -7.52511e-01
       H -4.98224e-02  8.01644e-01  1.92651e-01
       H  1.59936e-02 -1.88105e-01 -3.74605e-02
7
# CELL(abcABC):  529.17722   529.17722   529.17722    90.00000    90.00000    90.00000  Step:       13240  Bead:       0 forces{eV/ang}  cell{angstrom}
       O -1.80497e-01  7.38049e-01  9.41288e-01
       H  8.17491e-01 -1.13326e+00 -4.94046e-01
       H  4.24393e-02  1.80720e-01 -4.19957e-01
       O -7.60197e-02  1.53335e+00 -5.03016e-01
       H -2.52738e-01 -1.61867e-01  6.22656e-01
       H  2.74996e-01 -8.36031e-01  4.81140e-02
       H -6.25672e-01 -3.20960e-01 -1.95038e-01
7
# CELL(abcABC):  529.17722   529.17722   529.17722    90.00000    90.00000    90.00000  Step:       13260  Bead:       0 forces{eV/ang}  cell{angstrom}
       O -4.76479e-01  5.99809e-01  1.22528e+00
       H  6.09902e-01 -6.64708e-01 -3.58559e-01
       H  2.97831e-01 -3.66970e-02 -3.50522e-01
       O  4.35137e-01  1.34872e+00 -3.77878e-01
       H -2.59773e-02 -2.87258e-01  6.04800e-02
       H -7.53167e-02 -7.41990e-01 -9.17266e-02
       H -7.65098e-01 -2.17877e-01 -1.07075e-01
7
# CELL(abcABC):  529.17722   529.17722   529.17722    90.00000    90.00000    90.00000  Step:       13280  Bead:       0 forces{eV/ang}  cell{angstrom}
       O -1.10011e+00  6.75800e-01  7.75869e-01
       H  5.03163e-01 -4.65030e-01 -3.55468e-01
       H  3.12913e-01 -1.60566e-01 -3.52507e-01
       O  2.96494e-01  4.32846e-01  2.52960e-01
       H  2.38400e-02  4.24709e-01 -1.53113e-01
       H  3.46483e-01 -5.41847e-01 -7.76683e-02
       H -3.82782e-01 -3.65912e-01 -9.00729e-02
7
# CELL(abcABC):  529.17722   529.17722   529.17722    90.00000    90.00000    90.00000  Step:       13300  Bead:       0 forces{eV/ang}  cell{angstrom}
       O -9.33858e-01  5.51616e-01 -6.00962e-02
       H  4.31317e-01 -2.35334e-01  3.22945e-02
       H  2.76780e-01 -2.35319e-01 -3.65810e-01
       O  6.34551e-02  1.58682e-01  2.22697e-01
       H -2.50943e-01 -2.60499e-01  4.21161e-01
       H -3.32356e-01 -9.88852e-02 -2.94948e-01
       H  7.45605e-01  1.19739e-01  4.47019e-02
7
# CELL(abcABC):  529.17722   529.17722   529.17722    90.00000    90.00000    90.00000  Step:       13320  Bead:       0 forces{eV/ang}  cell{angstrom}
       O  7.97622e-01 -4.90370e-01 -2.56384e-01
       H -7.48197e-01  2.17932e-01 -2.08379e-01
       H -4.08453e-01  1.97900e-01  1.41967e-01
       O -1.06610e+00 -1.41440e+00  8.82138e-01
       H  3.00139e-01  6.56377e-01 -1.51451e-01
       H  6.22150e-03  3.24943e-01  2.41502e-02
       H  1.11877e+00  5.07620e-01 -4.32041e-01
7
# CELL(abcABC):  529.17722   529.17722   529.17722    90.00000    90.00000    90.00000  Step:       13340  Bead:       0 forces{eV/ang}  cell{angstrom}
       O -5.96287e-02 -2.37393e-01 -2.21673e+00
       H -5.82239e-01  2.84253e-01  1.06939e+00
       H  4.27596e-01  3.37284e-01  6.04427e-01
       O -6.64146e-01  2.68142e-01  5.05643e-01
       H -3.44644e-01 -6.58772e-01  5.01010e-02
       H  1.37448e-02 -2.46129e-01 -8.53792e-02
       H  1.20932e+00  2.52614e-01  7.25497e-02
7
# CELL(abcABC):  529.17722   529.17722   529.17722    90.00000    90.00000    90.00000  Step:       13360  Bead:       0 forces{eV/ang}  cell{angstrom}
       O  1.11093e+00 -5.65870e-01 -8.91033e-01
       H -1.12902e+00  1.39733e-01  7.25932e-01
       H  7.81841e-02  3.72701e-01  6.81664e-01
       O -2.68385e-01  4.58784e-01 -1.60270e-01
       H  3.32549e-01  1.50383e-01 -7.20246e-01
       H  2.69413e-01 -3.68933e-01  5.02365e-01
       H -3.93669e-01 -1.86797e-01 -1.38412e-01
7
# CELL(abcABC):  529.17722   529.17722   529.17722    90.00000    90.00000    90.00000  Step:       13380  Bead:       0 forces{eV/ang}  cell{angstrom}
       O  9.15462e-01  6.26040e-01 -1.13307e+00
       H -4.28168e-01 -1.49218e-01  1.15168e+00
       H -1.27758e-02 -3.00149e-01 -1.21884e-01
       O  1.31109e+00  1.88567e+00 -2.03605e-01
       H  3.51342e-02 -4.41085e-01  5.23318e-01
       H -1.66844e-01 -3.38095e-01  1.88947e-01
       H -1.65390e+00 -1.28317e+00 -4.05392e-01
7
# CELL(abcABC):  529.17722   529.17722   529.17722    90.00000    90.00000    90.00000  Step:       13400  Bead:       0 forces{eV/ang}  cell{angstrom}
       O  8.68182e-01  1.35237e-01  1.20925e+00
       H -1.75720e-01 -1.67142e-01 -2.75829e-01
       H -4.12333e-01 -2.69850e-01 -2.23327e-01
       O  8.99180e-01  1.40444e+00  2.15720e-01
       H  1.83538e-01  4.32853e-01 -6.89343e-01
       H  3.41779e-01  1.42310e-01  2.58803e-01
       H -1.70463e+00 -1.67785e+00 -4.95273e-01
7
# CELL(abcABC):  529.17722   529.17722   529.17722    90.00000    90.00000    90.00000  Step:       13420  Bead:       0 forces{eV/ang}  cell{angstrom}
       O -1.75555e+00  9.09746e-01 -4.61872e-02
       H  1.22614e+00 -2.82709e-01  5.25217e-03
       H  3.10021e-01 -6.56614e-01 -5.08428e-01
       O  1.84640e+00  1.03253e+00  1.18463e+00
       H -4.20527e-01 -2.86058e-02  5.16318e-01
       H -2.77167e-01  1.41539e-01 -4.63860e-01
       H -9.29324e-01 -1.11589e+00 -6.87726e-01
7
# CELL(abcABC):  529.17722   529.17722   529.17722    90.00000    90.00000    90.00000  Step:       13440  Bead:       0 forces{eV/ang}  cell{angstrom}
       O -1.50326e+00  2.12872e+00  6.16837e-01
       H  1.10443e+00 -1.29774e+00 -4.59165e-01
       H -3.64415e-01 -4.93191e-01 -4.47247e-01
       O  5.35201e-01 -6.06508e-01  8.47768e-01
       H -8.09458e-02 -2.07301e-01 -3.96792e-01
       H  3.77266e-01  8.13387e-01 -5.35827e-01
       H -6.82712e-02 -3.37364e-01  3.74427e-01
7
# CELL(abcABC):  529.17722   529.17722   529.17722    90.00000    90.00000    90.00000  Step:       13460  Bead:       0 forces{eV/ang}  cell{angstrom}
       O -1.45010e+00  1.09260e+00 -5.41388e-01
       H  7.02493e-01 -4.06812e-01  3.29899e-01
       H  1.42021e-01 -7.07774e-01 -1.76452e-01
       O -6.10614e-02 -2.49509e+00  1.89905e+00
       H  3.03818e-01  6.93723e-01 -1.98244e-01
       H  2.10078e-01  2.63909e-01 -9.61083e-01
       H  1.52750e-01  1.55945e+00 -3.51780e-01
7
# CELL(abcABC):  529.17722   529.17722   529.17722    90.00000    90.00000    90.00000  Step:       13480  Bead:       0 forces{eV/ang}  cell{angstrom}
       O  9.33355e-01 -1.04490e+00  3.98813e-01
       H -5.12025e-01  8.77369e-01 -3.02099e-01
       H -2.77687e-01  2.35041e-01 -2.37075e-01
       O -1.85759e+00 -1.21319e+00 -1.40916e+00
       H  4.37163e-01 -6.39966e-01  7.85944e-01
       H  1.90633e-01  4.67813e-01 -5.83919e-02
       H  1.08615e+00  1.31784e+00  8.21972e-01
7
# CELL(abcABC):  529.17722   529.17722   529.17722    90.00000    90.00000    90.00000  Step:       13500  Bead:       0 forces{eV/ang}  cell{angstrom}
       O  1.16031e+00 -2.23674e+00  4.71797e-01
       H -1.28646e-02  1.81754e+00  1.12476e-02
       H -6.14105e-02  6.00215e-02  1.93007e-01
       O -5.29278e-01 -1.19915e+00  5.49565e-01
       H -7.00770e-01  5.25437e-01 -7.22111e-01
       H  9.42251e-03 -3.40068e-01  3.07085e-01
       H  1.34590e-01  1.37297e+00 -8.10591e-01
7
# CELL(abcABC):  529.17722   529.17722   529.17722    90.00000    90.00000    90.00000  Step:       13520  Bead:       0 forces{eV/ang}  cell{angstrom}
       O  7.69724e-01 -6.04182e-01  1.30482e+00
       H -3.25797e-01  1.02946e+00 -7.25549e-01
       H -1.14980e-01 -7.99653e-02 -3.45166e-01
       O -2.41260e+00 -4.61052e-01 -2.02872e+00
       H  1.31623e+00 -3.70749e-01  4.79150e-01
       H  4.23906e-01 -1.54457e-01  1.61193e+00
       H  3.43512e-01  6.40943e-01 -2.96465e-01
7
# CELL(abcABC):  529.17722   529.17722   529.17722    90.00000    90.00000    90.00000  Step:       13540  Bead:       0 forces{eV/ang}  cell{angstrom}
       O  4.20277e-01 -8.13351e-01  9.00121e-02
       H  8.93829e-02  6.25212e-01 -8.68000e-02
       H -3.17541e-01 -4.51956e-01 -3.94652e-01
       O  1.31385e+00  1.78819e-01 -2.31868e+00
       H -8.10795e-01  8.20844e-01  5.54595e-01
       H -5.75414e-01 -2.59173e-01  2.43487e+00
       H -1.19756e-01 -1.00395e-01 -2.79345e-01
7
# CELL(abcABC):  529.17722   529.17722   529.17722    90.00000    90.00000    90.00000  Step:       13560  Bead:       0 forces{eV/ang}  cell{angstrom}
       O -1.83083e+00 -4.15834e-01  3.04083e-01
       H -1.99568e-01  4.14615e-01 -5.77160e-01
       H  6.14912e-01  2.43586e-01  1.93503e-01
       O  1.24482e+00  1.65531e-01 -2.29907e+00
       H  5.92501e-01 -2.82726e-01 -6.10127e-01
       H  2.47547e-01  4.42362e-01  2.27190e+00
       H -6.69380e-01 -5.67534e-01  7.16879e-01
7
# CELL(abcABC):  529.17722   529.17722   529.17722    90.00000    90.00000    90.00000  Step:       13580  Bead:       0 forces{eV/ang}  cell{angstrom}
       O -8.90858e-01 -8.50438e-01 -4.21351e-01
       H -1.98499e-01  4.17458e-02 -3.43996e-01
       H -9.79696e-02  2.60616e-01 -1.47786e-02
       O  3.19941e+00  7.55685e-01 -8.41519e-01
       H -3.62263e-01  7.16963e-01  5.79616e-01
       H -9.13312e-01 -1.59080e-01  9.88212e-01
       H -7.36514e-01 -7.65491e-01  5.38152e-02
7
# CELL(abcABC):  529.17722   529.17722   529.17722    90.00000    90.00000    90.00000  Step:       13600  Bead:       0 forces{eV/ang}  cell{angstrom}
       O  1.10037e-01  3.67368e-02 -2.04232e-01
       H -2.55216e-01 -2.91639e-01  8.09239e-02
       H  2.07914e-01  6.93393e-01  1.69405e-01
       O -1.30946e-01  2.07464e-01  3.60410e-01
       H -1.27137e-01 -6.28951e-01 -2.99527e-01
       H  5.05372e-01  5.99173e-02 -7.72760e-01
       H -3.10023e-01 -7.69212e-02  6.65780e-01
7
# CELL(abcABC):  529.17722   529.17722   529.17722    90.00000    90.00000    90.00000  Step:       13620  Bead:       0 forces{eV/ang}  cell{angstrom}
       O -5.46221e-01  3.85914e-01 -4.60803e-01
       H  1.01909e+00 -8.39457e-01  8.58158e-01
       H  3.10121e-01  2.70542e-01  2.10611e-01
       O -1.73874e+00  3.66440e-01  1.61134e+00
       H  1.18648e+00  4.54308e-01  1.11365e-01
       H -1.96460e-03 -5.47536e-01 -2.14127e+00
       H -2.28765e-01 -9.02119e-02 -1.89399e-01
7
# CELL(abcABC):  529.17722   529.17722   529.17722    90.00000    90.00000    90.00000  Step:       13640  Bead:       0 forces{eV/ang}  cell{angstrom}
       O  2.03680e+00  2.19963e+00  9.19030e-01
       H  5.60234e-01 -1.68193e+00  6.35152e-01
       H -4.94825e-01 -5.00873e-02 -2.58364e-01
       O  2.35753e-01  5.27067e-01  3.66602e-01
       H -1.64081e+00 -3.89963e-01 -4.51899e-01
       H -3.91527e-01 -4.84957e-01 -1.49669e+00
       H -3.05631e-01 -1.19765e-01  2.86173e-01
7
# CELL(abcABC):  529.17722   529.17722   529.17722    90.00000    90.00000    90.00000  Step:       13660  Bead:       0 forces{eV/ang}  cell{angstrom}
       O -9.58709e-01  6.39337e-01 -5.78571e-01
       H  6.66032e-01 -4.97226e-01  2.15415e-01
       H -1.25817e-01 -3.39535e-01  2.53947e-01
       O -2.12437e-01  3.61187e-01 -5.14634e-01
       H  1.14615e+00  1.46469e-01 -2.35016e-01
       H  5.67731e-01  3.63302e-02  8.31063e-03
       H -1.08295e+00 -3.46563e-01  8.50547e-01
7
# CELL(abcABC):  529.17722   529.17722   529.17722    90.00000    90.00000    90.00000  Step:       13680  Bead:       0 forces{eV/ang}  cell{angstrom}
       O -6.07144e-01 -6.58207e-01 -1.96938e+00
       H -2.31960e-01  1.13459e-01  2.67699e-01
       H -6.10683e-02  2.36028e-01  5.33357e-01
       O  2.67777e+00  3.85788e-01 -1.46261e+00
       H -3.97645e-01  1.99511e-01  8.92674e-01
       H -2.42109e-01  4.05619e-01  7.18154e-01
       H -1.13785e+00 -6.82197e-01  1.02011e+00
7
# CELL(abcABC):  529.17722   529.17722   529.17722    90.00000    90.00000    90.00000  Step:       13700  Bead:       0 forces{eV/ang}  cell{angstrom}
       O  4.46444e-02  3.96246e-01 -4.78165e-02
       H  1.32985e-01 -2.33641e-01  1.04442e-01
       H -4.19249e-01 -2.29286e-01  2.02784e-01
       O  1.46510e+00 -8.31094e-01 -1.58649e+00
       H -3.13245e-01 -1.71866e-02 -7.87119e-01
       H -8.72512e-02  1.18835e+00  1.50879e+00
       H -8.22985e-01 -2.73384e-01  6.05406e-01
7
# CELL(abcABC):  529.17722   529.17722   529.17722    90.00000    90.00000    90.00000  Step:       13720  Bead:       0 forces{eV/ang}  cell{angstrom}
       O -1.23386e+00 -6.50159e-01  1.09726e-01
       H -3.19224e-01  4.39180e-01 -4.77387e-01
       H  4.81266e-01  1.94958e-01 -1.24999e-01
       O  2.03991e+00 -2.62062e-01 -1.58543e+00
       H -3.79846e-02 -2.65352e-01  1.56603e-01
       H -6.59683e-01  8.31129e-01  1.71266e+00
       H -2.70424e-01 -2.87693e-01  2.08823e-01
7
# CELL(abcABC):  529.17722   529.17722   529.17722    90.00000    90.00000    90.00000  Step:       13740  Bead:       0 forces{eV/ang}  cell{angstrom}
       O  1.14570e+00 -9.01269e-01  1.08080e+00
       H -8.01799e-01  5.49870e-01 -5.76349e-01
       H -2.09613e-01  2.57244e-01 -2.80027e-01
       O -2.06758e+00 -1.21932e+00 -1.02831e+00
       H  7.40009e-01  2.15857e-01  2.66591e-01
       H  1.07078e-01  7.25791e-01  9.89026e-01
       H  1.08621e+00  3.71826e-01 -4.51726e-01
7
# CELL(abcABC):  529.17722   529.17722   529.17722    90.00000    90.00000    90.00000  Step:       13760  Bead:       0 forces{eV/ang}  cell{angstrom}
       O  1.29012e+00 -2.62252e-02  8.62497e-01
       H -2.13816e-01  7.55930e-01 -6.88035e-01
       H  3.19086e-01 -2.13239e-01  3.07680e-01
       O -2.07044e+00 -5.41928e-01  1.34623e+00
       H -6.40853e-01 -4.04342e-01 -2.07837e-01
       H -1.28611e-01  9.81190e-02  2.14286e-01
       H  1.44451e+00  3.31685e-01 -1.83482e+00
7
# CELL(abcABC):  529.17722   529.17722   529.17722    90.00000    90.00000    90.00000  Step:       13780  Bead:       0 forces{eV/ang}  cell{angstrom}
       O  1.41189e+00  1.02408e+00  1.55986e-02
       H -6.18955e-02 -5.57900e-01  2.50373e-01
       H -5.56682e-01 -3.04414e-01 -4.11685e-02
       O -2.57700e+00  2.73686e-01  1.97710e+00
       H  8.43907e-01  1.41958e-01  3.70137e-01
       H -2.06586e-01 -9.83865e-01 -1.03661e+00
       H  1.14636e+00  4.06458e-01 -1.53543e+00
7
# CELL(abcABC):  529.17722   529.17722   529.17722    90.00000    90.00000    90.00000  Step:       13800  Bead:       0 forces{eV/ang}  cell{angstrom}
       O -1.15373e+00  7.11461e-01 -1.06903e+00
       H  6.23874e-01 -7.50020e-02  2.33956e-01
       H -2.64251e-02 -9.65980e-01  5.41106e-01
       O  7.48131e-01  1.67098e+00  2.76227e+00
       H -8.24918e-02  4.77787e-01  3.18311e-02
       H -6.50586e-01 -1.82207e+00 -1.58689e+00
       H  5.41228e-01  2.82475e-03 -9.13240e-01
7
# CELL(abcABC):  529.17722   529.17722   529.17722    90.00000    90.00000    90.00000  Step:       13820  Bead:       0 forces{eV/ang}  cell{angstrom}
       O -7.34546e-01  6.52029e-01 -6.67059e-01
       H -6.91383e-02 -5.33362e-01  2.37695e-01
       H -2.95376e-01 -1.33333e-01 -1.05974e-01
       O  2.11931e+00  1.34431e+00  7.36306e-01
       H -1.16227e-01 -3.66783e-01  1.46908e-01
       H -2.35786e-01 -1.13310e+00 -1.06315e+00
       H -6.68237e-01  1.70239e-01  7.15276e-01
7
# CELL(abcABC):  529.17722   529.17722   529.17722    90.00000    90.00000    90.00000  Step:       13840  Bead:       0 forces{eV/ang}  cell{angstrom}
       O -1.07297e+00 -1.95826e+00 -3.29541e-02
       H -7.77802e-02  8.06830e-01 -2.66961e-01
       H  3.40355e-01  6.80029e-01  2.25777e-01
       O  2.27259e+00 -3.66003e-01 -8.33316e-01
       H  1.33971e-01  3.99183e-01 -2.38058e-01
       H  5.69528e-02 -2.26040e-01 -1.22817e-01
       H -1.65312e+00  6.64263e-01  1.26833e+00
7
# CELL(abcABC):  529.17722   529.17722   529.17722    90.00000    90.00000    90.00000  Step:       13860  Bead:       0 forces{eV/ang}  cell{angstrom}
       O  4.83005e-01 -1.86900e+00  4.25828e-01
       H -9.55473e-01  8.38143e-01 -8.98975e-01
       H  3.02873e-01  1.35228e+00  3.34046e-01
       O  1.55309e+00 -1.52578e+00 -1.24693e+00
       H -4.95273e-03 -5.40324e-01  1.52307e-01
       H -6.70645e-02  1.23356e+00  8.57691e-01
       H -1.31148e+00  5.11112e-01  3.76028e-01
7
# CELL(abcABC):  529.17722   529.17722   529.17722    90.00000    90.00000    90.00000  Step:       13880  Bead:       0 forces{eV/ang}  cell{angstrom}
       O -1.71821e-01 -2.48221e+00 -3.60760e-01
       H  2.51960e-01  1.52025e+00 -2.39243e-01
       H  5.99556e-01  8.42643e-01  9.83497e-01
       O -1.48250e+00 -1.70347e+00 -1.05091e+00
       H -1.25918e-01  2.91445e-01 -1.81742e-01
       H  5.30796e-01  1.26816e+00  6.32582e-01
       H  3.97927e-01  2.63182e-01  2.16575e-01
7
# CELL(abcABC):  529.17722   529.17722   529.17722    90.00000    90.00000    90.00000  Step:       13900  Bead:       0 forces{eV/ang}  cell{angstrom}
       O  7.26975e-01 -5.28952e-01  1.45775e+00
       H -4.40402e-01  5.31763e-02 -1.01537e+00
       H -1.02758e-01  8.52347e-01 -4.04297e-01
       O -9.63273e-01 -2.47665e-01 -3.63781e-01
       H -1.27869e-01 -6.57993e-01 -3.61456e-02
       H  7.20189e-02  1.51505e+00  3.12219e-01
       H  8.35309e-01 -9.85961e-01  4.96192e-02
7
# CELL(abcABC):  529.17722   529.17722   529.17722    90.00000    90.00000    90.00000  Step:       13920  Bead:       0 forces{eV/ang}  cell{angstrom}
       O -1.07355e+00  2.12811e-01 -1.33155e+00
       H  7.33995e-01  8.33530e-02  8.40755e-01
       H -1.29520e-02 -7.48325e-01  1.74175e-01
       O -1.26729e+00 -1.66912e-01 -1.09942e+00
       H  2.89745e-02  5.24898e-01  3.48726e-01
       H  3.37364e-01  1.08194e+00  2.62542e-01
       H  1.25346e+00 -9.87768e-01  8.04776e-01
7
# CELL(abcABC):  529.17722   529.17722   529.17722    90.00000    90.00000    90.00000  Step:       13940  Bead:       0 forces{eV/ang}  cell{angstrom}
       O  5.98935e-01  1.96317e+00  1.17456e+00
       H  1.87389e-01 -1.54149e+00 -6.20139e-02
       H -6.35500e-01 -1.62738e-01 -1.15135e+00
       O -1.46582e-01  1.72406e+00 -1.37287e+00
       H -4.41370e-01 -6.32251e-01  1.49577e-02
       H  9.48280e-02  1.02304e-01 -5.10756e-02
       H  3.42300e-01 -1.45306e+00  1.44780e+00
7
# CELL(abcABC):  529.17722   529.17722   529.17722    90.00000    90.00000    90.00000  Step:       13960  Bead:       0 forces{eV/ang}  cell{angstrom}
       O -1.77212e+00  1.58243e+00  5.91379e-02
       H  1.04345e+00 -6.64971e-01  6.62820e-01
       H  3.73299e-01 -1.21321e+00 -5.68218e-01
       O  2.68357e-01  7.22473e-01 -5.46234e-01
       H  3.36385e-01  6.44633e-01 -3.53609e-01
       H -3.20380e-01 -4.82119e-01 -1.19593e-01
       H  7.10096e-02 -5.89231e-01  8.65695e-01
7
# CELL(abcABC):  529.17722   529.17722   529.17722    90.00000    90.00000    90.00000  Step:       13980  Bead:       0 forces{eV/ang}  cell{angstrom}
       O  4.84326e-01  1.04525e+00  8.48357e-01
       H -6.71501e-02 -5.88842e-01 -3.61748e-01
       H -4.50480e-01 -3.72389e-01 -4.92291e-01
       O  4.50613e-01  1.07918e+00 -7.93822e-01
       H  1.69499e-01 -3.52244e-01  5.11347e-01
       H -1.55302e-01 -7.82010e-01  1.16535e-01
       H -4.31506e-01 -2.89483e-02  1.71624e-01
7
# CELL(abcABC):  529.17722   529.17722   529.17722    90.00000    90.00000    90.00000  Step:       14000  Bead:       0 forces{eV/ang}  cell{angstrom}
       O  7.58565e-01 -1.38385e+00 -1.06036e+00
       H -8.97105e-01  1.02993e+00  8.03127e-01
       H  5.67004e-01  2.14204e-01  4.31048e-01
       O  9.21286e-01  6.13881e-01  5.00922e-01
       H -3.78039e-01  4.62091e-01 -2.38972e-01
       H -7.84510e-01 -1.00267e+00  1.05391e-02
       H -1.87201e-01  6.64049e-02 -4.46300e-01
7
# CELL(abcABC):  529.17722   529.17722   529.17722    90.00000    90.00000    90.00000  Step:       14020  Bead:       0 forces{eV/ang}  cell{angstrom}
       O  1.23756e+00 -7.01683e-01 -6.49223e-01
       H -6.95888e-01  1.39281e-01  4.22124e-02
       H -1.55924e-01  6.01628e-01  6.08704e-01
       O -4.71908e-01  2.57760e-01  4.78302e-02
       H  3.25793e-01 -5.25156e-02  2.16126e-01
       H -1.52703e-01 -7.39204e-01  5.38945e-01
       H -8.69327e-02  4.94734e-01 -8.04595e-01
7
# CELL(abcABC):  529.17722   529.17722   529.17722    90.00000    90.00000    90.00000  Step:       14040  Bead:       0 forces{eV/ang}  cell{angstrom}
       O  2.54049e-02 -1.17013e-01 -3.44583e-01
       H -6.70281e-02  2.89183e-01  3.74866e-01
       H  1.28731e-01  2.38034e-02 -7.21835e-02
       O  1.38853e+00 -3.69978e-01  1.54240e+00
       H  7.05593e-02 -2.15116e-01 -1.43393e-01
       H -5.53626e-01  1.43245e-01 -5.18038e-01
       H -9.92567e-01  2.45876e-01 -8.39073e-01
7
# CELL(abcABC):  529.17722   529.17722   529.17722    90.00000    90.00000    90.00000  Step:       14060  Bead:       0 forces{eV/ang}  cell{angstrom}
       O  6.36482e-01  3.66313e-01  3.26094e-01
       H  3.76884e-01 -1.40458e-01 -1.26451e-01
       H -2.70424e-01 -6.91571e-02 -3.45423e-01
       O -1.08817e+00 -1.11756e+00  6.89824e-01
       H -4.70556e-01 -8.65179e-02  2.60647e-01
       H  7.12841e-01  3.59541e-01 -2.36956e-01
       H  1.02943e-01  6.87836e-01 -5.67735e-01
7
# CELL(abcABC):  529.17722   529.17722   529.17722    90.00000    90.00000    90.00000  Step:       14080  Bead:       0 forces{eV/ang}  cell{angstrom}
       O -7.02690e-01  9.52122e-01  1.75859e+00
       H  7.08375e-01 -3.91889e-01 -2.41034e-01
       H  4.75241e-02 -3.76042e-01 -1.44827e+00
       O -3.85973e-01 -4.13865e-01  4.31496e-02
       H  5.22450e-01 -3.15613e-02  8.04937e-02
       H -1.96634e-01  7.60886e-01 -7.21802e-01
       H  6.94728e-03 -4.99651e-01  5.28870e-01
7
# CELL(abcABC):  529.17722   529.17722   529.17722    90.00000    90.00000    90.00000  Step:       14100  Bead:       0 forces{eV/ang}  cell{angstrom}
       O -1.52114e-01  1.51880e-01  1.73137e+00
       H -1.77156e-01 -1.29742e-01 -2.97429e-01
       H -4.30160e-02 -1.38405e-01 -1.58177e+00
       O -7.12391e-01  9.67958e-01  3.15704e-01
       H -1.70958e-01  1.26827e-01  3.00765e-01
       H  5.71844e-01  2.40232e-02 -4.17079e-01
       H  6.83790e-01 -1.00254e+00 -5.15642e-02
7
# CELL(abcABC):  529.17722   529.17722   529.17722    90.00000    90.00000    90.00000  Step:       14120  Bead:       0 forces{eV/ang}  cell{angstrom}
       O -6.40624e-01 -4.13327e-01  6.39411e-01
       H -1.71757e-01  9.10148e-02  3.02797e-02
       H  3.43156e-01 -4.49616e-02 -5.99639e-01
       O  6.93192e-01  1.12565e+00  6.32629e-01
       H -1.86776e-01  2.89846e-01 -2.80001e-01
       H  1.03244e-02  2.54350e-01 -3.43012e-01
       H -4.75160e-02 -1.30257e+00 -7.96682e-02
7
# CELL(abcABC):  529.17722   529.17722   529.17722    90.00000    90.00000    90.00000  Step:       14140  Bead:       0 forces{eV/ang}  cell{angstrom}
       O  8.91765e-01 -6.91775e-01 -4.02986e-01
       H -9.62227e-01  5.80171e-01  1.14364e-01
       H -8.98026e-02  1.37324e-01  2.18576e-01
       O -4.45582e-01  2.04415e+00 -6.37804e-01
       H  1.34739e-01 -2.78392e-01  2.78845e-01
       H -1.68612e-01 -5.96740e-01  5.01555e-01
       H  6.39720e-01 -1.19474e+00 -7.25487e-02
7
# CELL(abcABC):  529.17722   529.17722   529.17722    90.00000    90.00000    90.00000  Step:       14160  Bead:       0 forces{eV/ang}  cell{angstrom}
       O  4.52499e-01 -3.69939e-01 -1.59747e-01
       H -3.68375e-01  4.96080e-01  5.95137e-01
       H  1.34418e-01 -1.41235e-01 -1.39844e-01
       O -1.13628e-01  1.03864e+00 -6.33832e-01
       H  3.00134e-01  4.72851e-01 -4.29927e-01
       H -9.10680e-01 -1.26294e+00  5.16622e-01
       H  5.05632e-01 -2.33454e-01  2.51591e-01
7
# CELL(abcABC):  529.17722   529.17722   529.17722    90.00000    90.00000    90.00000  Step:       14180  Bead:       0 forces{eV/ang}  cell{angstrom}
       O  5.50241e-01  7.00068e-01  1.69796e-01
       H  6.44132e-01 -2.79895e-01 -1.84952e-01
       H -2.28818e-01 -1.48653e-01 -1.79797e-01
       O -1.32357e-01  1.00347e+00 -2.35080e-01
       H -5.56231e-01 -5.22522e-01  2.66554e-01
       H -2.17696e-01 -8.47845e-01  1.84333e-01
       H -5.92698e-02  9.53722e-02 -2.08543e-02
7
# CELL(abcABC):  529.17722   529.17722   529.17722    90.00000    90.00000    90.00000  Step:       14200  Bead:       0 forces{eV/ang}  cell{angstrom}
       O -7.99067e-01  5.30809e-01  6.65480e-01
       H  9.33170e-01 -7.16388e-01 -1.17939e+00
       H -1.71243e-01  1.51693e-01  4.46233e-01
       O -2.24176e-01 -4.78723e-01  4.27890e-01
       H  3.96319e-01  4.24914e-01 -1.73095e-01
       H -2.83012e-01 -6.73476e-02 -7.42801e-02
       H  1.48009e-01  1.55042e-01 -1.12841e-01
7
# CELL(abcABC):  529.17722   529.17722   529.17722    90.00000    90.00000    90.00000  Step:       14220  Bead:       0 forces{eV/ang}  cell{angstrom}
       O -1.56938e+00  3.13495e-01  9.96095e-02
       H  5.91135e-01 -3.09920e-01 -3.56292e-01
       H  3.31495e-01 -6.66807e-03  3.28776e-01
       O  1.39172e+00 -1.73930e-01 -5.21866e-01
       H  4.50220e-02 -3.53802e-01  2.04820e-01
       H -1.92040e-01  1.37778e-01  4.23825e-01
       H -5.97952e-01  3.93047e-01 -1.78873e-01
7
# CELL(abcABC):  529.17722   529.17722   529.17722    90.00000    90.00000    90.00000  Step:       14240  Bead:       0 forces{eV/ang}  cell{angstrom}
       O -2.63662e-01 -2.52636e-01 -8.59117e-01
       H -6.80478e-01  1.72133e-02  1.89052e-01
       H  4.52696e-01  1.23325e-01  1.01601e+00
       O  1.58411e+00 -4.31084e-01  4.92684e-01
       H -1.44143e-01  1.44238e-01 -2.33035e-01
       H -4.65972e-01  4.16538e-01 -1.48029e-01
       H -4.82552e-01 -1.75948e-02 -4.57560e-01
7
# CELL(abcABC):  529.17722   529.17722   529.17722    90.00000    90.00000    90.00000  Step:       14260  Bead:       0 forces{eV/ang}  cell{angstrom}
       O  7.11398e-01 -2.63537e-01 -1.14782e+00
       H -7.06972e-01  1.62919e-01  5.41622e-01
       H -1.77761e-01 -5.16576e-02  2.51087e-01
       O -3.61040e-01 -5.15621e-01 -1.73503e-01
       H  1.39914e-01  1.71102e-01  4.87878e-01
       H  3.76964e-01  3.70085e-02  2.04430e-01
       H  1.74982e-02  4.59786e-01 -1.63695e-01
7
# CELL(abcABC):  529.17722   529.17722   529.17722    90.00000    90.00000    90.00000  Step:       14280  Bead:       0 forces{eV/ang}  cell{angstrom}
       O  1.77677e+00  7.65368e-01  5.39041e-02
       H -4.47062e-01 -1.08312e-01  8.04259e-01
       H  8.71594e-02  1.11901e-02 -5.24790e-01
       O -2.25327e-01 -1.90992e-01  1.15227e-01
       H -1.01745e+00 -6.02861e-01 -3.27234e-01
       H  2.89417e-02  1.23173e-01 -7.79048e-02
       H -2.03028e-01  2.43369e-03 -4.34609e-02
7
# CELL(abcABC):  529.17722   529.17722   529.17722    90.00000    90.00000    90.00000  Step:       14300  Bead:       0 forces{eV/ang}  cell{angstrom}
       O  1.37969e+00 -2.04484e-01 -1.90585e-01
       H -9.00839e-01 -1.38059e-01  1.09201e+00
       H -6.17244e-01  2.51926e-01 -7.94105e-01
       O -1.27375e+00 -1.29375e+00  3.60998e-01
       H  6.87712e-01  4.81743e-01 -3.77855e-02
       H  5.32086e-01  6.35865e-01 -4.21388e-01
       H  1.92338e-01  2.66756e-01 -9.14823e-03
7
# CELL(abcABC):  529.17722   529.17722   529.17722    90.00000    90.00000    90.00000  Step:       14320  Bead:       0 forces{eV/ang}  cell{angstrom}
       O  4.09397e-02 -5.04837e-01  1.05791e-01
       H -9.78035e-02 -1.78202e-01  6.86796e-01
       H -5.48368e-01  4.54114e-01 -9.21916e-01
       O -3.30970e-02  8.38855e-01  3.00167e-02
       H -2.95361e-02 -2.37882e-02  7.61721e-02
       H  5.14872e-02 -4.92333e-02 -3.78031e-02
       H  6.16378e-01 -5.36908e-01  6.09439e-02
7
# CELL(abcABC):  529.17722   529.17722   529.17722    90.00000    90.00000    90.00000  Step:       14340  Bead:       0 forces{eV/ang}  cell{angstrom}
       O  8.82059e-01 -1.04928e+00  2.66393e-02
       H -3.10140e-01  1.95676e-01  1.87896e-01
       H -5.36394e-01  7.59301e-01 -2.23739e-01
       O  2.40027e-01  2.06362e+00 -5.66465e-01
       H -4.99883e-01 -3.35503e-01 -1.05563e-01
       H -3.92585e-01 -4.20928e-01  5.86658e-01
       H  6.16917e-01 -1.21288e+00  9.45727e-02
7
# CELL(abcABC):  529.17722   529.17722   529.17722    90.00000    90.00000    90.00000  Step:       14360  Bead:       0 forces{eV/ang}  cell{angstrom}
       O -5.72500e-01 -1.31107e+00  1.45711e-01
       H  1.56105e-01  1.51629e-01 -1.24218e-01
       H -3.56171e-01  6.62256e-01 -3.12492e-01
       O -3.63331e-01  1.97535e+00  7.23168e-02
       H  1.42907e-02 -6.72761e-02  3.34200e-01
       H  1.36836e-01 -1.12694e-01  8.99912e-03
       H  9.84769e-01 -1.29819e+00 -1.24518e-01
7
# CELL(abcABC):  529.17722   529.17722   529.17722    90.00000    90.00000    90.00000  Step:       14380  Bead:       0 forces{eV/ang}  cell{angstrom}
       O -6.19145e-01 -2.07200e-01  4.07545e-01
       H  1.65436e-01  1.68778e-01 -5.63130e-01
       H  1.86384e-01 -1.49063e-01  2.06044e-01
       O -3.45472e-01  5.54449e-01  1.79523e-01
       H -1.30665e-01  1.31471e-01 -1.42994e-01
       H -6.64244e-02  3.54978e-01 -2.37895e-01
       H  8.09886e-01 -8.53414e-01  1.50907e-01
7
# CELL(abcABC):  529.17722   529.17722   529.17722    90.00000    90.00000    90.00000  Step:       14400  Bead:       0 forces{eV/ang}  cell{angstrom}
       O -6.29092e-01  5.07956e-01 -1.98942e-01
       H  4.51031e-01  2.23843e-01 -3.28089e-01
       H  8.60776e-01 -3.33819e-01  4.47245e-01
       O -1.98228e+00 -9.55471e-01 -7.02284e-02
       H  6.55600e-01  2.74641e-01  2.97015e-01
       H  1.83140e-01  4.25929e-01 -2.06055e-01
       H  4.60826e-01 -1.43078e-01  5.90537e-02
7
# CELL(abcABC):  529.17722   529.17722   529.17722    90.00000    90.00000    90.00000  Step:       14420  Bead:       0 forces{eV/ang}  cell{angstrom}
       O  4.87784e-01  1.38591e+00 -7.50554e-01
       H -5.56796e-02 -5.85638e-02 -6.14266e-02
       H  1.29004e+00 -5.31229e-01  9.46296e-01
       O  4.74594e-01 -1.10869e+00 -3.82694e-02
       H -1.11578e+00 -4.17836e-01 -2.90622e-01
       H -2.10560e-01  2.77382e-01 -1.04447e-01
       H -8.70396e-01  4.53028e-01  2.99023e-01
7
# CELL(abcABC):  529.17722   529.17722   529.17722    90.00000    90.00000    90.00000  Step:       14440  Bead:       0 forces{eV/ang}  cell{angstrom}
       O -1.02283e+00  3.42073e-01 -6.58542e-01
       H  2.22543e-01 -1.70479e-01  2.66369e-01
       H  8.07238e-01 -1.76763e-01  3.54797e-01
       O -7.61288e-01 -1.67476e+00 -4.53577e-01
       H  1.24794e+00  4.13447e-01  1.77434e-01
       H  1.91454e-01  7.03545e-01 -1.22766e-01
       H -6.85059e-01  5.62940e-01  4.36285e-01
7
# CELL(abcABC):  529.17722   529.17722   529.17722    90.00000    90.00000    90.00000  Step:       14460  Bead:       0 forces{eV/ang}  cell{angstrom}
       O -4.75569e-01 -4.60933e-01  4.34111e-01
       H  2.69806e-02 -1.14080e-02 -2.15238e-01
       H -4.78402e-01  3.86383e-03 -3.64355e-01
       O  1.57336e+00 -6.23710e-01 -4.48139e-01
       H -1.67531e-01  7.79541e-02  1.88854e-01
       H  1.39199e-01  6.50483e-01 -7.80256e-02
       H -6.18042e-01  3.63751e-01  4.82792e-01
7
# CELL(abcABC):  529.17722   529.17722   529.17722    90.00000    90.00000    90.00000  Step:       14480  Bead:       0 forces{eV/ang}  cell{angstrom}
       O -1.48687e-01 -5.65850e-01  1.39934e+00
       H -2.25810e-02 -1.96240e-01 -1.48964e-01
       H -2.94056e-01  4.92849e-01 -9.01600e-01
       O  5.48969e-01  1.16431e-01  3.80712e-01
       H -1.88624e-01 -1.61096e-01 -4.26372e-01
       H  2.84885e-01  3.41458e-02 -2.43531e-01
       H -1.79907e-01  2.79759e-01 -5.95829e-02
7
# CELL(abcABC):  529.17722   529.17722   529.17722    90.00000    90.00000    90.00000  Step:       14500  Bead:       0 forces{eV/ang}  cell{angstrom}
       O -1.55268e-01 -1.03060e+00  7.04540e-01
       H  4.22185e-01  2.40416e-01 -9.12926e-01
       H -5.47523e-01  5.08691e-01 -2.17764e-01
       O  6.61307e-01  1.20865e+00 -6.23273e-01
       H -6.94029e-02  1.27517e-01  6.92854e-01
       H -3.41136e-01 -7.12466e-01  3.39485e-01
       H  2.98380e-02 -3.42204e-01  1.70831e-02
7
# CELL(abcABC):  529.17722   529.17722   529.17722    90.00000    90.00000    90.00000  Step:       14520  Bead:       0 forces{eV/ang}  cell{angstrom}
       O -2.39419e-01  1.34667e-01  1.64842e+00
       H  3.60586e-01 -2.31133e-01 -7.85099e-01
       H  4.48627e-01  2.76686e-01 -1.56682e-01
       O -1.59188e+00  6.55262e-01  4.29598e-01
       H  3.44330e-01  1.18115e-01 -9.31987e-01
       H  1.65453e-01 -9.46157e-01  1.06822e-01
       H  5.12299e-01 -7.43931e-03 -3.11075e-01
7
# CELL(abcABC):  529.17722   529.17722   529.17722    90.00000    90.00000    90.00000  Step:       14540  Bead:       0 forces{eV/ang}  cell{angstrom}
       O  2.63482e-01  4.21114e-01 -1.33254e+00
       H  3.39877e-01  1.40652e-01 -1.62533e-01
       H  5.52845e-01  4.79365e-02  8.83009e-01
       O -7.73811e-01  3.65005e-02  9.19073e-02
       H -6.20806e-01 -2.46239e-01  6.49606e-01
       H -2.98261e-01  1.14252e-01  9.73376e-02
       H  5.36674e-01 -5.14216e-01 -2.26785e-01
7
# CELL(abcABC):  529.17722   529.17722   529.17722    90.00000    90.00000    90.00000  Step:       14560  Bead:       0 forces{eV/ang}  cell{angstrom}
       O -5.70393e-01 -5.87224e-01 -8.15006e-01
       H -1.51541e-01  2.64291e-02  2.41572e-01
       H  6.66249e-01  6.06194e-01  7.81600e-01
       O -8.61048e-01 -1.03041e-01  9.84932e-01
       H  4.16815e-01 -8.55838e-02 -4.83897e-01
       H  2.82264e-02  5.92968e-01 -2.44003e-01
       H  4.71691e-01 -4.49742e-01 -4.65197e-01
7
# CELL(abcABC):  529.17722   529.17722   529.17722    90.00000    90.00000    90.00000  Step:       14580  Bead:       0 forces{eV/ang}  cell{angstrom}
       O -3.00007e-01 -5.68196e-01 -5.23433e-01
       H -2.16158e-01  5.15530e-03  2.49799e-01
       H -3.12010e-02  1.47026e-01  1.58789e-01
       O  4.62492e-01 -1.33559e+00  7.90756e-01
       H -2.90200e-01  2.17184e-01  2.97704e-01
       H  2.17518e-03  1.60359e+00 -7.99155e-01
       H  3.72898e-01 -6.91738e-02 -1.74460e-01
7
# CELL(abcABC):  529.17722   529.17722   529.17722    90.00000    90.00000    90.00000  Step:       14600  Bead:       0 forces{eV/ang}  cell{angstrom}
       O -3.45408e-01  1.33639e-01  2.53243e-01
       H -3.32397e-01 -7.09168e-02  1.39324e-01
       H  1.33851e-01 -1.38747e-01 -2.40405e-01
       O  6.18233e-01 -1.55015e+00  4.10414e-01
       H  1.90611e-01 -4.06963e-01  5.27171e-02
       H  2.88535e-01  1.71865e+00 -8.18695e-01
       H -5.53425e-01  3.14479e-01  2.03402e-01
7
# CELL(abcABC):  529.17722   529.17722   529.17722    90.00000    90.00000    90.00000  Step:       14620  Bead:       0 forces{eV/ang}  cell{angstrom}
       O  1.59335e-01  6.94584e-01  2.23514e-01
       H -3.69354e-02 -1.93815e-01  1.32152e-03
       H -5.91093e-02 -6.40605e-01 -2.30376e-01
       O  1.35216e+00 -3.17887e+00  3.84414e-01
       H  6.63982e-02  6.03979e-01  3.40395e-02
       H  4.98407e-02  1.50231e+00 -8.26183e-01
       H -1.53169e+00  1.21242e+00  4.13271e-01
7
# CELL(abcABC):  529.17722   529.17722   529.17722    90.00000    90.00000    90.00000  Step:       14640  Bead:       0 forces{eV/ang}  cell{angstrom}
       O  2.50775e-01  4.09448e-01  1.09288e+00
       H  4.87116e-01  5.03067e-01 -5.64531e-01
       H  1.94919e-01 -3.33451e-01 -7.01355e-01
       O  3.60575e-01 -9.64314e-01  1.67123e-01
       H -4.00627e-01 -5.37419e-01  1.71714e-01
       H  7.92078e-02  4.94675e-01 -2.65983e-01
       H -9.71966e-01  4.27994e-01  1.00149e-01
7
# CELL(abcABC):  529.17722   529.17722   529.17722    90.00000    90.00000    90.00000  Step:       14660  Bead:       0 forces{eV/ang}  cell{angstrom}
       O  7.28409e-01  9.23362e-01 -2.46349e-01
       H -3.03339e-01 -5.08377e-01  8.84157e-02
       H -3.35265e-01 -3.97363e-01  3.82437e-01
       O -3.43836e-01  8.46417e-01 -5.72772e-01
       H  1.36422e-01  2.21617e-01 -4.85408e-01
       H -2.39168e-01 -9.40253e-01  7.31123e-01
       H  3.56776e-01 -1.45403e-01  1.02554e-01
7
# CELL(abcABC):  529.17722   529.17722   529.17722    90.00000    90.00000    90.00000  Step:       14680  Bead:       0 forces{eV/ang}  cell{angstrom}
       O -1.31035e+00 -1.52174e+00 -1.25163e+00
       H  5.01917e-01  4.26442e-01  5.17042e-01
       H  2.76612e-01  8.15766e-01  2.28139e-01
       O -5.53105e-01  2.02504e+00 -1.47550e+00
       H  1.57489e-01 -4.56530e-02  7.04651e-01
       H -8.69674e-02 -1.22012e+00  1.08764e+00
       H  1.01441e+00 -4.79733e-01  1.89649e-01
7
# CELL(abcABC):  529.17722   529.17722   529.17722    90.00000    90.00000    90.00000  Step:       14700  Bead:       0 forces{eV/ang}  cell{angstrom}
       O  1.48437e-01 -2.81965e-01 -5.58322e-02
       H -4.85496e-01 -3.18091e-01 -2.57682e-01
       H  2.46013e-01  6.91973e-01  8.62511e-01
       O -3.83476e-01  9.80966e-01 -2.86759e-01
       H -3.44527e-01 -4.62255e-01 -6.84939e-01
       H  5.67011e-02 -3.29863e-01  3.11433e-01
       H  7.62348e-01 -2.80764e-01  1.11268e-01
7
# CELL(abcABC):  529.17722   529.17722   529.17722    90.00000    90.00000    90.00000  Step:       14720  Bead:       0 forces{eV/ang}  cell{angstrom}
       O -1.52766e+00 -1.73171e+00 -2.67540e-01
       H  5.84391e-01  5.43434e-01 -3.76283e-01
       H  2.41708e-01  6.88935e-01  2.17699e-01
       O  6.14496e-01  2.18164e-01 -3.66508e-01
       H  2.46644e-02  2.31656e-01  7.71370e-01
       H  7.30148e-02  1.56816e-01 -9.30311e-02
       H -1.06145e-02 -1.07299e-01  1.14293e-01
7
# CELL(abcABC):  529.17722   529.17722   529.17722    90.00000    90.00000    90.00000  Step:       14740  Bead:       0 forces{eV/ang}  cell{angstrom}
       O -3.14272e-01  3.14871e-02  1.70282e+00
       H  1.13714e-01  1.38976e-01 -1.48182e+00
       H  3.95661e-02 -2.46993e-01  2.21195e-01
       O  5.12962e-01 -9.83628e-01  7.17563e-01
       H  7.05672e-02  6.36388e-02 -5.17277e-01
       H  2.51060e-01  4.38920e-01 -5.41596e-01
       H -6.73597e-01  5.57600e-01 -1.00887e-01
7
# CELL(abcABC):  529.17722   529.17722   529.17722    90.00000    90.00000    90.00000  Step:       14760  Bead:       0 forces{eV/ang}  cell{angstrom}
       O -4.13984e-01 -7.15693e-01  1.50939e+00
       H  4.83396e-01  7.62127e-01 -1.10335e+00
       H  2.06911e-02 -9.84034e-03 -5.21593e-01
       O  8.99719e-01 -1.20255e+00  3.59929e-01
       H  1.53102e-01  6.10956e-04  2.13195e-01
       H  1.39895e-01  3.31544e-01 -3.45686e-01
       H -1.28282e+00  8.33802e-01 -1.11888e-01
7
# CELL(abcABC):  529.17722   529.17722   529.17722    90.00000    90.00000    90.00000  Step:       14780  Bead:       0 forces{eV/ang}  cell{angstrom}
       O  1.05451e+00  3.16181e-01  2.92423e-01
       H -6.32872e-02  1.15984e-02 -4.09561e-01
       H -3.28837e-01 -2.11890e-01  6.42939e-03
       O -3.01318e-01 -9.77809e-02 -7.03181e-02
       H -4.72159e-01  1.72115e-01 -2.49591e-03
       H -2.88585e-02 -2.44518e-01  1.80420e-01
       H  1.39949e-01  5.42941e-02  3.10251e-03
7
# CELL(abcABC):  529.17722   529.17722   529.17722    90.00000    90.00000    90.00000  Step:       14800  Bead:       0 forces{eV/ang}  cell{angstrom}
       O  7.15971e-01  5.91215e-01  2.89010e-01
       H -7.32803e-02 -1.21261e-01  7.76294e-01
       H -6.53591e-01 -2.43947e-01 -8.20312e-01
       O -1.22160e+00  2.14620e+00 -1.07975e+00
       H  5.15279e-01 -5.73000e-01 -3.42814e-01
       H -1.25840e-01 -8.34613e-01  9.60007e-01
       H  8.43066e-01 -9.64593e-01  2.17568e-01
7
# CELL(abcABC):  529.17722   529.17722   529.17722    90.00000    90.00000    90.00000  Step:       14820  Bead:       0 forces{eV/ang}  cell{angstrom}
       O  1.70507e+00  8.29630e-01 -3.77314e-01
       H -4.16765e-01 -3.94017e-01  1.16359e+00
       H -1.20281e+00 -5.26450e-01 -8.80473e-01
       O -6.82965e-01  1.68970e+00 -9.07288e-01
       H -3.91037e-01  3.36182e-01  5.33907e-02
       H -4.19622e-01 -7.71879e-01  8.44075e-01
       H  1.40812e+00 -1.16317e+00  1.04021e-01
7
# CELL(abcABC):  529.17722   529.17722   529.17722    90.00000    90.00000    90.00000  Step:       14840  Bead:       0 forces{eV/ang}  cell{angstrom}
       O  7.42757e-01  4.33774e-01 -5.04138e-01
       H -3.13133e-01 -2.98288e-01  1.38891e+00
       H -5.45465e-01 -9.89793e-02 -9.34518e-01
       O -1.05881e+00  1.38285e+00  1.45645e-01
       H  2.72506e-01 -3.21259e-01  1.98049e-01
       H  2.80200e-01 -3.47237e-01  1.39211e-01
       H  6.21943e-01 -7.50857e-01 -4.33158e-01
7
# CELL(abcABC):  529.17722   529.17722   529.17722    90.00000    90.00000    90.00000  Step:       14860  Bead:       0 forces{eV/ang}  cell{angstrom}
       O  7.11962e-01  2.98438e-01 -4.69495e-01
       H -6.37792e-01 -3.10363e-01  5.22047e-01
       H  1.40102e-01  3.60954e-02  1.71539e-01
       O  4.21575e-01 -5.70543e-01  6.03780e-01
       H -1.45555e-01  2.81069e-01 -5.04948e-01
       H -4.49456e-01  3.81515e-01 -4.10586e-01
       H -4.08340e-02 -1.16212e-01  8.76643e-02
7
# CELL(abcABC):  529.17722   529.17722   529.17722    90.00000    90.00000    90.00000  Step:       14880  Bead:       0 forces{eV/ang}  cell{angstrom}
       O -1.33442e-01 -3.38208e-02 -8.96770e-01
       H  9.92057e-02  2.33948e-02 -3.19393e-02
       H  1.55543e-01  5.09466e-02  3.70598e-01
       O  5.45711e-01 -2.35039e+00  3.84230e-01
       H  2.16000e-01 -4.08311e-03  9.44387e-01
       H  1.35405e-01  1.28261e+00 -1.17042e+00
       H -1.01842e+00  1.03135e+00  3.99918e-01
7
# CELL(abcABC):  529.17722   529.17722   529.17722    90.00000    90.00000    90.00000  Step:       14900  Bead:       0 forces{eV/ang}  cell{angstrom}
       O -3.06489e-01  4.23680e-01  1.44905e+00
       H  4.16106e-01 -2.33770e-01 -8.97960e-01
       H  5.68256e-01  1.60933e-01 -7.17944e-02
       O  8.86420e-01 -2.04661e+00  5.96643e-01
       H -4.32754e-01 -1.52300e-01 -9.03298e-01
       H -1.48133e-01  9.89267e-01 -6.60847e-01
       H -9.83405e-01  8.58797e-01  4.88203e-01
7
# CELL(abcABC):  529.17722   529.17722   529.17722    90.00000    90.00000    90.00000  Step:       14920  Bead:       0 forces{eV/ang}  cell{angstrom}
       O -2.36682e-02  7.87121e-01  1.16255e+00
       H  7.69349e-01 -5.49253e-01 -1.74135e+00
       H -4.45653e-01 -1.65057e-01  3.07555e-02
       O -1.45128e-01 -9.12379e-01 -2.87509e-01
       H  3.72460e-01 -2.01348e-01  6.03937e-01
       H  3.39782e-01  1.24879e-01 -1.15799e-01
       H -8.67141e-01  9.16036e-01  3.47416e-01
7
# CELL(abcABC):  529.17722   529.17722   529.17722    90.00000    90.00000    90.00000  Step:       14940  Bead:       0 forces{eV/ang}  cell{angstrom}
       O -7.24643e-01  1.14425e-01  6.08616e-01
       H  2.28643e-01 -4.16821e-01 -9.78219e-01
       H  3.46519e-01  3.54864e-02  5.21486e-01
       O  4.55348e-01  1.17016e+00 -1.90699e-01
       H -3.35936e-01  4.10525e-01 -3.76233e-01
       H -3.76060e-01 -6.81869e-01  5.22817e-01
       H  4.06129e-01 -6.31906e-01 -1.07768e-01
7
# CELL(abcABC):  529.17722   529.17722   529.17722    90.00000    90.00000    90.00000  Step:       14960  Bead:       0 forces{eV/ang}  cell{angstrom}
       O -1.03578e+00 -3.08570e-01 -9.13825e-01
       H -8.29772e-02  2.17468e-01  3.22799e-01
       H  7.21734e-01  2.21451e-02  7.08309e-01
       O -6.43177e-01  1.94659e+00 -1.85376e-01
       H  3.15475e-01 -2.31600e-01 -1.00622e-01
       H  1.66667e-02 -7.58473e-01  4.45364e-01
       H  7.08056e-01 -8.87559e-01 -2.76649e-01
7
# CELL(abcABC):  529.17722   529.17722   529.17722    90.00000    90.00000    90.00000  Step:       14980  Bead:       0 forces{eV/ang}  cell{angstrom}
       O  2.57912e-02 -5.34323e-01 -1.16753e+00
       H -5.61674e-01  4.88381e-01  9.36348e-01
       H  2.11049e-01 -1.55847e-03  3.40043e-01
       O  1.35694e-02  8.27366e-01 -1.37200e-01
       H -4.29163e-02  1.01368e-01  9.39493e-03
       H -2.63260e-01  8.07626e-02  2.01050e-01
       H  6.17441e-01 -9.61996e-01 -1.82106e-01
7
# CELL(abcABC):  529.17722   529.17722   529.17722    90.00000    90.00000    90.00000  Step:       15000  Bead:       0 forces{eV/ang}  cell{angstrom}
       O  5.26821e-01 -1.11208e-01 -6.66766e-02
       H -2.87502e-01  2.35088e-01  5.36391e-01
       H  1.22379e-01  9.70622e-03 -4.57986e-01
       O -1.01960e+00 -6.28133e-01  9.11667e-01
       H -2.97641e-01 -1.03167e-02  1.48569e-01
       H  3.28687e-01  6.18754e-01 -5.15884e-01
       H  6.26855e-01 -1.13891e-01 -5.56081e-01
7
# CELL(abcABC):  529.17722   529.17722   529.17722    90.00000    90.00000    90.00000  Step:       15020  Bead:       0 forces{eV/ang}  cell{angstrom}
       O  4.45154e-01 -3.14277e-01  1.33594e+00
       H  1.08640e-02  2.01904e-01  3.03620e-02
       H -6.55084e-01  2.56507e-01 -1.46187e+00
       O -1.02034e-01 -8.46580e-01 -2.32343e-01
       H  4.45975e-01 -3.39911e-01  2.92315e-01
       H -3.84573e-02  1.42190e+00 -3.58448e-02
       H -1.06417e-01 -3.79538e-01  7.14505e-02
7
# CELL(abcABC):  529.17722   529.17722   529.17722    90.00000    90.00000    90.00000  Step:       15040  Bead:       0 forces{eV/ang}  cell{angstrom}
       O  2.52345e-01  3.41787e-02  1.65838e+00
       H  7.47933e-02 -1.60359e-01 -3.09787e-01
       H -4.37493e-01  9.31276e-02 -9.13602e-01
       O -7.25031e-02 -1.49319e+00 -6.73556e-02
       H -1.16588e-02  7.51549e-02 -4.37712e-01
       H  3.35174e-01  9.19646e-01 -2.25671e-01
       H -1.40658e-01  5.31438e-01  2.95746e-01
7
# CELL(abcABC):  529.17722   529.17722   529.17722    90.00000    90.00000    90.00000  Step:       15060  Bead:       0 forces{eV/ang}  cell{angstrom}
       O  4.67167e-01  1.00589e-01 -3.28279e-01
       H -8.34965e-02  3.92744e-02  7.64405e-02
       H -3.43484e-01 -8.64972e-02  1.72933e-01
       O  8.00020e-01 -1.60433e+00 -7.99803e-01
       H -4.22083e-01 -2.47544e-01  5.61339e-02
       H  4.25943e-01  6.10764e-01 -9.88897e-02
       H -8.44068e-01  1.18774e+00  9.21465e-01
7
# CELL(abcABC):  529.17722   529.17722   529.17722    90.00000    90.00000    90.00000  Step:       15080  Bead:       0 forces{eV/ang}  cell{angstrom}
       O -2.82228e-01 -5.01318e-01 -9.44165e-02
       H  4.62752e-02  7.76310e-02  3.50893e-02
       H  5.25535e-02  1.74892e-01  1.81476e-01
       O  5.38762e-02 -9.14015e-01 -5.07089e-01
       H  9.52673e-01  5.23914e-01 -4.28299e-01
       H -2.36049e-01 -6.42285e-01  8.50402e-02
       H -5.87100e-01  1.28118e+00  7.28199e-01
7
# CELL(abcABC):  529.17722   529.17722   529.17722    90.00000    90.00000    90.00000  Step:       15100  Bead:       0 forces{eV/ang}  cell{angstrom}
       O -3.04052e-01 -4.93257e-01 -2.91378e-01
       H -2.42907e-01  3.77984e-01  5.84400e-01
       H -9.99913e-02  3.72752e-02  2.01355e-02
       O  1.75607e+00  1.48891e+00 -9.50399e-01
       H  1.69050e-03 -2.33801e-01  6.83472e-03
       H -7.00974e-01 -9.54387e-01  3.90614e-01
       H -4.09834e-01 -2.22723e-01  2.39794e-01
7
# CELL(abcABC):  529.17722   529.17722   529.17722    90.00000    90.00000    90.00000  Step:       15120  Bead:       0 forces{eV/ang}  cell{angstrom}
       O  2.07319e-01 -2.10109e-01 -1.48249e+00
       H  1.12620e-01  3.30594e-01  8.05611e-01
       H -5.14154e-02 -1.92331e-01  6.19412e-02
       O -6.86340e-01  1.56939e+00  3.91766e-01
       H -2.53660e-01  2.78102e-02  8.63595e-01
       H -1.00297e-01 -1.31671e+00  1.10448e-02
       H  7.71773e-01 -2.08649e-01 -6.51468e-01
7
# CELL(abcABC):  529.17722   529.17722   529.17722    90.00000    90.00000    90.00000  Step:       15140  Bead:       0 forces{eV/ang}  cell{angstrom}
       O -8.12107e-02  3.96129e-01  3.07791e-01
       H -2.14012e-01 -6.55402e-02  2.43199e-01
       H  2.40734e-01 -2.08620e-01 -1.06044e-01
       O  4.25780e-01  1.76419e+00 -4.71828e-01
       H -9.70746e-02  3.85203e-02 -5.88472e-01
       H -5.66712e-01 -6.36014e-01  7.35758e-01
       H  2.92496e-01 -1.28867e+00 -1.20403e-01
7
# CELL(abcABC):  529.17722   529.17722   529.17722    90.00000    90.00000    90.00000  Step:       15160  Bead:       0 forces{eV/ang}  cell{angstrom}
       O  5.92436e-02  2.33105e-01  7.63931e-01
       H  5.86395e-02 -4.35839e-01 -8.84790e-01
       H  8.37257e-02  8.46804e-02  9.09241e-02
       O -1.12389e+00 -4.13170e-01  1.31069e+00
       H  6.72544e-02  5.58785e-01 -8.11046e-02
       H  1.80995e-01  4.31599e-01 -3.99847e-01
       H  6.74032e-01 -4.59161e-01 -7.99807e-01
7
# CELL(abcABC):  529.17722   529.17722   529.17722    90.00000    90.00000    90.00000  Step:       15180  Bead:       0 forces{eV/ang}  cell{angstrom}
       O -2.87629e-01  1.12806e+00  1.47988e+00
       H  1.76290e-01 -5.36737e-01 -1.71893e+00
       H  3.89378e-01 -1.10683e-01 -2.34419e-01
       O -1.02614e-01 -1.24884e+00  4.58650e-01
       H  7.33201e-02 -6.89504e-01  3.04174e-01
       H  7.77474e-02  1.09341e+00 -7.08941e-01
       H -3.26492e-01  3.64291e-01  4.19584e-01
7
# CELL(abcABC):  529.17722   529.17722   529.17722    90.00000    90.00000    90.00000  Step:       15200  Bead:       0 forces{eV/ang}  cell{angstrom}
       O -1.36865e-01  5.46875e-01  8.05474e-01
       H  9.85595e-02 -5.84554e-01 -8.82875e-01
       H -5.54452e-03 -1.34273e-01  2.10129e-01
       O  1.02858e+00 -2.57596e+00 -1.11401e+00
       H -1.81188e-01  6.62656e-01 -3.15099e-01
       H -5.92222e-01  1.54113e+00  1.81088e-02
       H -2.11324e-01  5.44131e-01  1.27828e+00
7
# CELL(abcABC):  529.17722   529.17722   529.17722    90.00000    90.00000    90.00000  Step:       15220  Bead:       0 forces{eV/ang}  cell{angstrom}
       O  1.88744e-01  7.99560e-01  3.93220e-02
       H -1.70962e-01  7.26853e-02  1.93343e-02
       H -2.23246e-01 -7.25795e-01  3.34168e-02
       O  1.52161e-01 -1.88918e+00 -2.97226e-01
       H -3.04391e-02 -3.49161e-01  3.21221e-01
       H  9.82615e-02  1.57010e+00 -4.76984e-01
       H -1.45197e-02  5.21791e-01  3.60916e-01
7
# CELL(abcABC):  529.17722   529.17722   529.17722    90.00000    90.00000    90.00000  Step:       15240  Bead:       0 forces{eV/ang}  cell{angstrom}
       O  1.21093e-01 -1.21485e+00 -7.49966e-01
       H -1.11691e-01  1.25877e+00  8.15663e-01
       H -4.96932e-01 -5.38027e-01  2.16820e-01
       O  4.06895e-01 -2.41042e-01 -6.58134e-01
       H -3.90071e-02  2.27151e-01  2.64121e-01
       H  8.41625e-03  7.21265e-01  2.29969e-01
       H  1.11225e-01 -2.13268e-01 -1.18472e-01
7
# CELL(abcABC):  529.17722   529.17722   529.17722    90.00000    90.00000    90.00000  Step:       15260  Bead:       0 forces{eV/ang}  cell{angstrom}
       O  3.35155e-01 -1.47674e+00 -8.82138e-01
       H -2.60501e-01  1.32653e+00  1.04830e+00
       H -1.82686e-01 -3.40373e-02  1.64104e-01
       O -2.28668e-01  2.10631e+00  1.35239e+00
       H  3.08069e-01 -2.11020e-02 -6.86636e-01
       H -3.57539e-01 -1.66946e+00 -3.24155e-01
       H  3.86169e-01 -2.31497e-01 -6.71873e-01
7
# CELL(abcABC):  529.17722   529.17722   529.17722    90.00000    90.00000    90.00000  Step:       15280  Bead:       0 forces{eV/ang}  cell{angstrom}
       O  6.31660e-01  2.85052e-02 -1.14674e+00
       H -1.41578e-01  5.81229e-01  4.52701e-01
       H  1.52472e-01 -2.12378e-01  6.30134e-02
       O  9.84524e-01  2.23926e+00  8.24336e-01
       H -2.74614e-01 -2.21663e-01  5.23464e-01
       H -1.36798e+00 -1.77624e+00 -3.30603e-03
       H  1.55139e-02 -6.38717e-01 -7.13463e-01
7
# CELL(abcABC):  529.17722   529.17722   529.17722    90.00000    90.00000    90.00000  Step:       15300  Bead:       0 forces{eV/ang}  cell{angstrom}
       O -6.94122e-02 -5.89392e-02  4.56538e-01
       H  1.66947e-01 -1.66547e-01 -2.18641e-01
       H  2.18947e-02  1.18706e-01 -1.84164e-01
       O -1.09576e+00 -3.87483e-01  9.91186e-01
       H  1.20106e-01  3.73233e-01 -2.51886e-01
       H  2.10391e-01 -1.30605e-01 -4.19654e-01
       H  6.45833e-01  2.51637e-01 -3.73379e-01
7
# CELL(abcABC):  529.17722   529.17722   529.17722    90.00000    90.00000    90.00000  Step:       15320  Bead:       0 forces{eV/ang}  cell{angstrom}
       O -1.28918e+00  1.41081e+00  1.12767e+00
       H  9.99887e-01 -1.54789e+00 -1.02354e+00
       H  8.86391e-02  1.37843e-01  1.99100e-01
       O  4.59785e-01 -3.29352e-01 -1.38171e+00
       H -3.12322e-01 -8.02736e-02 -1.12064e-01
       H  4.16779e-01  6.03548e-01  5.92886e-01
       H -3.63586e-01 -1.94679e-01  5.97653e-01
7
# CELL(abcABC):  529.17722   529.17722   529.17722    90.00000    90.00000    90.00000  Step:       15340  Bead:       0 forces{eV/ang}  cell{angstrom}
       O -2.17928e+00  1.73494e+00  1.98145e+00
       H  1.04069e+00 -1.66731e+00 -1.54461e+00
       H  4.46025e-01 -2.64385e-01 -1.57757e-01
       O -1.24115e+00 -1.18405e+00  5.58400e-02
       H  3.73905e-01  2.39237e-02  8.50874e-02
       H  1.05895e+00  8.49098e-01 -7.83375e-01
       H  5.00865e-01  5.07780e-01  3.63358e-01
7
# CELL(abcABC):  529.17722   529.17722   529.17722    90.00000    90.00000    90.00000  Step:       15360  Bead:       0 forces{eV/ang}  cell{angstrom}
       O -1.93812e-01  5.42266e-01  2.11619e-02
       H  2.71903e-01 -6.32915e-01 -1.26870e-01
       H -2.83866e-01 -1.00939e-01  4.42433e-01
       O -1.11311e-01 -2.80750e-01 -1.00035e+00
       H -3.17287e-01 -1.70976e-01  7.57783e-02
       H  1.07374e+00  1.02238e+00  2.25893e-01
       H -4.39372e-01 -3.79065e-01  3.61954e-01
7
# CELL(abcABC):  529.17722   529.17722   529.17722    90.00000    90.00000    90.00000  Step:       15380  Bead:       0 forces{eV/ang}  cell{angstrom}
       O -2.99715e-01 -9.32878e-01  5.76981e-01
       H -2.78764e-01  7.12292e-01  1.01704e-01
       H -1.16812e-02  8.27046e-02 -3.39461e-01
       O -8.06018e-01 -4.61003e-01  9.90451e-01
       H  6.33366e-01 -1.21941e-01 -7.43372e-02
       H  6.03532e-01  5.91767e-01 -6.52287e-01
       H  1.59281e-01  1.29058e-01 -6.03052e-01
7
# CELL(abcABC):  529.17722   529.17722   529.17722    90.00000    90.00000    90.00000  Step:       15400  Bead:       0 forces{eV/ang}  cell{angstrom}
       O  1.64075e+00 -1.85163e+00 -1.76668e+00
       H -7.43585e-01  1.38482e+00  1.31059e+00
       H -2.90057e-01  3.94981e-01  3.20356e-03
       O  1.44840e-01 -4.24013e-03  8.41963e-01
       H -2.83438e-01  3.72892e-01  3.91590e-02
       H  5.33425e-02  5.92632e-02  4.77327e-01
       H -5.21855e-01 -3.56085e-01 -9.05559e-01
7
# CELL(abcABC):  529.17722   529.17722   529.17722    90.00000    90.00000    90.00000  Step:       15420  Bead:       0 forces{eV/ang}  cell{angstrom}
       O  9.74384e-01 -6.36038e-01 -1.03537e+00
       H -8.36253e-01  1.28907e+00  1.16941e+00
       H  2.40103e-01  1.73574e-01 -7.65486e-01
       O  7.96586e-02 -5.11997e-01  1.67105e+00
       H  1.81596e-01 -6.77677e-01  8.05408e-02
       H -5.77756e-01 -3.07094e-01 -3.27179e-01
       H -6.17318e-02  6.70165e-01 -7.92965e-01
7
# CELL(abcABC):  529.17722   529.17722   529.17722    90.00000    90.00000    90.00000  Step:       15440  Bead:       0 forces{eV/ang}  cell{angstrom}
       O  5.40512e-01 -3.20049e-01 -1.43999e+00
       H -3.11960e-01  4.05387e-01  1.21031e+00
       H  1.35346e-02 -1.17130e-01  2.89676e-01
       O  1.14792e+00  5.20908e-02  1.30123e-01
       H -2.32506e-01  6.72498e-01 -4.85973e-01
       H -6.82243e-01 -6.17255e-01  3.61089e-01
       H -4.75253e-01 -7.55414e-02 -6.52369e-02
7
# CELL(abcABC):  529.17722   529.17722   529.17722    90.00000    90.00000    90.00000  Step:       15460  Bead:       0 forces{eV/ang}  cell{angstrom}
       O -4.16810e-01  1.59037e+00  6.57297e-01
       H -1.68362e-01 -2.81797e-02 -8.64815e-02
       H  2.64695e-01 -1.15134e+00 -6.28366e-02
       O -7.11650e-01 -2.30188e-01 -4.85436e-01
       H  2.40718e-01 -6.84365e-01 -6.78656e-03
       H  5.31093e-02  3.54420e-01 -3.41500e-01
       H  7.38299e-01  1.49277e-01  3.25743e-01
7
# CELL(abcABC):  529.17722   529.17722   529.17722    90.00000    90.00000    90.00000  Step:       15480  Bead:       0 forces{eV/ang}  cell{angstrom}
       O  1.44703e-01  9.83112e-01  8.16124e-02
       H  7.37567e-02 -6.69756e-01 -9.14650e-01
       H -2.97058e-01 -9.00448e-01  7.44282e-01
       O -3.58083e-01  7.18180e-01 -1.98510e+00
       H -1.01904e-01  5.94311e-01  5.39348e-01
       H -9.90162e-02 -2.06501e-01  2.52481e-01
       H  6.37601e-01 -5.18898e-01  1.28203e+00
7
# CELL(abcABC):  529.17722   529.17722   529.17722    90.00000    90.00000    90.00000  Step:       15500  Bead:       0 forces{eV/ang}  cell{angstrom}
       O  7.47764e-02  2.76330e+00  1.86435e+00
       H -6.94653e-01 -1.57325e+00 -1.67795e+00
       H  1.38607e-01 -9.16563e-01  3.15787e-01
       O  3.72220e-01  7.56290e-02  2.86513e-01
       H  8.56481e-02 -5.06399e-01 -5.43932e-01
       H -2.53448e-01  2.04271e-01 -4.66326e-01
       H  2.76850e-01 -4.69867e-02  2.21556e-01
7
# CELL(abcABC):  529.17722   529.17722   529.17722    90.00000    90.00000    90.00000  Step:       15520  Bead:       0 forces{eV/ang}  cell{angstrom}
       O -3.70166e-02  1.90380e+00  1.43506e-01
       H -2.63068e-01 -1.16032e+00 -1.33095e+00
       H  2.49639e-01 -7.90069e-01  5.12053e-01
       O  8.55920e-01 -2.21882e-01  1.17622e-02
       H  9.08405e-02  6.20365e-02  7.88780e-01
       H -3.54458e-01  5.73315e-02  2.14404e-01
       H -5.41857e-01  1.49100e-01 -3.39559e-01
7
# CELL(abcABC):  529.17722   529.17722   529.17722    90.00000    90.00000    90.00000  Step:       15540  Bead:       0 forces{eV/ang}  cell{angstrom}
       O  5.60651e-02 -3.76489e-01  5.59318e-01
       H -5.85282e-02  2.20222e-01  1.61226e-01
       H  1.27641e-01  2.85513e-01 -4.78909e-01
       O -3.83954e-01 -8.69730e-02  6.81805e-01
       H -2.54066e-01  2.11542e-01 -6.91774e-01
       H  5.79433e-01 -2.72686e-01 -2.99161e-01
       H -6.65907e-02  1.88712e-02  6.74937e-02
7
# CELL(abcABC):  529.17722   529.17722   529.17722    90.00000    90.00000    90.00000  Step:       15560  Bead:       0 forces{eV/ang}  cell{angstrom}
       O -2.14678e-01 -1.95204e+00 -5.04986e-01
       H -2.10664e-01 -1.13108e-01  5.21036e-01
       H  3.98383e-01  1.87449e+00 -8.31317e-02
       O -1.37991e+00  2.01187e+00 -7.69528e-01
       H  3.86756e-01 -2.78367e-02  4.41357e-01
       H  4.20188e-01 -1.53691e+00  8.34188e-02
       H  5.99922e-01 -2.56473e-01  3.11833e-01
7
# CELL(abcABC):  529.17722   529.17722   529.17722    90.00000    90.00000    90.00000  Step:       15580  Bead:       0 forces{eV/ang}  cell{angstrom}
       O -1.08288e+00 -2.58048e+00  5.93683e-01
       H  2.35112e-01  4.93740e-01 -3.78769e-02
       H  1.10363e+00  1.85865e+00 -6.51112e-01
       O -4.59304e-01  1.88453e+00 -5.99695e-01
       H -4.38612e-01  4.59335e-01 -3.84084e-01
       H  3.11366e-01 -1.84118e+00  3.10104e-02
       H  3.30690e-01 -2.74595e-01  1.04807e+00
7
# CELL(abcABC):  529.17722   529.17722   529.17722    90.00000    90.00000    90.00000  Step:       15600  Bead:       0 forces{eV/ang}  cell{angstrom}
       O  1.54425e-01  9.21874e-01  1.82567e-01
       H -1.04481e-01 -1.17050e+00 -9.98319e-01
       H  2.81582e-01  5.97759e-01  2.62207e-01
       O -1.49155e+00  2.30506e+00  1.57992e+00
       H  1.03327e-01 -3.58862e-01  2.04562e-01
       H  6.28528e-01 -1.84284e+00 -1.18413e+00
       H  4.28175e-01 -4.52489e-01 -4.68050e-02
7
# CELL(abcABC):  529.17722   529.17722   529.17722    90.00000    90.00000    90.00000  Step:       15620  Bead:       0 forces{eV/ang}  cell{angstrom}
       O  5.14313e-01  2.78760e+00  1.68187e+00
       H  5.88382e-01 -1.50656e+00 -1.94370e+00
       H -6.23574e-01 -9.59842e-01 -4.90006e-01
       O -1.37908e-01 -1.74074e-01  5.15105e-01
       H -5.51719e-01  1.29270e-01  5.52552e-01
       H  6.22966e-01 -6.87217e-01 -6.43483e-01
       H -4.12459e-01  4.10818e-01  3.27664e-01
7
# CELL(abcABC):  529.17722   529.17722   529.17722    90.00000    90.00000    90.00000  Step:       15640  Bead:       0 forces{eV/ang}  cell{angstrom}
       O  1.12217e+00  2.20414e+00  1.54800e+00
       H -8.09940e-02 -1.37521e+00 -1.01258e+00
       H -1.88878e+00 -6.88833e-01  1.12076e-01
       O  6.14365e-01 -1.53734e+00 -4.75033e-01
       H  7.26795e-01 -5.47238e-01 -1.39550e-02
       H -6.25866e-01  8.25805e-01  2.71222e-01
       H  1.32313e-01  1.11868e+00 -4.29726e-01
7
# CELL(abcABC):  529.17722   529.17722   529.17722    90.00000    90.00000    90.00000  Step:       15660  Bead:       0 forces{eV/ang}  cell{angstrom}
       O  9.13823e-01 -4.96617e-01  1.50563e+00
       H  4.17172e-01  5.49650e-01 -3.63852e-01
       H -1.61822e+00 -5.78384e-01 -6.50971e-01
       O  8.87131e-01 -1.67080e+00 -1.11945e+00
       H  1.06291e-01  5.20659e-01 -4.22118e-02
       H -7.56123e-01  4.39566e-01  2.15549e-01
       H  4.99282e-02  1.23592e+00  4.55301e-01
7
# CELL(abcABC):  529.17722   529.17722   529.17722    90.00000    90.00000    90.00000  Step:       15680  Bead:       0 forces{eV/ang}  cell{angstrom}
       O  8.16594e-01 -1.93111e+00  1.97202e-01
       H -3.11754e-01  1.39742e+00  1.00769e+00
       H -3.38249e-01  3.01074e-01 -3.67176e-01
       O -1.42220e-02 -5.60229e-01 -1.46712e+00
       H -8.49789e-02 -4.88995e-01 -3.84134e-01
       H -8.62300e-01  7.34732e-01  6.80871e-01
       H  7.94910e-01  5.47109e-01  3.32660e-01
7
# CELL(abcABC):  529.17722   529.17722   529.17722    90.00000    90.00000    90.00000  Step:       15700  Bead:       0 forces{eV/ang}  cell{angstrom}
       O  4.46732e-01 -3.03960e-01 -2.50583e+00
       H -6.00279e-02  2.81457e-01  2.19384e+00
       H -3.72836e-01 -3.30715e-01  2.12183e-01
       O  6.13672e-01 -6.62803e-01 -9.39636e-01
       H -2.08451e-01  7.74097e-01  6.23212e-01
       H -3.03784e-01  1.78687e-02  1.30025e-01
       H -1.15305e-01  2.24055e-01  2.86202e-01
7
# CELL(abcABC):  529.17722   529.17722   529.17722    90.00000    90.00000    90.00000  Step:       15720  Bead:       0 forces{eV/ang}  cell{angstrom}
       O -8.78458e-01  4.08867e-01 -2.83913e+00
       H  6.12626e-01 -6.02216e-01  1.74781e+00
       H  5.77742e-01  5.78614e-01  3.68001e-01
       O -1.59779e+00  1.10336e+00  2.03463e+00
       H  6.47383e-01 -1.68019e-02 -8.45234e-01
       H  3.64839e-01 -8.58026e-02 -2.21845e-01
       H  2.73656e-01 -1.38602e+00 -2.44234e-01
7
# CELL(abcABC):  529.17722   529.17722   529.17722    90.00000    90.00000    90.00000  Step:       15740  Bead:       0 forces{eV/ang}  cell{angstrom}
       O -1.50450e+00  7.81370e-01 -1.33617e+00
       H  1.06699e+00 -6.05809e-01  3.40127e-01
       H  6.05731e-01  4.50136e-01  1.71833e-01
       O -1.17114e+00  9.57775e-01  6.66285e-01
       H  2.61868e-01 -4.17090e-03  3.59323e-01
       H  2.66287e-01 -1.36281e-01 -5.68648e-01
       H  4.74759e-01 -1.44302e+00  3.67246e-01
7
# CELL(abcABC):  529.17722   529.17722   529.17722    90.00000    90.00000    90.00000  Step:       15760  Bead:       0 forces{eV/ang}  cell{angstrom}
       O  9.53075e-02 -2.58641e-01  1.53220e+00
       H -1.92755e-01  3.14532e-02 -1.90384e-01
       H  3.15524e-01  2.72016e-01 -6.20831e-01
       O  5.66517e-02  1.02131e+00  2.65168e-01
       H -7.57333e-01  2.96068e-01 -5.98513e-01
       H  1.91542e-01 -2.45938e-01 -7.81819e-01
       H  2.91062e-01 -1.11626e+00  3.94175e-01
7
# CELL(abcABC):  529.17722   529.17722   529.17722    90.00000    90.00000    90.00000  Step:       15780  Bead:       0 forces{eV/ang}  cell{angstrom}
       O -1.03625e-01 -1.34507e-01  5.31122e-01
       H -6.71862e-01  2.10760e-01 -9.74386e-01
       H -3.26766e-01 -5.19779e-01  6.16750e-01
       O  6.03023e-01  1.29531e+00 -4.33778e-01
       H  7.98164e-01 -5.74272e-01  7.46789e-01
       H -1.68579e-01 -3.24354e-01 -4.33651e-01
       H -1.30354e-01  4.68422e-02 -5.28469e-02
7
# CELL(abcABC):  529.17722   529.17722   529.17722    90.00000    90.00000    90.00000  Step:       15800  Bead:       0 forces{eV/ang}  cell{angstrom}
       O  4.94389e-01 -2.75372e-01  1.32677e+00
       H -2.07568e-01  2.41622e-01 -8.71941e-01
       H -3.56146e-01 -1.10829e-01 -1.97962e-01
       O  1.01785e+00 -1.48470e+00  7.66778e-01
       H  1.84416e-01  8.68353e-01 -9.83520e-01
       H -2.93747e-01 -1.79337e-01 -3.61919e-01
       H -8.39195e-01  9.40263e-01  3.21795e-01
7
# CELL(abcABC):  529.17722   529.17722   529.17722    90.00000    90.00000    90.00000  Step:       15820  Bead:       0 forces{eV/ang}  cell{angstrom}
       O  1.15788e+00  8.20437e-01 -4.68890e-01
       H -8.20814e-01 -3.15561e-01 -5.04137e-01
       H -4.28416e-01 -8.88601e-02  8.45451e-01
       O -8.92141e-02 -1.66920e+00 -1.21639e-01
       H  1.39704e-01 -6.25743e-01  8.13363e-02
       H  1.79251e-02  2.46178e-01  1.79995e-02
       H  2.29298e-02  1.63275e+00  1.49880e-01
7
# CELL(abcABC):  529.17722   529.17722   529.17722    90.00000    90.00000    90.00000  Step:       15840  Bead:       0 forces{eV/ang}  cell{angstrom}
       O -3.24095e-01 -6.57521e-01  7.60103e-01
       H  3.70772e-01  2.76429e-01 -6.30784e-01
       H  5.51537e-01  3.08000e-01 -5.23998e-01
       O -7.17494e-01 -2.02740e+00 -3.33611e-01
       H -4.17881e-01  5.77546e-01 -1.01881e-01
       H -8.63917e-02  2.22919e-01  4.85517e-01
       H  6.23552e-01  1.30003e+00  3.44653e-01
7
# CELL(abcABC):  529.17722   529.17722   529.17722    90.00000    90.00000    90.00000  Step:       15860  Bead:       0 forces{eV/ang}  cell{angstrom}
       O -8.63031e-01  2.73857e-02 -8.20293e-01
       H -5.38796e-01  1.27634e-01 -4.80873e-02
       H  9.86178e-01  2.23755e-01  8.05897e-01
       O -9.63705e-01  2.85859e-01 -6.68977e-01
       H  1.20475e+00 -5.96051e-01 -2.01756e-01
       H -1.40923e-01 -2.87326e-02  6.58508e-01
       H  3.15531e-01 -3.98495e-02  2.74708e-01
7
# CELL(abcABC):  529.17722   529.17722   529.17722    90.00000    90.00000    90.00000  Step:       15880  Bead:       0 forces{eV/ang}  cell{angstrom}
       O -5.29011e-01 -8.13816e-01 -2.66123e-01
       H  1.44904e-01  2.19976e-02  6.63938e-01
       H  1.15751e+00  7.60917e-01 -1.44744e-01
       O  1.94688e-01 -4.22634e-01 -1.12149e+00
       H -9.68849e-01  2.96684e-01  1.86212e-01
       H -5.43017e-02  4.79726e-01  5.36762e-01
       H  5.50586e-02 -3.22874e-01  1.45447e-01
7
# CELL(abcABC):  529.17722   529.17722   529.17722    90.00000    90.00000    90.00000  Step:       15900  Bead:       0 forces{eV/ang}  cell{angstrom}
       O -2.94876e-02  9.44345e-02 -1.57377e+00
       H -4.68142e-01 -3.67605e-01  1.11049e+00
       H  4.15010e-01  2.73037e-01  6.51391e-01
       O  6.21817e-01  7.03777e-01 -2.55244e-01
       H  1.98831e-01 -2.75731e-01 -3.15318e-01
       H -4.01688e-01 -2.06685e-01  3.74375e-01
       H -3.36340e-01 -2.21227e-01  8.06832e-03
7
# CELL(abcABC):  529.17722   529.17722   529.17722    90.00000    90.00000    90.00000  Step:       15920  Bead:       0 forces{eV/ang}  cell{angstrom}
       O -1.31786e+00 -1.82811e+00 -7.15024e-01
       H  4.60929e-01  8.30810e-01  6.04426e-01
       H  2.49065e-01  2.93457e-01 -9.40590e-02
       O  2.83181e-02  1.03267e+00 -8.85630e-02
       H  6.92536e-01  9.22405e-02  7.06930e-01
       H  7.18623e-02  8.45570e-02  5.73541e-02
       H -1.84855e-01 -5.05630e-01 -4.71063e-01
7
# CELL(abcABC):  529.17722   529.17722   529.17722    90.00000    90.00000    90.00000  Step:       15940  Bead:       0 forces{eV/ang}  cell{angstrom}
       O  4.91689e-01  1.05782e+00  6.77444e-01
       H -2.20467e-01 -7.18124e-01 -3.93868e-01
       H -2.91533e-02 -3.56491e-01  3.15334e-01
       O  5.23423e-01  1.58196e+00  1.46357e-01
       H -6.98206e-01 -5.99833e-01 -4.87595e-01
       H  6.14527e-03 -2.55145e-01 -1.01164e-01
       H -7.34322e-02 -7.10192e-01 -1.56508e-01
7
# CELL(abcABC):  529.17722   529.17722   529.17722    90.00000    90.00000    90.00000  Step:       15960  Bead:       0 forces{eV/ang}  cell{angstrom}
       O -9.95592e-02 -1.35152e-01  2.28891e+00
       H  9.22129e-02  2.38917e-01 -1.66154e+00
       H -1.22418e-02 -2.56918e-01 -5.16672e-01
       O -5.10882e-02 -9.89633e-01  1.80152e-01
       H -4.08277e-02  6.86844e-01 -7.29236e-03
       H  1.08912e-01  4.10498e-01 -3.05322e-01
       H  2.59235e-03  4.54435e-02  2.17643e-02
7
# CELL(abcABC):  529.17722   529.17722   529.17722    90.00000    90.00000    90.00000  Step:       15980  Bead:       0 forces{eV/ang}  cell{angstrom}
       O  1.77031e-01  1.24541e+00  1.35638e+00
       H -8.12317e-02 -4.92936e-01 -1.90956e+00
       H -1.87010e-01 -2.12791e-01  2.29834e-01
       O  3.32706e-01 -5.99101e-01  2.65782e-01
       H  5.64291e-01 -7.89767e-01  3.90596e-01
       H  1.74759e-01 -1.40351e-01 -3.79909e-01
       H -9.80546e-01  9.89539e-01  4.68727e-02
7
# CELL(abcABC):  529.17722   529.17722   529.17722    90.00000    90.00000    90.00000  Step:       16000  Bead:       0 forces{eV/ang}  cell{angstrom}
       O  4.24288e-01 -6.81523e-01  1.17980e+00
       H -1.44291e-01 -6.40163e-02 -1.04098e+00
       H -1.26674e-01  5.85173e-01  4.04224e-02
       O  2.12548e+00 -2.90662e-01  1.44973e+00
       H -9.49936e-01  2.62628e-01 -2.12810e-01
       H  2.48497e-01  1.90418e-01 -1.05869e+00
       H -1.57737e+00 -2.01887e-03 -3.57461e-01
7
# CELL(abcABC):  529.17722   529.17722   529.17722    90.00000    90.00000    90.00000  Step:       16020  Bead:       0 forces{eV/ang}  cell{angstrom}
       O -5.58049e-01 -1.15847e+00 -1.06666e+00
       H  4.40436e-01  1.38465e-01  4.46516e-01
       H -2.11749e-01  7.88528e-01  4.24428e-01
       O -4.50528e-01  3.95306e-01  1.44163e+00
       H  1.12694e+00  1.93677e-02 -2.82235e-02
       H  9.43058e-01 -9.49214e-01 -5.25861e-01
       H -1.29011e+00  7.66016e-01 -6.91832e-01
7
# CELL(abcABC):  529.17722   529.17722   529.17722    90.00000    90.00000    90.00000  Step:       16040  Bead:       0 forces{eV/ang}  cell{angstrom}
       O  7.06971e-01 -1.63311e+00 -1.35206e+00
       H  1.75847e-01  4.10476e-01  8.05265e-01
       H -5.72412e-01  9.43013e-01  3.33996e-01
       O  8.11288e-01 -1.75798e-01  1.20640e+00
       H -7.93773e-01  2.21424e-01  3.86908e-01
       H  5.44134e-01  2.85025e-03 -7.01473e-01
       H -8.72054e-01  2.31147e-01 -6.79037e-01
7
# CELL(abcABC):  529.17722   529.17722   529.17722    90.00000    90.00000    90.00000  Step:       16060  Bead:       0 forces{eV/ang}  cell{angstrom}
       O -2.00159e-02  5.58977e-01 -8.55862e-01
       H  2.08327e-01 -1.41381e-01  9.98438e-01
       H -8.24040e-03  3.70056e-01 -1.33566e-01
       O -7.05434e-01 -3.01030e-02  3.57871e-01
       H -3.76658e-01 -6.46718e-01 -1.82511e-01
       H  5.49942e-01  9.76902e-02 -4.13025e-01
       H  3.52079e-01 -2.08522e-01  2.28655e-01
7
# CELL(abcABC):  529.17722   529.17722   529.17722    90.00000    90.00000    90.00000  Step:       16080  Bead:       0 forces{eV/ang}  cell{angstrom}
       O -1.04235e+00  1.16999e-01 -1.04451e+00
       H  3.57658e-01  2.83451e-01  6.67307e-01
       H  5.18741e-01 -6.11819e-01 -2.09634e-01
       O -1.51572e+00  7.03043e-01 -8.98880e-01
       H  3.94426e-01  7.87676e-01  5.12538e-01
       H -3.68597e-01 -2.69205e-01  2.24846e-01
       H  1.65584e+00 -1.01014e+00  7.48337e-01
7
# CELL(abcABC):  529.17722   529.17722   529.17722    90.00000    90.00000    90.00000  Step:       16100  Bead:       0 forces{eV/ang}  cell{angstrom}
       O -6.61773e-01  2.67334e+00  9.01151e-01
       H -1.94574e-01 -1.49795e-01  3.25636e-01
       H  9.42292e-01 -1.59647e+00 -1.16262e+00
       O -3.66490e-01  1.99616e+00 -9.10059e-01
       H -3.35781e-01 -9.04601e-01 -2.17674e-01
       H -1.51232e+00 -7.39217e-01  4.43073e-01
       H  2.12865e+00 -1.27941e+00  6.20492e-01
7
# CELL(abcABC):  529.17722   529.17722   529.17722    90.00000    90.00000    90.00000  Step:       16120  Bead:       0 forces{eV/ang}  cell{angstrom}
       O -3.57197e-01  1.44787e+00 -2.56471e-01
       H -9.33241e-02  3.42219e-02  2.58670e-01
       H  3.09853e-01 -2.00057e+00 -1.77684e-01
       O  3.04213e-01  9.48759e-01 -2.64857e-01
       H  5.49437e-01  4.09526e-01  5.05387e-01
       H -1.22127e+00 -8.91842e-01  6.28337e-02
       H  5.08292e-01  5.20296e-02 -1.27878e-01
7
# CELL(abcABC):  529.17722   529.17722   529.17722    90.00000    90.00000    90.00000  Step:       16140  Bead:       0 forces{eV/ang}  cell{angstrom}
       O -7.32054e-02  1.08017e+00  1.28818e-01
       H -1.08307e-01  9.78618e-02  3.10751e-01
       H  1.13577e-01 -1.34680e+00 -2.93246e-01
       O  2.14697e+00  9.67991e-01 -2.15786e-01
       H -3.39618e-01  1.74495e-01 -1.53330e-01
       H -8.16444e-01 -8.48164e-01 -3.04393e-01
       H -9.22968e-01 -1.25555e-01  5.27185e-01
7
# CELL(abcABC):  529.17722   529.17722   529.17722    90.00000    90.00000    90.00000  Step:       16160  Bead:       0 forces{eV/ang}  cell{angstrom}
       O -1.87199e-01 -2.19394e-01  1.94224e-01
       H -7.74314e-02  5.97854e-02  3.85122e-01
       H  2.56728e-02  2.19613e-01 -8.97031e-02
       O  2.14277e+00  3.08601e-01 -1.04745e+00
       H  3.81163e-01 -6.86563e-01 -2.64282e-01
       H -2.73963e-01 -2.78430e-01  2.10409e-02
       H -2.01102e+00  5.96388e-01  8.01048e-01
7
# CELL(abcABC):  529.17722   529.17722   529.17722    90.00000    90.00000    90.00000  Step:       16180  Bead:       0 forces{eV/ang}  cell{angstrom}
       O  1.54793e-02 -7.42105e-01 -1.05164e+00
       H -1.03554e-01 -1.58873e-01  1.57129e-01
       H  1.01145e-01  8.74790e-01  6.80852e-01
       O  2.17756e+00 -2.60536e+00  2.82680e-01
       H -1.46547e-01  7.69097e-01 -2.90708e-01
       H  3.68996e-01  5.95311e-01  1.57894e-01
       H -2.41308e+00  1.26714e+00  6.37914e-02
7
# CELL(abcABC):  529.17722   529.17722   529.17722    90.00000    90.00000    90.00000  Step:       16200  Bead:       0 forces{eV/ang}  cell{angstrom}
       O -5.61553e-01 -1.47375e+00  1.80603e-01
       H  2.31775e-01  8.58270e-02 -4.30860e-01
       H  5.03998e-01  1.65303e+00  4.56602e-01
       O  1.28461e+00 -1.36009e+00  5.52899e-01
       H -3.73774e-01 -5.71087e-01 -1.50388e-01
       H  1.40522e+00  8.96769e-01  2.82955e-01
       H -2.49027e+00  7.69296e-01 -8.91811e-01
7
# CELL(abcABC):  529.17722   529.17722   529.17722    90.00000    90.00000    90.00000  Step:       16220  Bead:       0 forces{eV/ang}  cell{angstrom}
       O -7.44729e-01 -9.68677e-01  7.25453e-01
       H  2.84485e-01  1.53611e-01 -1.53856e+00
       H  3.83776e-01  5.24534e-01  4.09534e-01
       O -1.06506e+00 -2.07048e+00  6.10235e-01
       H  3.55578e-01  4.15460e-01  6.49034e-01
       H  1.30412e+00  1.30354e+00 -1.34604e-01
       H -5.18169e-01  6.42017e-01 -7.21090e-01
7
# CELL(abcABC):  529.17722   529.17722   529.17722    90.00000    90.00000    90.00000  Step:       16240  Bead:       0 forces{eV/ang}  cell{angstrom}
       O  2.30503e-01  1.68180e-01  2.32881e+00
       H  3.19788e-01 -2.00811e-01 -1.43280e+00
       H -2.61125e-01  3.51779e-01 -3.30556e-01
       O -1.45614e+00 -2.76804e-01 -5.81824e-01
       H -4.30243e-01 -3.97167e-01 -7.14186e-01
       H  7.27588e-01  5.54411e-01 -2.00885e-01
       H  8.69626e-01 -1.99589e-01  9.31439e-01
7
# CELL(abcABC):  529.17722   529.17722   529.17722    90.00000    90.00000    90.00000  Step:       16260  Bead:       0 forces{eV/ang}  cell{angstrom}
       O  2.64198e-01  6.01077e-01  1.19561e+00
       H  1.20858e-01  1.51059e-01 -1.52558e+00
       H -5.79908e-01 -7.92375e-01 -2.61354e-01
       O -1.65839e+00 -5.47344e-02 -1.44728e+00
       H  5.54636e-01  2.95502e-01  6.22111e-01
       H -3.33284e-01 -3.66910e-01  1.23436e-01
       H  1.63189e+00  1.66382e-01  1.29305e+00
7
# CELL(abcABC):  529.17722   529.17722   529.17722    90.00000    90.00000    90.00000  Step:       16280  Bead:       0 forces{eV/ang}  cell{angstrom}
       O  7.18396e-01  8.47813e-01  1.53400e+00
       H -3.69141e-02 -3.84787e-01 -1.20988e+00
       H -4.92418e-01 -3.59588e-01 -5.64971e-03
       O -1.62768e-01  1.18079e+00 -1.79059e+00
       H -4.64470e-01 -4.19798e-01 -8.96075e-01
       H -1.50053e+00 -6.76014e-01  9.39677e-01
       H  1.93870e+00 -1.88416e-01  1.42852e+00
7
# CELL(abcABC):  529.17722   529.17722   529.17722    90.00000    90.00000    90.00000  Step:       16300  Bead:       0 forces{eV/ang}  cell{angstrom}
       O -3.45726e-01 -1.08087e+00  1.50856e-01
       H  1.45872e-02  5.64816e-01 -3.67989e-01
       H  1.22992e-01 -9.93719e-02 -1.25657e-01
       O -9.87640e-01  2.27984e-01 -1.62237e+00
       H  7.90884e-01  7.16866e-01  5.06154e-01
       H -1.01120e+00 -5.81972e-01  7.66879e-01
       H  1.41610e+00  2.52546e-01  6.92127e-01
7
# CELL(abcABC):  529.17722   529.17722   529.17722    90.00000    90.00000    90.00000  Step:       16320  Bead:       0 forces{eV/ang}  cell{angstrom}
       O  4.31443e-01  5.16996e-01 -1.10047e-01
       H  1.30021e-01 -4.46796e-01  5.85388e-01
       H -1.29671e-01 -2.39408e-01  1.34006e-01
       O  3.86123e-01  8.20885e-01 -7.82286e-01
       H -8.80153e-01 -4.94410e-01 -4.45343e-01
       H -6.62463e-01  1.52758e-02  2.91263e-01
       H  7.24700e-01 -1.72543e-01  3.27018e-01
7
# CELL(abcABC):  529.17722   529.17722   529.17722    90.00000    90.00000    90.00000  Step:       16340  Bead:       0 forces{eV/ang}  cell{angstrom}
       O -4.92624e-01 -8.04135e-01 -7.06173e-01
       H  2.80470e-01  1.79706e-01  9.56207e-01
       H  9.43250e-02  2.27592e-01 -6.55634e-02
       O -1.34250e+00 -5.68934e-02 -2.27570e-01
       H  8.17560e-01  4.05081e-01 -1.13817e-01
       H  4.98670e-01 -1.42844e-01  6.30347e-02
       H  1.44097e-01  1.91495e-01  9.38827e-02
7
# CELL(abcABC):  529.17722   529.17722   529.17722    90.00000    90.00000    90.00000  Step:       16360  Bead:       0 forces{eV/ang}  cell{angstrom}
       O -3.39782e-01  4.62846e-01 -1.17399e+00
       H  2.90061e-01 -1.69357e-01  1.15631e+00
       H  2.63193e-03  3.02161e-01 -1.29823e-01
       O  1.14490e+00 -1.14019e+00  1.08916e+00
       H -3.51617e-01 -2.41374e-01  8.70887e-02
       H  2.92689e-01  5.65369e-01 -4.83334e-01
       H -1.03888e+00  2.20550e-01 -5.45415e-01
7
# CELL(abcABC):  529.17722   529.17722   529.17722    90.00000    90.00000    90.00000  Step:       16380  Bead:       0 forces{eV/ang}  cell{angstrom}
       O  2.48817e-02  1.36464e+00 -8.49599e-01
       H -9.25943e-02 -6.01339e-01  7.70199e-01
       H -1.71572e-01 -2.56083e-01  4.68743e-02
       O  4.83422e-01 -1.30238e+00  1.30945e+00
       H  2.72366e-01  1.25015e-01 -2.62776e-01
       H  1.47960e+00  5.52077e-01 -4.22892e-01
       H -1.99610e+00  1.18067e-01 -5.91251e-01
7
# CELL(abcABC):  529.17722   529.17722   529.17722    90.00000    90.00000    90.00000  Step:       16400  Bead:       0 forces{eV/ang}  cell{angstrom}
       O -1.81857e-01 -6.23449e-01  7.63792e-02
       H  1.17979e-04  7.53772e-01 -1.80396e-01
       H  2.58613e-01  1.50506e-01 -4.54815e-01
       O  6.37776e-01 -9.69293e-01  2.03248e+00
       H -1.00159e-01 -2.44981e-01  6.88896e-01
       H  7.47070e-01  7.60742e-01 -1.01013e+00
       H -1.36156e+00  1.72703e-01 -1.15241e+00
7
# CELL(abcABC):  529.17722   529.17722   529.17722    90.00000    90.00000    90.00000  Step:       16420  Bead:       0 forces{eV/ang}  cell{angstrom}
       O -8.37184e-01  1.67145e-01  1.60948e+00
       H  1.10545e+00 -1.05633e-01 -1.14707e+00
       H -3.56029e-01 -3.18898e-01  1.05089e-01
       O -5.97231e-01  1.63416e-01  3.90920e-01
       H  4.81352e-01 -2.50812e-01 -4.78881e-01
       H  7.95438e-01  4.87942e-01 -3.73758e-01
       H -5.91798e-01 -1.43160e-01 -1.05785e-01
7
# CELL(abcABC):  529.17722   529.17722   529.17722    90.00000    90.00000    90.00000  Step:       16440  Bead:       0 forces{eV/ang}  cell{angstrom}
       O -9.51216e-01 -1.37389e+00  1.21738e+00
       H  1.01384e+00  1.07624e+00 -1.23040e+00
       H  2.39092e-01  1.15670e-01 -9.54639e-02
       O -7.47858e-01 -8.25308e-01  3.57344e-02
       H -5.15694e-01  3.76758e-01  1.13510e-01
       H  1.95597e-01  4.91924e-01 -4.28315e-01
       H  7.66242e-01  1.38613e-01  3.87554e-01
7
# CELL(abcABC):  529.17722   529.17722   529.17722    90.00000    90.00000    90.00000  Step:       16460  Bead:       0 forces{eV/ang}  cell{angstrom}
       O -7.85175e-01  7.54732e-01 -3.70213e-01
       H  8.38476e-01 -1.01121e-01 -4.05377e-01
       H -4.61244e-01 -1.20537e-01  4.25272e-01
       O -1.35940e+00 -2.83218e-02 -1.12042e+00
       H  4.86536e-01 -3.31967e-01  1.54705e-01
       H  3.69926e-03 -2.48707e-01  3.18453e-01
       H  1.27711e+00  7.59221e-02  9.97579e-01
7
# CELL(abcABC):  529.17722   529.17722   529.17722    90.00000    90.00000    90.00000  Step:       16480  Bead:       0 forces{eV/ang}  cell{angstrom}
       O  1.70320e-01 -6.27026e-02  1.66377e-01
       H -4.66629e-01  8.30327e-02  1.72600e-02
       H -6.03032e-03  5.38259e-01 -4.42516e-01
       O  1.28294e+00 -2.15685e-01 -4.39809e-02
       H -4.51097e-01  2.13508e-01 -4.34154e-01
       H -1.22613e+00 -6.48365e-01  4.82031e-01
       H  6.96626e-01  9.19526e-02  2.54983e-01
7
# CELL(abcABC):  529.17722   529.17722   529.17722    90.00000    90.00000    90.00000  Step:       16500  Bead:       0 forces{eV/ang}  cell{angstrom}
       O -9.51870e-01  1.12659e+00 -9.49740e-01
       H  3.74415e-01 -6.32541e-01  5.16357e-01
       H  3.88061e-01 -3.36346e-01  3.46954e-01
       O  8.66047e-01  6.51791e-01 -8.12113e-01
       H  2.78846e-01 -1.60644e-01  1.94268e-01
       H -9.91975e-01 -7.47552e-01  6.55010e-01
       H  3.64756e-02  9.86987e-02  4.92648e-02
7
# CELL(abcABC):  529.17722   529.17722   529.17722    90.00000    90.00000    90.00000  Step:       16520  Bead:       0 forces{eV/ang}  cell{angstrom}
       O -2.33388e-01 -6.95629e-01  4.31534e-01
       H -4.40721e-01 -7.62457e-02 -2.18318e-01
       H  1.21757e+00  4.03860e-01  1.58066e-01
       O  6.61198e-01  5.70042e-01 -3.30425e-01
       H -5.26934e-01 -6.33054e-02  1.01656e-01
       H -7.03791e-01 -4.11257e-01  1.52686e-01
       H  2.60673e-02  2.72534e-01 -2.95198e-01
7
# CELL(abcABC):  529.17722   529.17722   529.17722    90.00000    90.00000    90.00000  Step:       16540  Bead:       0 forces{eV/ang}  cell{angstrom}
       O -1.04204e+00 -3.65473e-01 -9.23603e-01
       H  4.63597e-01  4.97934e-02  2.81720e-01
       H  6.80241e-01 -5.91896e-02  1.02851e+00
       O -2.61545e-01  6.52453e-01 -3.37936e-01
       H  2.82355e-01  1.39198e-01 -2.58489e-01
       H -2.03453e-01 -4.64654e-01  2.22535e-01
       H  8.08434e-02  4.78729e-02 -1.27392e-02
7
# CELL(abcABC):  529.17722   529.17722   529.17722    90.00000    90.00000    90.00000  Step:       16560  Bead:       0 forces{eV/ang}  cell{angstrom}
       O -1.10029e+00 -1.78554e+00  6.71864e-01
       H  7.34964e-01  5.12411e-01 -6.37409e-01
       H  4.26974e-01  4.85044e-01  1.68810e-01
       O -9.59961e-02  5.33873e-01 -9.41901e-01
       H -5.70440e-02  1.51349e-01  1.57075e-01
       H -4.88856e-02  2.18463e-01 -5.26630e-02
       H  1.40275e-01 -1.15599e-01  6.34223e-01
7
# CELL(abcABC):  529.17722   529.17722   529.17722    90.00000    90.00000    90.00000  Step:       16580  Bead:       0 forces{eV/ang}  cell{angstrom}
       O -4.67062e-02  3.91428e-01 -5.60049e-01
       H  4.11066e-01  3.32016e-01  5.36636e-02
       H -4.04488e-01 -2.07272e-01  8.94780e-04
       O -1.71852e-01 -2.03034e-01 -7.96434e-01
       H -7.82081e-03 -6.41131e-01  4.55603e-01
       H -1.79760e-01 -1.01253e-01 -1.81313e-01
       H  3.99561e-01  4.29245e-01  1.02763e+00
7
# CELL(abcABC):  529.17722   529.17722   529.17722    90.00000    90.00000    90.00000  Step:       16600  Bead:       0 forces{eV/ang}  cell{angstrom}
       O  3.69208e-01 -1.28307e-02  1.49384e+00
       H -7.46833e-02  1.52512e-01 -4.20174e-01
       H -5.08964e-01 -7.42113e-02 -1.13636e+00
       O -5.26110e-01 -1.67006e+00 -6.77522e-01
       H  3.66090e-01  5.32023e-01 -2.12014e-01
       H  1.36406e-01  4.45207e-01 -1.12806e-01
       H  2.38053e-01  6.27355e-01  1.06503e+00
7
# CELL(abcABC):  529.17722   529.17722   529.17722    90.00000    90.00000    90.00000  Step:       16620  Bead:       0 forces{eV/ang}  cell{angstrom}
       O  2.26978e+00  1.49945e+00  9.74989e-01
       H -4.81811e-01 -3.30165e-01  3.88977e-01
       H -1.64267e+00 -5.18199e-01 -1.50988e+00
       O  1.55208e-01  3.44569e-03 -4.60464e-01
       H -1.84512e-01 -4.40016e-01 -1.54259e-01
       H -4.82528e-02 -1.75499e-01  2.75524e-01
       H -6.77423e-02 -3.90135e-02  4.85116e-01
7
# CELL(abcABC):  529.17722   529.17722   529.17722    90.00000    90.00000    90.00000  Step:       16640  Bead:       0 forces{eV/ang}  cell{angstrom}
       O  1.13242e+00 -8.60640e-02  1.61709e+00
       H -5.53710e-01 -5.62010e-01 -1.07534e-02
       H -8.79550e-01  1.27663e-01 -1.19439e+00
       O -7.78720e-01 -1.92601e-01  9.85880e-01
       H  6.75270e-01  2.94623e-01  3.71467e-02
       H  2.41912e-01  1.99128e-01 -4.43123e-01
       H  1.62374e-01  2.19260e-01 -9.91857e-01
7
# CELL(abcABC):  529.17722   529.17722   529.17722    90.00000    90.00000    90.00000  Step:       16660  Bead:       0 forces{eV/ang}  cell{angstrom}
       O  4.40071e-01  6.62934e-01 -2.45646e-01
       H -2.95422e-03 -8.91410e-01  6.48827e-01
       H  2.95247e-02 -2.88978e-01  2.10266e-01
       O  1.50987e-01  1.93234e+00 -1.99689e-01
       H -6.33436e-01 -5.55808e-01  3.96351e-01
       H -1.04879e-01  1.22397e-01  1.27280e-01
       H  1.20686e-01 -9.81475e-01 -9.37389e-01
7
# CELL(abcABC):  529.17722   529.17722   529.17722    90.00000    90.00000    90.00000  Step:       16680  Bead:       0 forces{eV/ang}  cell{angstrom}
       O -5.80581e-01  4.13652e-03 -2.73219e-01
       H -2.62811e-01 -8.61762e-01  3.15063e-01
       H  8.60915e-01  4.33305e-01  1.59665e-01
       O -7.48502e-01  1.68939e-01  1.32152e+00
       H -1.01570e-01  1.02956e+00 -4.54621e-01
       H  2.10224e-01 -3.25111e-02  2.04010e-01
       H  6.22325e-01 -7.41671e-01 -1.27242e+00
7
# CELL(abcABC):  529.17722   529.17722   529.17722    90.00000    90.00000    90.00000  Step:       16700  Bead:       0 forces{eV/ang}  cell{angstrom}
       O -8.00457e-01 -2.25138e-01 -2.72657e-02
       H -3.35481e-01 -6.04461e-01  2.86858e-01
       H  1.25579e+00  3.71995e-01  5.73375e-01
       O -1.03859e+00  1.78471e+00  4.34879e-01
       H  1.29263e-01 -5.87362e-01 -3.55916e-01
       H  2.03530e-01  4.23320e-01 -2.16632e-02
       H  5.85948e-01 -1.16306e+00 -8.90268e-01
7
# CELL(abcABC):  529.17722   529.17722   529.17722    90.00000    90.00000    90.00000  Step:       16720  Bead:       0 forces{eV/ang}  cell{angstrom}
       O -1.12558e+00 -5.25325e-01 -7.93701e-01
       H  1.11744e-01  4.33771e-01 -8.74432e-02
       H  9.60745e-01  1.62557e-01  6.52046e-01
       O -5.70756e-01 -4.52796e-01  1.18917e+00
       H  1.93413e-01 -3.20018e-02  4.59396e-01
       H  3.32549e-01  4.65381e-01 -1.89870e-01
       H  9.78867e-02 -5.15862e-02 -1.22959e+00
7
# CELL(abcABC):  529.17722   529.17722   529.17722    90.00000    90.00000    90.00000  Step:       16740  Bead:       0 forces{eV/ang}  cell{angstrom}
       O -1.50993e+00 -8.56659e-02 -7.15628e-01
       H  9.04199e-01  9.19410e-01 -9.69729e-02
       H  6.38785e-01 -6.00178e-01  6.77025e-01
       O -2.93562e-01 -1.90278e+00  9.38009e-03
       H -3.89108e-02  6.23613e-01 -5.25919e-01
       H  4.55862e-01  9.63166e-01  4.88810e-01
       H -1.56446e-01  8.24354e-02  1.63304e-01
7
# CELL(abcABC):  529.17722   529.17722   529.17722    90.00000    90.00000    90.00000  Step:       16760  Bead:       0 forces{eV/ang}  cell{angstrom}
       O -6.91357e-01  4.53152e-01 -6.40690e-01
       H -9.19047e-02  1.52555e-01 -2.62530e-01
       H  5.17871e-01  4.91326e-02 -4.06196e-02
       O -7.49855e-01 -1.54200e+00 -3.65514e-01
       H  2.56858e-01 -6.19326e-01  3.21190e-01
       H  8.17791e-02  6.36235e-01 -3.96132e-01
       H  6.76608e-01  8.70247e-01  1.38430e+00
7
# CELL(abcABC):  529.17722   529.17722   529.17722    90.00000    90.00000    90.00000  Step:       16780  Bead:       0 forces{eV/ang}  cell{angstrom}
       O  1.72899e+00 -9.60151e-02 -4.89404e-01
       H -8.26535e-01 -4.74251e-01  3.56583e-01
       H -7.26076e-01  3.97549e-01 -1.53603e-01
       O -5.43632e-01 -1.42808e-01 -1.09682e+00
       H -3.10842e-01  4.63355e-01 -8.54315e-04
       H -6.11853e-02 -7.03348e-01  3.87958e-01
       H  7.39285e-01  5.55519e-01  9.96139e-01
7
# CELL(abcABC):  529.17722   529.17722   529.17722    90.00000    90.00000    90.00000  Step:       16800  Bead:       0 forces{eV/ang}  cell{angstrom}
       O  1.10601e+00 -8.27978e-02 -5.67965e-01
       H -3.62795e-01 -5.64920e-01  1.01247e+00
       H -1.12524e+00  5.09798e-01 -2.11277e-01
       O  6.88922e-01  2.54750e+00 -8.96486e-02
       H  4.20203e-01  7.30171e-02 -4.20638e-01
       H -3.51146e-01 -2.06225e+00  6.74127e-01
       H -3.75951e-01 -4.20348e-01 -3.97072e-01
7
# CELL(abcABC):  529.17722   529.17722   529.17722    90.00000    90.00000    90.00000  Step:       16820  Bead:       0 forces{eV/ang}  cell{angstrom}
       O  1.81070e+00 -8.78842e-01  9.04599e-02
       H -5.17738e-01 -3.38742e-02  8.54108e-01
       H -8.49181e-01  5.30378e-01 -1.00564e-01
       O  4.97506e-01  2.65565e+00 -9.66333e-01
       H -6.48378e-01 -2.36579e-03  1.44910e-01
       H  2.29018e-01 -1.54462e+00  4.11117e-01
       H -5.21926e-01 -7.26327e-01 -4.33698e-01
7
# CELL(abcABC):  529.17722   529.17722   529.17722    90.00000    90.00000    90.00000  Step:       16840  Bead:       0 forces{eV/ang}  cell{angstrom}
       O -1.02004e+00  6.35013e-01 -1.20833e-01
       H  1.60268e-01 -4.51441e-02  2.64725e-01
       H  5.98467e-01 -4.82543e-01 -9.19080e-03
       O  6.10773e-01  1.32357e-01 -1.52817e-01
       H  3.01893e-01 -2.25759e-01  5.23714e-01
       H -1.54712e-01  2.87892e-01 -8.58251e-03
       H -4.96645e-01 -3.01816e-01 -4.97016e-01
7
# CELL(abcABC):  529.17722   529.17722   529.17722    90.00000    90.00000    90.00000  Step:       16860  Bead:       0 forces{eV/ang}  cell{angstrom}
       O -1.24799e+00  1.55896e+00  6.55530e-01
       H  2.12044e-01  2.01005e-02 -4.57740e-01
       H  1.03137e+00 -1.56598e+00  1.73559e-01
       O  3.12350e-01 -1.02283e+00 -1.87193e-01
       H  1.00035e-01  4.50679e-02 -8.64754e-02
       H -3.19748e-01  1.02038e+00  1.13129e-01
       H -8.80603e-02 -5.57039e-02 -2.10810e-01
7
# CELL(abcABC):  529.17722   529.17722   529.17722    90.00000    90.00000    90.00000  Step:       16880  Bead:       0 forces{eV/ang}  cell{angstrom}
       O -1.14570e-01  1.19765e+00 -1.07084e+00
       H  1.03894e-01 -3.55856e-01  7.86240e-03
       H  7.41713e-02 -9.29451e-01  9.70617e-01
       O  5.08233e-01 -1.56793e+00 -3.14480e-01
       H -3.53121e-01 -1.52443e-01 -1.59480e-02
       H -6.33822e-01  1.56073e+00 -1.41335e-01
       H  4.15216e-01  2.47302e-01  5.64122e-01
7
# CELL(abcABC):  529.17722   529.17722   529.17722    90.00000    90.00000    90.00000  Step:       16900  Bead:       0 forces{eV/ang}  cell{angstrom}
       O -5.50330e-01  3.28349e-01 -1.38439e-01
       H  3.52493e-02  6.36328e-01 -1.93106e-01
       H  1.25834e-01 -7.13333e-01 -4.57568e-01
       O  4.91443e-01 -2.08766e+00 -9.65869e-02
       H  4.80880e-01 -2.13936e-01  6.55764e-01
       H -9.52710e-01  1.40639e+00 -1.74139e-01
       H  3.69633e-01  6.43859e-01  4.04075e-01
7
# CELL(abcABC):  529.17722   529.17722   529.17722    90.00000    90.00000    90.00000  Step:       16920  Bead:       0 forces{eV/ang}  cell{angstrom}
       O  1.25367e+00 -4.44580e-01 -6.97452e-01
       H -6.43844e-01 -6.45589e-02  8.84547e-01
       H -3.44410e-01  5.92588e-01  1.96988e-01
       O -2.22075e-02 -1.51546e+00 -1.65020e-01
       H -1.44332e-01  1.77020e-01 -1.51155e-01
       H -2.51631e-01  1.22352e+00 -4.15914e-02
       H  1.52758e-01  3.14635e-02 -2.63162e-02
7
# CELL(abcABC):  529.17722   529.17722   529.17722    90.00000    90.00000    90.00000  Step:       16940  Bead:       0 forces{eV/ang}  cell{angstrom}
       O  9.14602e-02 -1.30637e+00  1.38820e+00
       H  1.84895e-01  8.35307e-01  3.37566e-01
       H  2.46019e-01  7.23238e-01 -1.13641e+00
       O  4.33023e-01  4.39623e-01 -1.15703e-01
       H -5.58710e-01 -5.29236e-01 -4.82121e-02
       H -1.76559e-02  4.71787e-01 -3.60558e-01
       H -3.79031e-01 -6.34345e-01 -6.48802e-02
7
# CELL(abcABC):  529.17722   529.17722   529.17722    90.00000    90.00000    90.00000  Step:       16960  Bead:       0 forces{eV/ang}  cell{angstrom}
       O -7.71661e-01 -1.55474e+00 -9.26359e-01
       H  1.84950e-02 -2.27845e-01  7.56864e-01
       H  4.49817e-01  1.25954e+00  3.33010e-01
       O  4.14147e-01  8.74416e-01 -5.46495e-01
       H  7.02009e-01  6.94681e-01  4.56569e-01
       H -5.59404e-02 -5.16987e-01  2.39962e-01
       H -7.56867e-01 -5.29071e-01 -3.13551e-01
7
# CELL(abcABC):  529.17722   529.17722   529.17722    90.00000    90.00000    90.00000  Step:       16980  Bead:       0 forces{eV/ang}  cell{angstrom}
       O  8.40857e-01  1.23447e+00  1.09284e+00
       H -4.45630e-01 -3.93328e-01 -7.19327e-01
       H -2.92483e-01 -5.91516e-01 -1.83496e-01
       O  1.04496e+00  2.00805e+00 -7.93960e-01
       H -3.54757e-01 -8.23892e-01 -7.49756e-02
       H -1.46364e-01 -1.01825e+00  4.29802e-01
       H -6.46581e-01 -4.15533e-01  2.49117e-01
7
# CELL(abcABC):  529.17722   529.17722   529.17722    90.00000    90.00000    90.00000  Step:       17000  Bead:       0 forces{eV/ang}  cell{angstrom}
       O  1.33154e-01  1.93535e+00 -1.35344e+00
       H -1.10065e+00 -1.93298e+00 -3.25537e-01
       H  7.74771e-01 -3.42173e-01  1.11896e+00
       O -3.09063e-01  1.29525e-01 -1.98583e-02
       H  6.25961e-02  7.92714e-01 -1.46245e-01
       H  3.33596e-02 -6.89298e-01  7.67335e-01
       H  4.05831e-01  1.06867e-01 -4.12146e-02
7
# CELL(abcABC):  529.17722   529.17722   529.17722    90.00000    90.00000    90.00000  Step:       17020  Bead:       0 forces{eV/ang}  cell{angstrom}
       O  1.61664e+00  3.39022e+00  4.01021e-02
       H -1.58114e+00 -1.10533e+00 -3.39331e-01
       H -5.38379e-02 -1.61805e+00  8.94631e-02
       O -4.30838e-01  4.86225e-01 -2.39082e-01
       H -5.66827e-02 -8.78563e-01  6.05789e-02
       H -2.51632e-01 -5.16218e-01  4.17701e-01
       H  7.57495e-01  2.41709e-01 -2.94313e-02
7
# CELL(abcABC):  529.17722   529.17722   529.17722    90.00000    90.00000    90.00000  Step:       17040  Bead:       0 forces{eV/ang}  cell{angstrom}
       O -1.39994e+00  8.24377e-01 -4.18897e-01
       H  2.50303e-01 -5.49648e-01 -6.44355e-03
       H  1.16952e+00 -5.36440e-01  5.12053e-01
       O -1.26639e+00 -1.76223e-01 -4.71274e-01
       H  8.85908e-02  4.83592e-01  7.57843e-02
       H  1.84432e-01  3.59984e-02  2.52280e-01
       H  9.73483e-01 -8.16551e-02  5.64968e-02
7
# CELL(abcABC):  529.17722   529.17722   529.17722    90.00000    90.00000    90.00000  Step:       17060  Bead:       0 forces{eV/ang}  cell{angstrom}
       O -2.49479e-01 -2.75198e-01  1.27803e+00
       H  7.82924e-01  1.54125e+00 -5.28189e-01
       H -4.19747e-01 -9.40507e-01 -2.08509e-01
       O -2.30247e-01  4.11616e-01 -6.70246e-01
       H -4.17612e-01 -4.68689e-01 -1.89558e-01
       H -3.16956e-01 -2.15600e-01  2.10153e-01
       H  8.51117e-01 -5.28752e-02  1.08317e-01
7
# CELL(abcABC):  529.17722   529.17722   529.17722    90.00000    90.00000    90.00000  Step:       17080  Bead:       0 forces{eV/ang}  cell{angstrom}
       O -2.81539e+00 -1.48591e+00 -7.34121e-01
       H  1.83344e+00  6.86402e-01  1.25934e-01
       H  5.36401e-01  4.72489e-01  1.01490e-01
       O  3.85983e-01 -8.35544e-02 -1.53862e-01
       H  5.33674e-01  4.04302e-01  5.22649e-01
       H -1.26699e-01 -3.87330e-02  1.09965e-01
       H -3.47404e-01  4.50077e-02  2.79458e-02
7
# CELL(abcABC):  529.17722   529.17722   529.17722    90.00000    90.00000    90.00000  Step:       17100  Bead:       0 forces{eV/ang}  cell{angstrom}
       O  2.97629e-01 -2.24439e+00  1.18530e+00
       H  6.14536e-01  1.39068e+00 -5.79312e-02
       H -8.60035e-01  9.17653e-01 -8.87295e-01
       O  6.39215e-01  2.81911e-01  1.03475e+00
       H -3.62946e-01 -1.81832e-01 -6.99855e-01
       H  9.15113e-02 -2.01944e-01 -5.04149e-01
       H -4.19910e-01  3.79179e-02 -7.08178e-02
7
# CELL(abcABC):  529.17722   529.17722   529.17722    90.00000    90.00000    90.00000  Step:       17120  Bead:       0 forces{eV/ang}  cell{angstrom}
       O -5.40730e-01 -6.24583e-01 -6.34317e-01
       H  1.85101e-01 -5.21634e-01  5.38533e-01
       H  2.74079e-01  9.82656e-01 -3.16062e-02
       O  1.18809e-01 -1.21245e-01  3.61477e-01
       H  2.84076e-01  3.28490e-01  4.19063e-01
       H  6.83015e-01 -4.99841e-01 -7.05646e-01
       H -1.00435e+00  4.56158e-01  5.24967e-02
7
# CELL(abcABC):  529.17722   529.17722   529.17722    90.00000    90.00000    90.00000  Step:       17140  Bead:       0 forces{eV/ang}  cell{angstrom}
       O  5.88787e-01  1.30183e+00  1.18713e+00
       H -1.87368e-01 -5.77522e-01 -8.18228e-01
       H -1.04160e-01 -6.55788e-01 -2.17981e-01
       O  2.91257e-01  3.44604e-01  1.51148e+00
       H -5.16880e-01 -2.28828e-01 -1.74695e-01
       H  3.01681e-01 -3.62277e-01 -9.94272e-01
       H -3.73317e-01  1.77982e-01 -4.93432e-01
7
# CELL(abcABC):  529.17722   529.17722   529.17722    90.00000    90.00000    90.00000  Step:       17160  Bead:       0 forces{eV/ang}  cell{angstrom}
       O  5.82785e-01  1.32613e+00 -1.20806e+00
       H -9.94129e-02 -1.67549e+00  2.76458e-02
       H -3.04721e-01  2.25648e-01  1.06302e+00
       O -1.83947e-01 -3.95564e-01 -3.78171e-01
       H  2.38711e-02  1.78866e-01  3.42361e-01
       H  2.39479e-01 -7.56022e-02  2.10900e-01
       H -2.58054e-01  4.16008e-01 -5.76935e-02
7
# CELL(abcABC):  529.17722   529.17722   529.17722    90.00000    90.00000    90.00000  Step:       17180  Bead:       0 forces{eV/ang}  cell{angstrom}
       O  2.51613e-01  2.84713e+00  4.42788e-01
       H  2.00577e-01 -1.39810e+00 -1.16309e+00
       H -3.14089e-01 -1.41078e+00  3.41471e-01
       O -3.07052e-01 -4.21980e-01 -1.04660e-01
       H  5.57998e-02 -2.46993e-01  2.14111e-01
       H  3.03747e-02  4.00827e-01  4.54850e-01
       H  8.27765e-02  2.29901e-01 -1.85474e-01
7
# CELL(abcABC):  529.17722   529.17722   529.17722    90.00000    90.00000    90.00000  Step:       17200  Bead:       0 forces{eV/ang}  cell{angstrom}
       O -3.55981e-01  7.71730e-01 -1.32639e+00
       H -1.48745e-02 -1.26393e+00  2.23421e-01
       H  1.73121e-02  2.95456e-01  9.54137e-01
       O  3.83282e-01 -2.80907e-01 -2.45849e-01
       H -1.87725e-02  2.64583e-01 -3.86112e-01
       H -4.18462e-01  7.45132e-01  4.25580e-01
       H  4.07496e-01 -5.32067e-01  3.55212e-01
7
# CELL(abcABC):  529.17722   529.17722   529.17722    90.00000    90.00000    90.00000  Step:       17220  Bead:       0 forces{eV/ang}  cell{angstrom}
       O -2.31317e-01  8.95898e-01 -6.30574e-02
       H  1.85239e-01  3.51851e-02 -6.39290e-02
       H -1.96117e-01 -3.56624e-01 -3.45295e-01
       O -3.54446e-01  6.48799e-01 -9.38722e-01
       H  9.62556e-02 -6.66413e-01  5.09649e-01
       H -8.83734e-02  2.85543e-01  1.94530e-01
       H  5.88759e-01 -8.42388e-01  7.06825e-01
7
# CELL(abcABC):  529.17722   529.17722   529.17722    90.00000    90.00000    90.00000  Step:       17240  Bead:       0 forces{eV/ang}  cell{angstrom}
       O  2.30991e-01 -1.70722e+00  1.57369e+00
       H  2.23620e-02  6.61326e-01 -3.70379e-02
       H -1.18070e-01  7.62178e-01 -8.20004e-01
       O  4.06094e-02  5.14739e-01  2.38856e-01
       H  1.57405e-01  7.96211e-01 -5.90516e-01
       H -5.30327e-01 -5.24898e-01 -5.63658e-01
       H  1.97029e-01 -5.02340e-01  1.98668e-01
7
# CELL(abcABC):  529.17722   529.17722   529.17722    90.00000    90.00000    90.00000  Step:       17260  Bead:       0 forces{eV/ang}  cell{angstrom}
       O  3.22206e-01 -3.95563e-01  6.52127e-01
       H  4.02163e-01  6.74098e-01  2.97093e-01
       H -1.62694e-01  3.40127e-01 -5.55596e-01
       O -8.39703e-01  1.52539e+00 -1.26979e+00
       H -2.59642e-02 -1.03579e+00  5.42316e-01
       H  3.69293e-01 -1.38174e+00  6.25214e-01
       H -6.53002e-02  2.73473e-01 -2.91366e-01
7
# CELL(abcABC):  529.17722   529.17722   529.17722    90.00000    90.00000    90.00000  Step:       17280  Bead:       0 forces{eV/ang}  cell{angstrom}
       O  5.98894e-01 -1.72094e+00  1.53130e+00
       H -5.47270e-02  6.16444e-01 -2.87069e-01
       H -2.07155e-01  5.15409e-01 -9.14150e-01
       O  1.34693e+00  4.70414e-01  1.16058e+00
       H -3.61811e-01  1.06561e+00 -3.75807e-01
       H -4.97520e-01 -8.86829e-01 -2.67234e-01
       H -8.24614e-01 -6.01133e-02 -8.47620e-01
7
# CELL(abcABC):  529.17722   529.17722   529.17722    90.00000    90.00000    90.00000  Step:       17300  Bead:       0 forces{eV/ang}  cell{angstrom}
       O -8.36731e-01 -4.42999e-01 -1.14398e+00
       H  2.95631e-01  8.39309e-02  5.02009e-01
       H -3.85604e-03  2.47695e-01 -2.21388e-02
       O  1.14665e+00  8.29909e-01  1.61251e-01
       H -3.18895e-02 -6.04419e-01  1.98231e-01
       H  1.78332e-01 -9.49863e-01  1.00435e+00
       H -7.48136e-01  8.35747e-01 -6.99723e-01
7
# CELL(abcABC):  529.17722   529.17722   529.17722    90.00000    90.00000    90.00000  Step:       17320  Bead:       0 forces{eV/ang}  cell{angstrom}
       O -3.55648e-01  1.09231e+00 -5.59992e-01
       H -1.08748e-01 -3.72782e-01 -2.33267e-01
       H -1.84233e-02 -9.09118e-01  5.33901e-01
       O  2.24042e+00 -6.48210e-01 -2.33642e-01
       H  2.24261e-01  6.40043e-01 -2.36031e-01
       H -1.10913e+00 -5.85817e-01  2.89684e-01
       H -8.72732e-01  7.83578e-01  4.39346e-01
7
# CELL(abcABC):  529.17722   529.17722   529.17722    90.00000    90.00000    90.00000  Step:       17340  Bead:       0 forces{eV/ang}  cell{angstrom}
       O  6.23713e-02  2.96138e+00 -1.07960e+00
       H -1.50495e-01 -1.35173e+00 -9.89166e-02
       H  5.46328e-02 -1.01483e+00  1.28503e+00
       O -4.60531e-01 -4.76745e-01 -3.86358e-01
       H  5.32345e-01 -4.60427e-01  2.34626e-01
       H  4.17858e-03 -3.61683e-01  4.47390e-02
       H -4.25013e-02  7.04027e-01  4.78331e-04
7
# CELL(abcABC):  529.17722   529.17722   529.17722    90.00000    90.00000    90.00000  Step:       17360  Bead:       0 forces{eV/ang}  cell{angstrom}
       O  6.41278e-01  1.09482e+00 -1.14345e+00
       H -2.24813e-01 -7.57456e-01 -4.21499e-02
       H  1.57117e-01 -2.54953e-01  1.54534e+00
       O  5.95596e-01 -4.24284e-01  5.48042e-01
       H -5.53342e-01  2.73339e-01 -1.98253e-01
       H -3.28222e-01  2.53731e-01 -5.65304e-01
       H -2.87614e-01 -1.85201e-01 -1.44223e-01
7
# CELL(abcABC):  529.17722   529.17722   529.17722    90.00000    90.00000    90.00000  Step:       17380  Bead:       0 forces{eV/ang}  cell{angstrom}
       O  5.34840e-01  3.76219e-01 -2.87527e-01
       H -3.14367e-01 -4.87082e-01  1.18901e-01
       H  2.07196e-01  2.87142e-01  6.48040e-01
       O -1.11229e+00  1.28056e-01 -1.49830e+00
       H -2.56448e-01 -4.56090e-01  2.60676e-01
       H  4.56411e-01  3.74383e-01  4.19223e-01
       H  4.84659e-01 -2.22628e-01  3.38993e-01
7
# CELL(abcABC):  529.17722   529.17722   529.17722    90.00000    90.00000    90.00000  Step:       17400  Bead:       0 forces{eV/ang}  cell{angstrom}
       O -3.44259e-01  6.47327e-01  7.63073e-01
       H -2.54373e-01 -5.03037e-01 -3.69260e-01
       H  1.87560e-01 -4.11797e-01 -4.80690e-01
       O -2.32627e-01 -2.64658e-01 -2.22605e-01
       H  2.26950e-01  2.92653e-02 -1.72670e-01
       H  2.28662e-01  1.73879e+00 -5.61068e-01
       H  1.88087e-01 -1.23589e+00  1.04322e+00
7
# CELL(abcABC):  529.17722   529.17722   529.17722    90.00000    90.00000    90.00000  Step:       17420  Bead:       0 forces{eV/ang}  cell{angstrom}
       O -1.05844e+00 -2.40301e-01  3.42504e-01
       H  2.71665e-01  5.56140e-01  4.76777e-01
       H  9.41960e-01 -3.99089e-01 -9.86296e-01
       O -8.65622e-01 -1.82803e+00 -1.85675e+00
       H -3.68605e-01  1.65464e-01 -3.44458e-01
       H  5.47854e-01  2.26806e+00  2.06431e-01
       H  5.31193e-01 -5.22249e-01  2.16180e+00
7
# CELL(abcABC):  529.17722   529.17722   529.17722    90.00000    90.00000    90.00000  Step:       17440  Bead:       0 forces{eV/ang}  cell{angstrom}
       O -1.31212e+00  7.79835e-01  6.00157e-01
       H  1.12531e+00 -7.00966e-04  5.15935e-02
       H  8.39776e-02 -6.03400e-01 -4.38099e-01
       O -1.10722e-01  1.81099e-01 -1.38416e+00
       H  2.65545e-01 -4.23793e-01 -3.69938e-01
       H  8.44165e-02  1.36265e+00 -4.64253e-01
       H -1.36412e-01 -1.29569e+00  2.00470e+00
7
# CELL(abcABC):  529.17722   529.17722   529.17722    90.00000    90.00000    90.00000  Step:       17460  Bead:       0 forces{eV/ang}  cell{angstrom}
       O -1.02886e+00 -5.75533e-01 -1.10405e+00
       H  1.22706e+00 -2.33844e-01  2.48260e-01
       H -3.61759e-01  4.07301e-01  1.65534e-01
       O  1.34229e-01  3.14733e-01 -3.81029e-01
       H -4.70200e-02  2.69616e-01  4.96937e-01
       H  8.16848e-02 -3.27086e-01  2.46164e-01
       H -5.33568e-03  1.44814e-01  3.28183e-01
7
# CELL(abcABC):  529.17722   529.17722   529.17722    90.00000    90.00000    90.00000  Step:       17480  Bead:       0 forces{eV/ang}  cell{angstrom}
       O -1.69753e+00 -7.78659e-01 -1.41399e+00
       H  1.33968e+00 -4.18832e-01  2.30825e-01
       H  3.33277e-01  1.28900e+00  1.16652e+00
       O -9.63804e-01  1.46690e+00  1.42161e+00
       H -2.70941e-01 -2.76257e-01 -3.33605e-01
       H  6.41834e-01 -1.37735e+00 -2.12876e-01
       H  6.17483e-01  9.51977e-02 -8.58477e-01
7
# CELL(abcABC):  529.17722   529.17722   529.17722    90.00000    90.00000    90.00000  Step:       17500  Bead:       0 forces{eV/ang}  cell{angstrom}
       O  5.58331e-01 -8.91691e-01 -1.43769e-01
       H  1.20290e-01 -6.90712e-01 -4.12795e-01
       H -3.20725e-01  1.97930e+00  1.05899e+00
       O -1.64000e+00  4.98297e-01 -2.44238e-01
       H -2.69927e-02  1.39829e-02  3.86458e-01
       H  5.15460e-01 -1.78640e+00  7.24185e-01
       H  7.93632e-01  8.77222e-01 -1.36883e+00
7
# CELL(abcABC):  529.17722   529.17722   529.17722    90.00000    90.00000    90.00000  Step:       17520  Bead:       0 forces{eV/ang}  cell{angstrom}
       O -4.15414e-01 -1.77662e+00 -9.18931e-01
       H  3.17952e-01  1.48121e-03  1.61082e-01
       H  1.92681e-01  1.91646e+00  9.23793e-01
       O -7.36304e-01  1.83828e+00  2.31504e+00
       H -3.10135e-01 -1.62756e-01 -2.39895e-01
       H  2.49724e-01 -2.15661e+00 -1.21252e-01
       H  7.01497e-01  3.39777e-01 -2.11983e+00
7
# CELL(abcABC):  529.17722   529.17722   529.17722    90.00000    90.00000    90.00000  Step:       17540  Bead:       0 forces{eV/ang}  cell{angstrom}
       O  4.53639e-01 -1.23989e+00 -2.94449e-02
       H -2.69739e-01  4.79238e-02  1.14037e-04
       H -2.65030e-01  1.28298e+00  2.06600e-01
       O -2.93393e-01  5.18792e-01  1.64399e+00
       H  4.18178e-01  8.21947e-02 -4.42958e-02
       H -4.16949e-01 -1.64256e+00  2.30737e-01
       H  3.73292e-01  9.50572e-01 -2.00770e+00
7
# CELL(abcABC):  529.17722   529.17722   529.17722    90.00000    90.00000    90.00000  Step:       17560  Bead:       0 forces{eV/ang}  cell{angstrom}
       O  1.87459e-01 -2.43183e-01 -1.10371e-01
       H  2.29294e-02 -2.47282e-02  1.32064e-01
       H -2.53873e-01  6.04131e-02 -3.19055e-01
       O  2.39752e-01  2.63722e-01  1.12732e+00
       H -1.36235e-02 -9.31762e-02  2.61207e-01
       H -1.54738e-01 -2.53829e-01  3.63322e-03
       H -2.79063e-02  2.90781e-01 -1.09479e+00
7
# CELL(abcABC):  529.17722   529.17722   529.17722    90.00000    90.00000    90.00000  Step:       17580  Bead:       0 forces{eV/ang}  cell{angstrom}
       O -9.20723e-01  8.28119e-01  4.58676e-01
       H  2.38667e-01  2.84856e-01 -1.34878e-01
       H  5.31211e-01 -1.33606e+00 -1.85599e-01
       O -1.28652e+00 -9.92419e-01 -4.47404e-01
       H  3.18415e-01  1.49315e-01 -4.86968e-01
       H  1.09414e+00  1.02379e+00 -2.05609e-02
       H  2.48176e-02  4.24030e-02  8.16734e-01
7
# CELL(abcABC):  529.17722   529.17722   529.17722    90.00000    90.00000    90.00000  Step:       17600  Bead:       0 forces{eV/ang}  cell{angstrom}
       O -7.14355e-01  2.79166e+00  5.95279e-02
       H  3.21355e-02 -7.56542e-02 -4.72716e-02
       H  8.09583e-01 -2.82846e+00 -2.69364e-01
       O -3.22644e-01  8.76825e-02 -1.56222e+00
       H -4.78725e-01 -2.49671e-01  2.46159e-01
       H  1.56652e+00  8.65941e-01 -3.44408e-01
       H -8.92518e-01 -5.91489e-01  1.91758e+00
7
# CELL(abcABC):  529.17722   529.17722   529.17722    90.00000    90.00000    90.00000  Step:       17620  Bead:       0 forces{eV/ang}  cell{angstrom}
       O -1.37987e+00  2.11537e+00  5.37107e-01
       H  3.67266e-01 -8.18806e-02 -2.17870e-01
       H  6.97663e-01 -1.94999e+00 -3.89499e-01
       O -9.04176e-01 -3.99295e-01 -2.79593e+00
       H  4.00619e-01 -6.31861e-03  2.30205e-01
       H  1.44549e+00  4.46346e-01  1.10962e-01
       H -6.26991e-01 -1.24239e-01  2.52502e+00
7
# CELL(abcABC):  529.17722   529.17722   529.17722    90.00000    90.00000    90.00000  Step:       17640  Bead:       0 forces{eV/ang}  cell{angstrom}
       O -1.88336e-01  2.41783e-02  5.06899e-01
       H  2.17547e-01  2.62114e-01  1.49717e-01
       H  3.15724e-01 -2.61502e-01 -3.83776e-02
       O  9.48790e-01 -1.17225e-01 -1.13127e+00
       H -2.37628e-01  3.85669e-01 -3.17177e-01
       H -2.37630e-01 -7.81043e-02 -3.95290e-01
       H -8.18467e-01 -2.15131e-01  1.22550e+00
7
# CELL(abcABC):  529.17722   529.17722   529.17722    90.00000    90.00000    90.00000  Step:       17660  Bead:       0 forces{eV/ang}  cell{angstrom}
       O  3.43243e-01 -3.72739e-01  7.10978e-02
       H  1.31681e-02 -4.77251e-02 -4.38786e-02
       H -1.89022e-01  7.34568e-01  3.13997e-01
       O  3.77085e-01 -3.75334e-01 -1.55400e+00
       H -4.08525e-03  7.78879e-02  1.33840e-01
       H -9.97724e-01  5.02224e-02  6.51313e-01
       H  4.57335e-01 -6.68809e-02  4.27633e-01
7
# CELL(abcABC):  529.17722   529.17722   529.17722    90.00000    90.00000    90.00000  Step:       17680  Bead:       0 forces{eV/ang}  cell{angstrom}
       O  4.13946e-03 -5.76477e-01 -3.59855e-01
       H  3.90329e-01 -1.53528e-01  1.47964e-01
       H -3.37182e-01  1.03092e+00  1.67241e-01
       O  9.98750e-01 -9.73291e-01  1.57165e+00
       H  2.33512e-02 -3.92674e-01  3.78842e-01
       H -1.19405e+00  4.13323e-01 -6.12110e-01
       H  1.14659e-01  6.51729e-01 -1.29373e+00
7
# CELL(abcABC):  529.17722   529.17722   529.17722    90.00000    90.00000    90.00000  Step:       17700  Bead:       0 forces{eV/ang}  cell{angstrom}
       O  2.61288e-01 -1.31080e+00 -2.27136e-01
       H  2.96123e-01  7.72281e-02  3.25710e-01
       H -4.30907e-01  7.62705e-01 -2.50403e-01
       O  3.24641e-01 -9.60089e-01  2.24293e+00
       H -2.07494e-01  3.95085e-01 -3.45650e-01
       H -1.51954e+00  9.94620e-02 -8.13513e-03
       H  1.27589e+00  9.36410e-01 -1.73732e+00
7
# CELL(abcABC):  529.17722   529.17722   529.17722    90.00000    90.00000    90.00000  Step:       17720  Bead:       0 forces{eV/ang}  cell{angstrom}
       O  3.83590e-01 -6.16807e-02  7.45118e-02
       H -3.49879e-01  2.63990e-02 -2.48410e-01
       H -9.61932e-02  4.92224e-01  5.44474e-02
       O -2.53983e-01  1.31066e-01  2.78466e+00
       H  1.98820e-01 -6.61282e-01  5.40509e-01
       H -9.06733e-01 -3.90158e-02 -9.83182e-02
       H  1.02438e+00  1.12290e-01 -3.10740e+00
7
# CELL(abcABC):  529.17722   529.17722   529.17722    90.00000    90.00000    90.00000  Step:       17740  Bead:       0 forces{eV/ang}  cell{angstrom}
       O  1.96069e-01  1.64055e-01  3.09144e-01
       H  1.61856e-01 -2.27362e-01  2.70847e-01
       H -2.85044e-01 -2.20826e-01 -2.39992e-01
       O -6.72930e-01 -1.26708e-01  2.03875e+00
       H  8.95854e-02  6.46797e-01 -2.07425e-01
       H -6.62772e-01  5.81376e-02  3.20625e-01
       H  1.17324e+00 -2.94093e-01 -2.49195e+00
7
# CELL(abcABC):  529.17722   529.17722   529.17722    90.00000    90.00000    90.00000  Step:       17760  Bead:       0 forces{eV/ang}  cell{angstrom}
       O -5.60311e-01  7.72213e-01  6.87098e-02
       H  2.78897e-01 -2.42623e-01 -1.40239e-01
       H  1.09047e-01 -1.48216e-01  2.31168e-01
       O -4.15952e-01  7.91544e-01  1.39722e+00
       H  2.41829e-02 -5.22018e-01 -1.57022e-01
       H  3.23432e-01 -2.40042e-02 -3.18746e-02
       H  2.40704e-01 -6.26895e-01 -1.36796e+00
7
# CELL(abcABC):  529.17722   529.17722   529.17722    90.00000    90.00000    90.00000  Step:       17780  Bead:       0 forces{eV/ang}  cell{angstrom}
       O -6.54543e-01  4.38341e-01 -1.01896e+00
       H  3.29819e-01 -6.37696e-01  9.45595e-02
       H -5.38876e-02 -5.46896e-02  1.55066e-01
       O -7.78930e-01 -3.97805e-01 -9.54148e-01
       H  2.44040e-01  1.91230e-01  5.38843e-01
       H  8.99605e-01  2.17670e-01  4.76429e-01
       H  1.38979e-02  2.42949e-01  7.08214e-01
7
# CELL(abcABC):  529.17722   529.17722   529.17722    90.00000    90.00000    90.00000  Step:       17800  Bead:       0 forces{eV/ang}  cell{angstrom}
       O -4.52439e-02  6.45512e-01 -4.10549e-01
       H  3.63636e-01 -7.40022e-01  7.36037e-01
       H -2.88397e-01 -1.57802e-01 -1.66424e-01
       O  9.50446e-01 -7.07710e-01 -1.82862e+00
       H  4.39546e-02  9.49830e-02 -5.33255e-01
       H  1.40322e+00 -1.90085e-01 -1.59761e-01
       H -2.42761e+00  1.05512e+00  2.36257e+00
7
# CELL(abcABC):  529.17722   529.17722   529.17722    90.00000    90.00000    90.00000  Step:       17820  Bead:       0 forces{eV/ang}  cell{angstrom}
       O  2.97901e-01  6.59165e-01 -2.18086e-01
       H  1.60866e-01  2.02805e-01 -4.80484e-03
       H -1.49316e-01 -5.94232e-01  3.82918e-01
       O  1.51421e+00 -1.45300e+00 -3.49043e+00
       H -2.45809e-01 -2.98045e-01 -1.92943e-02
       H  1.07970e+00  1.24183e-01  4.22510e-01
       H -2.65756e+00  1.35913e+00  2.92719e+00
7
# CELL(abcABC):  529.17722   529.17722   529.17722    90.00000    90.00000    90.00000  Step:       17840  Bead:       0 forces{eV/ang}  cell{angstrom}
       O  1.67589e+00  8.10318e-01  1.57136e+00
       H -7.36681e-01  2.96096e-01 -7.24314e-01
       H -4.77242e-01 -6.67788e-01 -4.85146e-02
       O -1.03330e+00 -3.75586e-01 -1.37612e+00
       H -1.37123e-01 -1.17495e-01 -1.41548e-01
       H  1.45336e+00 -2.16413e-01  1.54399e-01
       H -7.44904e-01  2.70868e-01  5.64741e-01
7
# CELL(abcABC):  529.17722   529.17722   529.17722    90.00000    90.00000    90.00000  Step:       17860  Bead:       0 forces{eV/ang}  cell{angstrom}
       O  8.83807e-01 -1.20643e-01  4.63259e-01
       H -6.68966e-01  7.49437e-01 -9.39435e-01
       H -2.04271e-01 -7.10473e-01  4.27318e-01
       O -1.74116e+00  2.72234e-01  4.66966e-01
       H  3.16340e-01  2.96550e-01  4.60412e-01
       H  5.02444e-01 -4.91403e-02  2.35032e-01
       H  9.11809e-01 -4.37965e-01 -1.11355e+00
7
# CELL(abcABC):  529.17722   529.17722   529.17722    90.00000    90.00000    90.00000  Step:       17880  Bead:       0 forces{eV/ang}  cell{angstrom}
       O  1.19337e+00  7.58825e-01  6.48983e-01
       H -6.37893e-01 -3.77376e-03 -5.28078e-01
       H -7.16103e-01 -8.51046e-01 -9.92238e-02
       O -6.69485e-01  2.57088e-01  1.98013e+00
       H  1.68934e-01  1.63279e-01 -8.84534e-03
       H -1.32656e-01  1.37212e-01 -6.61223e-02
       H  7.93833e-01 -4.61584e-01 -1.92684e+00
7
# CELL(abcABC):  529.17722   529.17722   529.17722    90.00000    90.00000    90.00000  Step:       17900  Bead:       0 forces{eV/ang}  cell{angstrom}
       O -9.55741e-01  8.70986e-02 -8.24071e-01
       H  4.16470e-01 -2.45217e-01  9.75125e-02
       H  2.18355e-01 -7.90055e-02  2.49522e-01
       O -3.85373e-01  1.95546e-01  2.56687e+00
       H -1.93309e-01 -1.17158e-01 -2.32192e-01
       H -2.42500e-01  3.65724e-01  2.02047e-01
       H  1.14210e+00 -2.06988e-01 -2.05969e+00
7
# CELL(abcABC):  529.17722   529.17722   529.17722    90.00000    90.00000    90.00000  Step:       17920  Bead:       0 forces{eV/ang}  cell{angstrom}
       O -7.43593e-01  8.73924e-01 -9.99740e-01
       H  4.72704e-01 -1.24094e+00  5.67422e-01
       H -1.72204e-02  2.83878e-01 -1.25500e-02
       O  1.77336e-01 -1.56011e-01  2.14972e+00
       H  1.81165e-01  5.78780e-02  1.41760e-01
       H -8.30793e-01  2.86882e-01 -7.62063e-02
       H  7.60401e-01 -1.05610e-01 -1.77041e+00
7
# CELL(abcABC):  529.17722   529.17722   529.17722    90.00000    90.00000    90.00000  Step:       17940  Bead:       0 forces{eV/ang}  cell{angstrom}
       O -1.52731e+00 -2.86567e-01 -1.13081e+00
       H  9.88043e-01 -1.07573e+00  1.46050e+00
       H  6.24440e-01  1.37427e+00 -2.92388e-01
       O  1.37311e+00  3.99045e-01  6.15736e-01
       H -2.02053e-01 -1.27456e-01 -8.28526e-02
       H -1.14295e+00 -1.16476e-01 -2.30347e-01
       H -1.13289e-01 -1.67088e-01 -3.39842e-01
7
# CELL(abcABC):  529.17722   529.17722   529.17722    90.00000    90.00000    90.00000  Step:       17960  Bead:       0 forces{eV/ang}  cell{angstrom}
       O -2.14329e+00 -1.36943e+00 -9.25903e-01
       H  1.21164e+00 -5.43492e-01  1.50911e+00
       H  9.07270e-01  1.89312e+00 -7.32324e-01
       O  1.31023e+00  8.58979e-02 -2.01465e+00
       H  1.27479e-01 -8.64845e-02  1.97596e-01
       H -1.08881e+00 -3.08554e-01  3.97024e-01
       H -3.24508e-01  3.28946e-01  1.56915e+00
7
# CELL(abcABC):  529.17722   529.17722   529.17722    90.00000    90.00000    90.00000  Step:       17980  Bead:       0 forces{eV/ang}  cell{angstrom}
       O -4.45266e-01 -1.17833e+00  9.53092e-01
       H  4.23804e-01 -1.77257e-01  7.52862e-01
       H  3.60574e-01  1.33180e+00 -1.31785e+00
       O  2.22838e+00  7.00505e-01 -1.74151e+00
       H -6.37090e-01 -8.48575e-02 -2.89653e-01
       H -4.52146e-01 -5.99529e-01 -4.59298e-01
       H -1.47825e+00  7.66942e-03  2.10236e+00
7
# CELL(abcABC):  529.17722   529.17722   529.17722    90.00000    90.00000    90.00000  Step:       18000  Bead:       0 forces{eV/ang}  cell{angstrom}
       O -1.47731e+00 -7.17514e-01 -6.81324e-02
       H  4.50465e-01 -2.37848e-01  2.37201e-01
       H  7.23155e-01  1.06083e+00 -5.78842e-01
       O  5.00375e-01 -4.11638e-01 -1.79390e+00
       H  5.87135e-01 -2.82232e-01  5.15704e-01
       H -4.77288e-01 -1.45148e-01  5.31359e-01
       H -3.06533e-01  7.33547e-01  1.15661e+00
7
# CELL(abcABC):  529.17722   529.17722   529.17722    90.00000    90.00000    90.00000  Step:       18020  Bead:       0 forces{eV/ang}  cell{angstrom}
       O  8.29091e-02 -9.64165e-01  6.94573e-01
       H -2.67376e-01  8.78134e-02 -1.95058e-01
       H  2.41896e-01  6.74512e-01 -4.42917e-01
       O  1.36693e-02  1.00642e+00  1.46271e+00
       H -4.40531e-01  6.21341e-02 -6.81976e-01
       H  4.11382e-01 -1.70069e-01 -7.26587e-01
       H -4.19497e-02 -6.96648e-01 -1.10746e-01
7
# CELL(abcABC):  529.17722   529.17722   529.17722    90.00000    90.00000    90.00000  Step:       18040  Bead:       0 forces{eV/ang}  cell{angstrom}
       O  3.06245e-01 -6.57286e-01 -4.59111e-03
       H -5.71575e-01  3.47419e-01 -4.70280e-01
       H  1.71459e-01  2.68646e-01  1.53894e-01
       O -7.60221e-01 -1.52756e+00 -2.50528e-01
       H  2.21921e-01 -9.08274e-02  4.47208e-01
       H -3.96593e-02  8.67145e-01  5.79944e-01
       H  6.71830e-01  7.92466e-01 -4.55648e-01
7
# CELL(abcABC):  529.17722   529.17722   529.17722    90.00000    90.00000    90.00000  Step:       18060  Bead:       0 forces{eV/ang}  cell{angstrom}
       O  7.02101e-01  2.17729e-01  7.12463e-01
       H -8.10135e-01  5.72949e-01 -5.58826e-01
       H  1.42355e-01 -8.63634e-01 -3.26853e-02
       O -1.00007e+00  5.59452e-01  2.43109e+00
       H -1.63690e-01  2.27964e-01 -2.96487e-01
       H  5.58993e-01  4.70929e-01 -1.04484e+00
       H  5.70447e-01 -1.18539e+00 -1.21071e+00
7
# CELL(abcABC):  529.17722   529.17722   529.17722    90.00000    90.00000    90.00000  Step:       18080  Bead:       0 forces{eV/ang}  cell{angstrom}
       O  7.84627e-01  1.46091e+00  1.68000e+00
       H -1.34428e+00  7.04929e-01 -1.02562e+00
       H  5.64737e-01 -2.10404e+00 -5.35635e-01
       O -6.08762e-01 -1.30561e+00  6.58135e-03
       H  9.78672e-02 -1.16086e-01  1.73910e-01
       H -4.00380e-02  3.53714e-01  8.92063e-01
       H  5.45846e-01  1.00618e+00 -1.19130e+00
7
# CELL(abcABC):  529.17722   529.17722   529.17722    90.00000    90.00000    90.00000  Step:       18100  Bead:       0 forces{eV/ang}  cell{angstrom}
       O -5.53993e-01  2.36628e+00  1.65381e+00
       H -6.72071e-01  2.74386e-01 -3.61834e-01
       H  1.30531e+00 -2.59458e+00 -9.39373e-01
       O  1.66688e-01  4.72506e-02  1.89022e+00
       H  3.43967e-02  1.05858e-01 -3.55117e-01
       H  6.27740e-02  3.21852e-01 -8.89133e-01
       H -3.43104e-01 -5.21042e-01 -9.98571e-01
7
# CELL(abcABC):  529.17722   529.17722   529.17722    90.00000    90.00000    90.00000  Step:       18120  Bead:       0 forces{eV/ang}  cell{angstrom}
       O -1.99381e+00  1.03121e+00 -7.74298e-02
       H  7.11532e-01 -6.36707e-02  3.99058e-01
       H  1.01825e+00 -1.15437e+00 -8.17453e-01
       O -7.90455e-01 -6.07726e-01 -1.38559e+00
       H  4.83016e-01  7.51634e-03  8.02297e-01
       H  2.82809e-01  3.28794e-01  7.36985e-01
       H  2.88663e-01  4.58249e-01  3.42132e-01
7
# CELL(abcABC):  529.17722   529.17722   529.17722    90.00000    90.00000    90.00000  Step:       18140  Bead:       0 forces{eV/ang}  cell{angstrom}
       O -9.39125e-02 -2.56745e-01 -7.41458e-01
       H  7.99176e-01  6.58339e-02  7.14343e-01
       H -3.27056e-01  2.14347e-01  3.93205e-01
       O  9.26671e-01  1.27578e+00 -3.40537e-01
       H -3.92557e-01  1.12762e-01 -8.53116e-01
       H -2.97488e-01 -7.64546e-02 -9.09638e-01
       H -6.14834e-01 -1.33552e+00  1.73720e+00
7
# CELL(abcABC):  529.17722   529.17722   529.17722    90.00000    90.00000    90.00000  Step:       18160  Bead:       0 forces{eV/ang}  cell{angstrom}
       O  4.33543e-01 -1.02404e-02 -1.60343e+00
       H  9.00019e-01 -2.64119e-01  2.38506e-01
       H -9.43251e-01  4.66977e-01  1.86896e+00
       O -7.62703e-02  1.66160e+00 -4.00554e+00
       H -1.46671e-01 -1.86573e-03  1.81412e-01
       H -1.97658e-01 -5.17262e-01  5.48045e-01
       H  3.02873e-02 -1.33509e+00  2.77205e+00
7
# CELL(abcABC):  529.17722   529.17722   529.17722    90.00000    90.00000    90.00000  Step:       18180  Bead:       0 forces{eV/ang}  cell{angstrom}
       O  1.21173e+00  6.54801e-01 -2.51771e+00
       H -8.27974e-02 -1.18659e-01  1.76765e-02
       H -7.98555e-01 -3.02486e-01  2.52015e+00
       O  3.92461e-01  1.56736e+00 -1.72408e+00
       H -5.00439e-01 -3.96702e-01  3.43987e-01
       H  1.34389e-01  5.88660e-01 -6.96410e-01
       H -3.56792e-01 -1.99297e+00  2.05639e+00
7
# CELL(abcABC):  529.17722   529.17722   529.17722    90.00000    90.00000    90.00000  Step:       18200  Bead:       0 forces{eV/ang}  cell{angstrom}
       O  8.97021e-01  1.13622e-01 -1.53316e+00
       H -3.38147e-01  8.06514e-02 -5.02010e-01
       H -5.70775e-01 -3.15159e-01  2.65838e+00
       O -1.86787e+00 -1.15861e+00 -1.75919e+00
       H  8.51965e-02  7.48422e-01 -4.03458e-01
       H  1.26246e+00  7.90470e-01  4.27097e-01
       H  5.32110e-01 -2.59397e-01  1.11234e+00
7
# CELL(abcABC):  529.17722   529.17722   529.17722    90.00000    90.00000    90.00000  Step:       18220  Bead:       0 forces{eV/ang}  cell{angstrom}
       O  1.48208e+00  2.66585e-01 -2.12566e+00
       H -7.77610e-01  2.67681e-01 -1.43165e-02
       H -6.76122e-01 -3.97880e-01  1.98159e+00
       O -5.74921e-01 -1.39511e+00  1.25348e+00
       H -2.41255e-01 -4.27517e-01  2.34492e-02
       H  1.38421e+00  1.41990e+00 -2.30141e-01
       H -5.96379e-01  2.66338e-01 -8.88408e-01
7
# CELL(abcABC):  529.17722   529.17722   529.17722    90.00000    90.00000    90.00000  Step:       18240  Bead:       0 forces{eV/ang}  cell{angstrom}
       O  1.44743e+00 -3.14606e-01 -1.38172e+00
       H -1.18081e+00  3.38936e-01 -7.75138e-02
       H -5.46229e-01 -1.24023e-01  9.55596e-01
       O -1.03544e+00 -1.88030e+00  9.67998e-01
       H  1.92373e-01  6.54556e-02  7.44360e-02
       H  7.28170e-01  4.97883e-02  2.17836e-01
       H  3.94501e-01  1.86475e+00 -7.56630e-01
7
# CELL(abcABC):  529.17722   529.17722   529.17722    90.00000    90.00000    90.00000  Step:       18260  Bead:       0 forces{eV/ang}  cell{angstrom}
       O -2.08667e-01 -4.72000e-02  1.22222e+00
       H -5.75274e-01  1.49609e-01 -1.88980e-01
       H  5.42691e-01 -3.11539e-02 -1.11149e+00
       O  1.45174e+00 -1.46997e+00  6.96783e-01
       H  3.80829e-01 -1.62730e-01 -2.00594e-01
       H -9.60855e-01 -1.14040e-01  1.22976e-01
       H -6.30468e-01  1.67549e+00 -5.40915e-01
7
# CELL(abcABC):  529.17722   529.17722   529.17722    90.00000    90.00000    90.00000  Step:       18280  Bead:       0 forces{eV/ang}  cell{angstrom}
       O -1.55621e+00  3.10189e-01  2.53520e+00
       H  1.04579e-01  9.16338e-02  3.12850e-01
       H  1.59847e+00 -3.94302e-01 -2.72151e+00
       O  8.19848e-01  2.15090e-01 -1.23921e+00
       H  4.45951e-02  1.85182e-01  3.62117e-01
       H -1.21499e+00 -1.09612e+00  7.45654e-01
       H  2.03708e-01  6.88326e-01  4.89473e-03
7
# CELL(abcABC):  529.17722   529.17722   529.17722    90.00000    90.00000    90.00000  Step:       18300  Bead:       0 forces{eV/ang}  cell{angstrom}
       O -1.88661e+00  1.07077e+00  3.49673e+00
       H  1.17881e+00 -3.45784e-01 -1.60165e-01
       H  9.14928e-01 -5.42111e-01 -2.94055e+00
       O  2.04942e+00  1.62643e+00  5.26977e-01
       H -2.35238e-01 -3.72958e-01 -7.10047e-01
       H -1.75606e+00 -8.80030e-01 -2.26654e-01
       H -2.65252e-01 -5.56324e-01  1.37064e-02
7
# CELL(abcABC):  529.17722   529.17722   529.17722    90.00000    90.00000    90.00000  Step:       18320  Bead:       0 forces{eV/ang}  cell{angstrom}
       O -1.46709e+00  8.34854e-01  1.67972e+00
       H  1.68765e+00 -6.40317e-01  3.58247e-02
       H  4.58652e-01 -1.59665e-01 -1.19704e+00
       O -5.49343e-01  1.19794e+00 -1.58463e+00
       H -3.43810e-01  4.26512e-01  3.96494e-01
       H -4.79251e-01 -9.90899e-01 -3.30029e-02
       H  6.93188e-01 -6.68424e-01  7.02638e-01
7
# CELL(abcABC):  529.17722   529.17722   529.17722    90.00000    90.00000    90.00000  Step:       18340  Bead:       0 forces{eV/ang}  cell{angstrom}
       O -7.14566e-01  3.37753e-01  3.75910e-01
       H  6.96168e-01 -4.92889e-01 -8.17518e-01
       H -3.00621e-01  3.43630e-01  8.09777e-01
       O -1.35190e-01 -3.61595e-01  5.52391e-01
       H  3.59296e-01 -2.79814e-01 -6.00823e-01
       H  3.46560e-01  1.04490e+00 -2.57600e-01
       H -2.51647e-01 -5.91988e-01 -6.21380e-02
7
# CELL(abcABC):  529.17722   529.17722   529.17722    90.00000    90.00000    90.00000  Step:       18360  Bead:       0 forces{eV/ang}  cell{angstrom}
       O -2.82424e-01 -3.56936e-01 -3.01036e+00
       H  5.69455e-01 -6.99719e-02  1.39226e-01
       H -5.96474e-01  1.16276e-01  1.78682e+00
       O -4.92820e-01 -2.15879e+00  6.60713e-01
       H -4.68229e-01 -2.30645e-02  6.00071e-01
       H  1.50178e+00  1.80297e+00  2.39579e-01
       H -2.31291e-01  6.89518e-01 -4.16051e-01
7
# CELL(abcABC):  529.17722   529.17722   529.17722    90.00000    90.00000    90.00000  Step:       18380  Bead:       0 forces{eV/ang}  cell{angstrom}
       O  2.70108e-01 -4.19845e-01 -2.37987e+00
       H -9.77768e-01  1.64994e-01  3.45403e-02
       H -2.41271e-01  2.68808e-02  1.94264e+00
       O -2.39035e-01 -2.61273e+00  1.46422e+00
       H  5.72545e-01  1.84962e-01 -3.29899e-01
       H  1.29371e+00  2.17927e+00 -3.31698e-01
       H -6.78293e-01  4.76469e-01 -3.99927e-01
7
# CELL(abcABC):  529.17722   529.17722   529.17722    90.00000    90.00000    90.00000  Step:       18400  Bead:       0 forces{eV/ang}  cell{angstrom}
       O  3.74593e+00 -3.35073e-01 -8.18373e-01
       H -2.52872e+00  4.57209e-01  2.61983e-01
       H -7.57862e-01 -7.59702e-02  5.84107e-01
       O -8.94596e-01 -1.00827e+00 -3.17855e-01
       H -2.45140e-01 -1.08565e-01  3.72135e-01
       H  7.76371e-01  6.80942e-01  4.74688e-02
       H -9.59849e-02  3.89725e-01 -1.29466e-01
7
# CELL(abcABC):  529.17722   529.17722   529.17722    90.00000    90.00000    90.00000  Step:       18420  Bead:       0 forces{eV/ang}  cell{angstrom}
       O  1.74063e+00 -2.18126e-01  1.18091e-01
       H -2.18628e+00  1.39423e-01  1.08482e+00
       H  7.59502e-01  1.66680e-01 -7.96187e-01
       O  3.02741e-01 -7.06197e-01  3.31634e-01
       H  1.08291e-03  1.37664e-01 -4.47725e-01
       H -2.58950e-01  2.73421e-01 -2.69709e-01
       H -3.58728e-01  2.07135e-01 -2.09196e-02
7
# CELL(abcABC):  529.17722   529.17722   529.17722    90.00000    90.00000    90.00000  Step:       18440  Bead:       0 forces{eV/ang}  cell{angstrom}
       O  1.44104e+00 -8.72944e-01  2.43432e+00
       H -6.92358e-01  3.20306e-01 -3.47713e-01
       H -4.05004e-01  9.49786e-01 -1.76419e+00
       O -5.41186e-01  8.39235e-01 -6.61892e-01
       H -1.05099e-02 -4.26415e-01  1.40209e-02
       H -3.15746e-01 -8.66532e-01  2.69358e-01
       H  5.23770e-01  5.65647e-02  5.60928e-02
7
# CELL(abcABC):  529.17722   529.17722   529.17722    90.00000    90.00000    90.00000  Step:       18460  Bead:       0 forces{eV/ang}  cell{angstrom}
       O -2.02703e+00 -1.00998e+00  9.00730e-01
       H  5.22894e-01 -3.11334e-01  4.11214e-01
       H  6.49152e-01  8.45561e-01 -1.87258e+00
       O  1.88193e+00  1.07453e+00 -4.30823e-01
       H  6.77490e-01  6.35471e-01  4.64528e-01
       H -1.54985e+00 -4.08494e-01  1.08495e-01
       H -1.54586e-01 -8.25752e-01  4.18440e-01
7
# CELL(abcABC):  529.17722   529.17722   529.17722    90.00000    90.00000    90.00000  Step:       18480  Bead:       0 forces{eV/ang}  cell{angstrom}
       O  2.37671e-01 -3.45803e-01  1.12370e+00
       H  1.88199e-01  1.88297e-01 -1.15931e+00
       H -6.98860e-01  2.54403e-01 -2.43097e-01
       O  1.64556e+00  2.58198e+00  1.17138e-02
       H -9.71269e-01 -7.62905e-01 -5.69243e-01
       H -8.54000e-01 -1.58756e+00  8.20312e-01
       H  4.52703e-01 -3.28413e-01  1.59277e-02
7
# CELL(abcABC):  529.17722   529.17722   529.17722    90.00000    90.00000    90.00000  Step:       18500  Bead:       0 forces{eV/ang}  cell{angstrom}
       O -2.79733e+00  3.54411e-01 -1.08030e+00
       H  8.40797e-01 -4.67085e-01  2.94302e-01
       H  1.08587e+00 -2.61127e-01  4.18179e-01
       O  1.44139e+00  5.07151e-01  6.61900e-01
       H  8.72921e-01  3.80491e-01  2.25410e-01
       H -1.21924e+00 -9.54379e-01 -2.18012e-01
       H -2.24398e-01  4.40538e-01 -3.01475e-01
7
# CELL(abcABC):  529.17722   529.17722   529.17722    90.00000    90.00000    90.00000  Step:       18520  Bead:       0 forces{eV/ang}  cell{angstrom}
       O  1.05228e+00  5.04229e-01  3.53661e-01
       H  5.62868e-01  3.71863e-01 -7.96379e-01
       H -9.56298e-01 -3.51639e-01  5.90399e-01
       O  2.81842e-01 -1.03989e+00  3.86819e-01
       H -2.82847e-01 -4.82154e-01  1.73550e-01
       H -3.40557e-01 -1.70634e-01 -2.34815e-01
       H -3.17292e-01  1.16823e+00 -4.73234e-01
7
# CELL(abcABC):  529.17722   529.17722   529.17722    90.00000    90.00000    90.00000  Step:       18540  Bead:       0 forces{eV/ang}  cell{angstrom}
       O -8.37477e-01  6.99875e-01 -9.80187e-01
       H  2.03111e-01 -2.47524e-01  3.64182e-01
       H  5.59915e-01 -4.76844e-01  1.04702e+00
       O -8.55486e-01 -2.31515e+00 -2.31227e-02
       H  5.40975e-01  2.16346e-01 -2.84609e-01
       H  7.61245e-01  1.07596e+00  1.50641e-01
       H -3.72284e-01  1.04734e+00 -2.73925e-01
7
# CELL(abcABC):  529.17722   529.17722   529.17722    90.00000    90.00000    90.00000  Step:       18560  Bead:       0 forces{eV/ang}  cell{angstrom}
       O  1.36638e+00  2.43684e-01 -6.29767e-01
       H -3.56230e-01  2.50003e-01 -3.52555e-02
       H -6.62072e-01 -2.68921e-01  3.90631e-01
       O -8.87401e-01 -1.87161e+00 -2.89324e-01
       H -3.84506e-01 -2.95180e-01  3.79733e-01
       H  1.08945e+00  1.69172e+00  2.41426e-01
       H -1.65621e-01  2.50307e-01 -5.74437e-02
7
# CELL(abcABC):  529.17722   529.17722   529.17722    90.00000    90.00000    90.00000  Step:       18580  Bead:       0 forces{eV/ang}  cell{angstrom}
       O -5.79574e-02 -3.59963e-01 -9.86093e-02
       H -7.21728e-01  4.22803e-02  1.42011e-01
       H  2.42993e-01  1.09960e-01 -2.28039e-01
       O -6.12259e-01 -9.49454e-01  1.39963e-01
       H  1.43660e-01  3.78392e-01 -2.11825e-01
       H  5.44182e-01  1.14542e+00  3.19089e-02
       H  4.61109e-01 -3.66633e-01  2.24591e-01
7
# CELL(abcABC):  529.17722   529.17722   529.17722    90.00000    90.00000    90.00000  Step:       18600  Bead:       0 forces{eV/ang}  cell{angstrom}
       O  2.81429e-01 -2.12692e-01  1.38206e+00
       H -7.36328e-01  1.06782e-02 -2.86573e-02
       H  2.05830e-01  2.15029e-01 -1.42317e+00
       O -5.86786e-01 -1.13926e-01 -4.95137e-03
       H -2.38748e-01 -3.60047e-01 -3.02342e-01
       H  1.87354e-01  1.50375e+00  3.33261e-01
       H  8.87249e-01 -1.04279e+00  4.37978e-02
7
# CELL(abcABC):  529.17722   529.17722   529.17722    90.00000    90.00000    90.00000  Step:       18620  Bead:       0 forces{eV/ang}  cell{angstrom}
       O -1.16460e+00  1.74774e-01  1.44160e+00
       H  4.71629e-01  7.01264e-02  2.54041e-01
       H  7.70943e-01 -2.94209e-01 -1.71647e+00
       O -7.39984e-01 -1.28797e+00 -6.72129e-01
       H -1.04517e-02  2.83547e-01  3.29293e-01
       H  1.72386e-01  1.17067e+00  2.13575e-01
       H  5.00080e-01 -1.16934e-01  1.50089e-01
7
# CELL(abcABC):  529.17722   529.17722   529.17722    90.00000    90.00000    90.00000  Step:       18640  Bead:       0 forces{eV/ang}  cell{angstrom}
       O -1.62075e+00  4.33596e-01  1.64229e+00
       H  1.48581e+00  4.75330e-01 -1.06100e-01
       H  5.56684e-01 -7.16842e-01 -1.19108e+00
       O -1.11693e-01 -1.91697e-01 -3.38733e-02
       H -4.53478e-02 -2.54031e-01 -1.01948e-01
       H -1.73115e-01  4.98676e-01  1.06067e-01
       H -9.15817e-02 -2.45032e-01 -3.15349e-01
7
# CELL(abcABC):  529.17722   529.17722   529.17722    90.00000    90.00000    90.00000  Step:       18660  Bead:       0 forces{eV/ang}  cell{angstrom}
       O -9.40316e-01 -2.27563e+00  3.83378e-01
       H  1.24967e+00  1.49720e+00 -1.53869e-01
       H -9.18896e-02  6.35186e-01 -2.00669e-02
       O  7.37918e-03  1.34549e-01  3.02982e-01
       H  1.92154e-02  1.31043e-01 -1.72091e-01
       H  5.11158e-01 -5.35185e-01 -1.56042e-01
       H -7.55212e-01  4.12834e-01 -1.84291e-01
7
# CELL(abcABC):  529.17722   529.17722   529.17722    90.00000    90.00000    90.00000  Step:       18680  Bead:       0 forces{eV/ang}  cell{angstrom}
       O -1.06930e+00 -1.05957e+00 -1.07311e-01
       H  1.56228e+00  7.04193e-01 -8.04575e-01
       H -8.23230e-01  2.04611e-01  3.58338e-01
       O  7.25673e-01  1.08496e+00  1.62785e+00
       H  1.16166e-01 -3.87666e-02  1.10796e-01
       H  1.98216e-02 -9.29220e-01 -9.25078e-01
       H -5.31411e-01  3.37867e-02 -2.60025e-01
7
# CELL(abcABC):  529.17722   529.17722   529.17722    90.00000    90.00000    90.00000  Step:       18700  Bead:       0 forces{eV/ang}  cell{angstrom}
       O -5.62414e-01 -1.33775e+00 -1.26623e+00
       H  1.04231e+00  6.22610e-01 -1.39451e-01
       H -6.97038e-01  1.03186e+00  1.16742e+00
       O -3.73495e-02  1.26326e+00  9.58498e-01
       H -4.11852e-03 -4.34498e-01  1.88738e-01
       H  1.60529e-01 -1.29501e+00 -1.15033e+00
       H  9.80850e-02  1.49533e-01  2.41358e-01
7
# CELL(abcABC):  529.17722   529.17722   529.17722    90.00000    90.00000    90.00000  Step:       18720  Bead:       0 forces{eV/ang}  cell{angstrom}
       O -3.10515e-01 -6.58551e-01 -4.97626e-02
       H  3.03224e-01  7.30308e-02 -4.34288e-01
       H -4.31503e-01  5.34569e-01  8.59288e-01
       O -1.23406e-01  7.46096e-01  5.57794e-01
       H  2.58939e-01  5.42551e-01 -4.36531e-01
       H -4.61561e-02 -1.40928e+00 -8.64018e-01
       H  3.49419e-01  1.71587e-01  3.67519e-01
7
# CELL(abcABC):  529.17722   529.17722   529.17722    90.00000    90.00000    90.00000  Step:       18740  Bead:       0 forces{eV/ang}  cell{angstrom}
       O  9.27563e-01  5.95573e-01  2.33821e-01
       H -3.49959e-01 -2.34776e-01  1.07238e-02
       H -2.55026e-01 -4.82838e-02  6.69541e-03
       O  2.49876e-02  1.03173e+00 -9.73471e-01
       H -1.32522e-01 -6.78494e-01  3.50883e-01
       H -8.99934e-02 -4.61547e-01  3.81680e-01
       H -1.25050e-01 -2.04206e-01 -1.03318e-02
7
# CELL(abcABC):  529.17722   529.17722   529.17722    90.00000    90.00000    90.00000  Step:       18760  Bead:       0 forces{eV/ang}  cell{angstrom}
       O  1.00142e+00  6.74244e-01  1.24848e+00
       H -1.11246e+00 -3.99172e-01 -1.17247e-02
       H  5.49288e-01 -4.32397e-01 -7.87965e-01
       O -1.91258e-01 -8.51739e-01 -3.90222e-01
       H -1.16677e-01  6.48303e-01  5.31414e-02
       H -4.06785e-02  5.09658e-01 -3.10009e-02
       H -8.96350e-02 -1.48898e-01 -8.07132e-02
7
# CELL(abcABC):  529.17722   529.17722   529.17722    90.00000    90.00000    90.00000  Step:       18780  Bead:       0 forces{eV/ang}  cell{angstrom}
       O  5.46912e-01  7.92494e-01  8.50889e-01
       H -1.75425e+00 -5.66769e-01 -1.41372e-01
       H  9.57671e-01 -3.41851e-01 -8.40944e-01
       O -3.11767e-01 -1.27820e-01  5.13754e-01
       H  3.75136e-01 -3.59840e-01 -4.16059e-01
       H  1.87484e-01  7.22831e-01  2.09300e-01
       H -1.18644e-03 -1.19045e-01 -1.75567e-01
7
# CELL(abcABC):  529.17722   529.17722   529.17722    90.00000    90.00000    90.00000  Step:       18800  Bead:       0 forces{eV/ang}  cell{angstrom}
       O -1.32775e-01  6.90831e-01  4.01429e-01
       H -6.04972e-01 -4.71775e-01 -1.07787e-01
       H  6.13377e-01 -5.67566e-01 -1.23018e+00
       O  9.38731e-01 -9.01897e-01  3.32827e-01
       H -2.86663e-01  4.65337e-01  5.19842e-01
       H  8.12157e-02  3.03918e-01  5.30276e-02
       H -6.08913e-01  4.81151e-01  3.08430e-02
7
# CELL(abcABC):  529.17722   529.17722   529.17722    90.00000    90.00000    90.00000  Step:       18820  Bead:       0 forces{eV/ang}  cell{angstrom}
       O -1.23296e+00  1.45525e-01  3.35054e-01
       H -2.37083e-01  8.08578e-02  5.79834e-02
       H  9.44611e-01 -2.57794e-01 -6.69404e-01
       O  7.91973e-01  1.51199e-01  7.19751e-01
       H  5.10380e-01 -1.89421e-01 -1.12537e-01
       H -1.74996e-01 -3.78480e-01 -5.66211e-02
       H -6.01929e-01  4.48112e-01 -2.74227e-01
7
# CELL(abcABC):  529.17722   529.17722   529.17722    90.00000    90.00000    90.00000  Step:       18840  Bead:       0 forces{eV/ang}  cell{angstrom}
       O  1.33637e+00  4.86573e-01  3.53593e-02
       H -5.80806e-01 -4.63675e-01 -2.36578e-02
       H -3.88524e-01  8.95271e-02  1.80168e-01
       O  6.01587e-01 -5.25114e-01  1.28233e-01
       H -5.79658e-01  3.99133e-02 -2.35163e-02
       H -5.40566e-02 -5.13684e-01 -2.01676e-02
       H -3.34914e-01  8.86459e-01 -2.76418e-01
7
# CELL(abcABC):  529.17722   529.17722   529.17722    90.00000    90.00000    90.00000  Step:       18860  Bead:       0 forces{eV/ang}  cell{angstrom}
       O  1.29472e+00 -1.27583e-02 -3.40526e-01
       H -9.64378e-01 -4.22419e-01  1.86301e-01
       H -2.92445e-01  7.14000e-01  8.36254e-01
       O  3.69949e-01 -4.80616e-01  1.98390e-01
       H  2.02952e-01 -5.24522e-02 -2.15692e-02
       H -2.31174e-01 -3.13032e-02 -2.56950e-01
       H -3.79627e-01  2.85548e-01 -6.01900e-01
7
# CELL(abcABC):  529.17722   529.17722   529.17722    90.00000    90.00000    90.00000  Step:       18880  Bead:       0 forces{eV/ang}  cell{angstrom}
       O  1.18361e+00 -8.49104e-02  2.79320e-01
       H  3.05135e-01 -4.52959e-02 -1.61214e-01
       H -1.11871e+00  3.00302e-01  5.53360e-01
       O -8.28621e-01 -9.07078e-01 -9.89687e-01
       H -2.28260e-01  2.26911e-01  2.32505e-02
       H  5.02159e-01  3.52811e-01  1.85274e-01
       H  1.84687e-01  1.57260e-01  1.09696e-01
7
# CELL(abcABC):  529.17722   529.17722   529.17722    90.00000    90.00000    90.00000  Step:       18900  Bead:       0 forces{eV/ang}  cell{angstrom}
       O -1.27164e+00 -1.47802e+00 -1.92569e-01
       H  1.38772e+00  1.31595e+00  3.93025e-01
       H  1.65086e-02  4.72373e-01  4.09290e-01
       O -1.37521e-01  3.16166e-01 -1.16349e+00
       H  9.14013e-02 -5.40775e-02 -1.53046e-02
       H  8.76970e-02  2.84982e-01 -2.88778e-01
       H -1.74165e-01 -8.57376e-01  8.57828e-01
7
# CELL(abcABC):  529.17722   529.17722   529.17722    90.00000    90.00000    90.00000  Step:       18920  Bead:       0 forces{eV/ang}  cell{angstrom}
       O -1.68054e+00 -3.66199e-01  2.30478e-01
       H  1.41678e+00  6.11520e-01 -3.67336e-02
       H  1.99571e-01 -4.30429e-01 -3.85756e-01
       O -2.38254e-01  7.30129e-01 -1.06937e+00
       H -2.69222e-02  8.89951e-02 -3.70363e-01
       H  1.93308e-03 -1.63553e-01  3.38488e-01
       H  3.27435e-01 -4.70462e-01  1.29326e+00
7
# CELL(abcABC):  529.17722   529.17722   529.17722    90.00000    90.00000    90.00000  Step:       18940  Bead:       0 forces{eV/ang}  cell{angstrom}
       O -1.85507e+00 -8.03096e-01 -1.00913e+00
       H  1.05942e+00  7.07138e-01  4.37615e-01
       H  7.34079e-01 -4.04441e-01 -4.99573e-01
       O  6.33095e-01  1.33537e+00  4.28333e-01
       H -1.26187e-01  7.93848e-02  2.06392e-01
       H -3.90421e-01 -4.02713e-01 -2.44391e-01
       H -5.49172e-02 -5.11641e-01  6.80756e-01
7
# CELL(abcABC):  529.17722   529.17722   529.17722    90.00000    90.00000    90.00000  Step:       18960  Bead:       0 forces{eV/ang}  cell{angstrom}
       O -9.61009e-02  7.12432e-01  4.01094e-01
       H -5.81246e-01 -3.60828e-01 -2.11854e-01
       H  5.28868e-01 -4.38523e-01 -3.62330e-01
       O  1.82020e-02  8.01341e-02  9.80398e-01
       H  1.96397e-01 -1.75485e-02 -2.43651e-01
       H -2.67097e-01 -7.59529e-01  1.78677e-01
       H  2.00977e-01  7.83863e-01 -7.42334e-01
7
# CELL(abcABC):  529.17722   529.17722   529.17722    90.00000    90.00000    90.00000  Step:       18980  Bead:       0 forces{eV/ang}  cell{angstrom}
       O  2.49916e+00  1.67157e+00  8.53177e-01
       H -2.19743e+00 -1.09951e+00 -2.35745e-01
       H -9.05601e-03  5.06470e-02  4.17182e-02
       O  2.18907e-01 -1.54222e+00  1.40777e+00
       H -1.93310e-01 -1.67501e-01  1.18006e-01
       H  5.57249e-02 -4.54939e-02 -1.30166e-01
       H -3.73995e-01  1.13251e+00 -2.05476e+00
7
# CELL(abcABC):  529.17722   529.17722   529.17722    90.00000    90.00000    90.00000  Step:       19000  Bead:       0 forces{eV/ang}  cell{angstrom}
       O  2.75306e+00  1.99511e+00  1.15013e+00
       H -2.50574e+00 -1.66708e+00 -3.54146e-01
       H -2.42309e-01  1.64966e-01  1.33501e-01
       O  7.92357e-01 -2.84405e+00  1.53040e+00
       H  1.24649e-01  3.11936e-01 -3.50324e-01
       H  1.16174e-01  9.16542e-01 -1.43764e-01
       H -1.03819e+00  1.12257e+00 -1.96580e+00
7
# CELL(abcABC):  529.17722   529.17722   529.17722    90.00000    90.00000    90.00000  Step:       19020  Bead:       0 forces{eV/ang}  cell{angstrom}
       O  1.80357e+00  1.16214e+00 -2.18857e-01
       H -1.33734e+00 -1.16300e+00 -1.12179e-01
       H -3.19286e-01 -1.01931e-01 -9.07535e-02
       O  9.26081e-01 -7.08757e-01  1.04618e+00
       H -9.06860e-03  7.46825e-02  7.52108e-01
       H -2.85630e-02  5.25905e-01  5.61573e-02
       H -1.03539e+00  2.10962e-01 -1.43266e+00
7
# CELL(abcABC):  529.17722   529.17722   529.17722    90.00000    90.00000    90.00000  Step:       19040  Bead:       0 forces{eV/ang}  cell{angstrom}
       O -3.63971e-01 -3.02493e-01  2.46294e-01
       H -1.49822e-01  2.28547e-01  2.34148e-02
       H  5.74050e-01 -5.31250e-02 -2.15617e-01
       O  3.45409e-01  4.46703e-01  7.33776e-01
       H -7.18381e-03 -6.07118e-02 -4.22533e-01
       H  8.57097e-03 -1.44854e-01 -1.14832e-02
       H -4.07053e-01 -1.14066e-01 -3.53853e-01
7
# CELL(abcABC):  529.17722   529.17722   529.17722    90.00000    90.00000    90.00000  Step:       19060  Bead:       0 forces{eV/ang}  cell{angstrom}
       O -1.96807e+00  1.96261e-01  1.13871e+00
       H  7.72076e-01  3.77784e-01 -4.27311e-01
       H  1.09800e+00 -7.76041e-01 -4.52818e-01
       O -9.60628e-01 -4.26021e-01 -1.08937e+00
       H -1.80526e-02  1.46211e-01 -1.75414e-01
       H  1.95329e-01  1.39578e-02  4.39239e-01
       H  8.81350e-01  4.67848e-01  5.66960e-01
7
# CELL(abcABC):  529.17722   529.17722   529.17722    90.00000    90.00000    90.00000  Step:       19080  Bead:       0 forces{eV/ang}  cell{angstrom}
       O -2.02718e+00 -1.06328e+00  1.40569e-01
       H  1.04505e+00  1.38419e+00  7.68497e-02
       H  1.15115e+00 -3.85780e-01 -4.31165e-01
       O -1.38215e+00  3.14238e-01 -1.20156e+00
       H -2.08670e-01 -7.88171e-02  3.31933e-01
       H -1.28345e-01 -4.73965e-01  2.19922e-01
       H  1.55014e+00  3.03415e-01  8.63446e-01
7
# CELL(abcABC):  529.17722   529.17722   529.17722    90.00000    90.00000    90.00000  Step:       19100  Bead:       0 forces{eV/ang}  cell{angstrom}
       O -1.88845e+00 -1.05760e+00  3.11127e-01
       H  1.17689e+00  1.11803e+00 -1.07127e-01
       H  5.29184e-01 -2.43442e-01 -1.32305e-01
       O -1.39663e+00 -1.12717e+00 -8.61102e-01
       H  2.68199e-01  2.59006e-01 -2.28127e-01
       H  3.84249e-01  2.33003e-01  2.35965e-01
       H  9.26561e-01  8.18166e-01  7.81568e-01
7
# CELL(abcABC):  529.17722   529.17722   529.17722    90.00000    90.00000    90.00000  Step:       19120  Bead:       0 forces{eV/ang}  cell{angstrom}
       O  3.13792e-01 -4.74386e-01 -3.66759e-01
       H  3.06335e-02  6.33380e-01  3.49070e-01
       H -1.09098e-01  2.17204e-01  4.37593e-02
       O  3.30879e-01  6.20447e-01  6.50183e-01
       H -3.93969e-01 -5.18407e-01 -5.53684e-02
       H -8.05803e-01 -1.34811e-01 -4.63132e-01
       H  6.33566e-01 -3.43427e-01 -1.57754e-01
7
# CELL(abcABC):  529.17722   529.17722   529.17722    90.00000    90.00000    90.00000  Step:       19140  Bead:       0 forces{eV/ang}  cell{angstrom}
       O  1.54296e+00  5.79153e-01 -8.36969e-01
       H -1.77837e-01 -8.38529e-01 -2.17057e-02
       H -1.52649e+00 -5.47602e-02  5.58251e-01
       O  1.67949e+00 -9.10828e-01 -1.07207e+00
       H  3.01040e-01  6.32890e-01  4.06174e-01
       H -8.35691e-01  4.20749e-01  1.02956e+00
       H -9.83478e-01  1.71324e-01 -6.32407e-02
7
# CELL(abcABC):  529.17722   529.17722   529.17722    90.00000    90.00000    90.00000  Step:       19160  Bead:       0 forces{eV/ang}  cell{angstrom}
       O  2.92338e+00  1.69644e+00 -7.43942e-01
       H -6.48031e-01 -1.50127e+00  3.89078e-01
       H -2.10731e+00  2.26422e-01  6.93611e-01
       O  1.96531e+00 -5.58687e-01  7.99049e-01
       H -4.48312e-01 -1.05173e-01 -2.85752e-01
       H -1.61135e+00 -5.27999e-02  1.56327e-01
       H -7.36804e-02  2.95068e-01 -1.00837e+00
7
# CELL(abcABC):  529.17722   529.17722   529.17722    90.00000    90.00000    90.00000  Step:       19180  Bead:       0 forces{eV/ang}  cell{angstrom}
       O  1.93319e+00  1.44010e+00 -1.16015e+00
       H -3.72868e-01 -1.14468e+00  3.91551e-01
       H -1.66097e+00  1.54321e-01  8.57738e-01
       O  5.28702e-01 -3.92031e-01 -1.27871e+00
       H  3.82722e-01 -2.37623e-01  2.81831e-01
       H  1.27463e-01  2.47466e-01  7.29233e-01
       H -9.38244e-01 -6.75612e-02  1.78503e-01
7
# CELL(abcABC):  529.17722   529.17722   529.17722    90.00000    90.00000    90.00000  Step:       19200  Bead:       0 forces{eV/ang}  cell{angstrom}
       O  1.21606e-01  7.56676e-02 -2.49702e-01
       H -3.54959e-03 -4.47514e-01 -6.49353e-02
       H -3.38098e-01  1.53142e-01  4.97632e-01
       O -5.19159e-02  5.34738e-01  1.58662e+00
       H  6.10145e-02  2.77760e-01 -8.06295e-02
       H -1.53860e-01 -4.98397e-01 -1.09148e+00
       H  3.64803e-01 -9.53964e-02 -5.97500e-01
7
# CELL(abcABC):  529.17722   529.17722   529.17722    90.00000    90.00000    90.00000  Step:       19220  Bead:       0 forces{eV/ang}  cell{angstrom}
       O -4.64602e-01 -7.19128e-01  2.39338e-02
       H  1.63631e-01  4.74114e-01 -1.00063e-01
       H  3.67604e-01 -1.20517e-01 -4.35409e-01
       O -1.46992e+00 -2.06455e-01  3.98064e-01
       H -4.02812e-01  3.40637e-02  4.11548e-01
       H  1.44278e+00 -7.87029e-02 -1.07402e+00
       H  3.63311e-01  6.16625e-01  7.75943e-01
7
# CELL(abcABC):  529.17722   529.17722   529.17722    90.00000    90.00000    90.00000  Step:       19240  Bead:       0 forces{eV/ang}  cell{angstrom}
       O -1.39703e+00 -1.26346e+00  1.03666e+00
       H  1.61632e-01  9.77931e-01 -1.05321e-01
       H  1.03709e+00  7.27437e-02 -1.09676e+00
       O -1.73742e+00  6.70060e-01  1.56333e+00
       H  6.00173e-01 -2.46450e-01 -3.03741e-01
       H  4.86923e-01 -2.92917e-01 -9.72149e-01
       H  8.48640e-01  8.20952e-02 -1.22018e-01
7
# CELL(abcABC):  529.17722   529.17722   529.17722    90.00000    90.00000    90.00000  Step:       19260  Bead:       0 forces{eV/ang}  cell{angstrom}
       O -9.09376e-01 -7.33163e-01  1.47331e+00
       H  1.29871e-01  4.57738e-01 -6.12834e-02
       H  1.00294e+00  1.01516e-01 -1.40598e+00
       O -1.39901e-01 -4.90434e-01 -3.12368e-02
       H -5.67766e-01  4.19974e-01 -7.76492e-02
       H  2.32104e-02 -9.18971e-02 -1.18325e-01
       H  4.61020e-01  3.36266e-01  2.21165e-01
7
# CELL(abcABC):  529.17722   529.17722   529.17722    90.00000    90.00000    90.00000  Step:       19280  Bead:       0 forces{eV/ang}  cell{angstrom}
       O -5.81032e-01 -2.73591e-02  1.34669e+00
       H  4.34659e-03  3.21804e-01  5.56296e-02
       H  5.68268e-01  1.31245e-01 -1.24825e+00
       O -6.29925e-01 -4.70056e-01 -7.81242e-01
       H  2.00651e-01 -1.70471e-01  4.65115e-02
       H -2.68726e-01  6.00177e-02  3.59683e-01
       H  7.06417e-01  1.54819e-01  2.20973e-01
7
# CELL(abcABC):  529.17722   529.17722   529.17722    90.00000    90.00000    90.00000  Step:       19300  Bead:       0 forces{eV/ang}  cell{angstrom}
       O -1.19888e-01  6.96571e-01  5.66939e-01
       H  1.29904e-01 -4.68976e-01  1.60572e-01
       H  1.07312e-01  3.92676e-02 -6.85147e-01
       O  1.47193e+00  5.22460e-01 -2.77596e-01
       H -2.34875e-01 -5.54786e-01 -1.03638e-01
       H -7.22087e-01 -1.30268e-01  6.77932e-01
       H -6.32298e-01 -1.04268e-01 -3.39061e-01
7
# CELL(abcABC):  529.17722   529.17722   529.17722    90.00000    90.00000    90.00000  Step:       19320  Bead:       0 forces{eV/ang}  cell{angstrom}
       O -3.61685e-01  5.24555e-01 -9.76460e-01
       H  2.54403e-01 -8.83931e-01  2.44543e-01
       H  1.30148e-01  2.63570e-01  9.58071e-01
       O  1.45410e+00 -6.08688e-01 -4.14608e-01
       H  1.35472e-01  5.57838e-01 -1.35052e-01
       H -9.36700e-01  1.21746e-01  8.94200e-01
       H -6.75735e-01  2.49099e-02 -5.70694e-01
7
# CELL(abcABC):  529.17722   529.17722   529.17722    90.00000    90.00000    90.00000  Step:       19340  Bead:       0 forces{eV/ang}  cell{angstrom}
       O -6.13376e-01  1.28411e+00 -1.75054e+00
       H  1.24444e-01 -4.65296e-01 -2.27990e-01
       H  5.30479e-01 -5.80418e-01  1.64226e+00
       O  1.70660e+00  6.43153e-01  1.81702e-01
       H -1.54109e-01 -6.33288e-01  4.92484e-01
       H -8.55369e-01 -7.83115e-02  4.35934e-01
       H -7.38668e-01 -1.69953e-01 -7.73844e-01
7
# CELL(abcABC):  529.17722   529.17722   529.17722    90.00000    90.00000    90.00000  Step:       19360  Bead:       0 forces{eV/ang}  cell{angstrom}
       O -3.60765e-01 -2.16244e+00 -1.81777e+00
       H -8.98925e-02  7.21137e-01  1.33586e-01
       H  5.60508e-01  7.99056e-01  1.83124e+00
       O  1.11575e+00 -4.83154e-01  6.87244e-03
       H  6.34536e-02  9.36103e-01 -3.26577e-01
       H -2.77179e-01  3.21553e-01  5.83158e-01
       H -1.01188e+00 -1.32255e-01 -4.10512e-01
7
# CELL(abcABC):  529.17722   529.17722   529.17722    90.00000    90.00000    90.00000  Step:       19380  Bead:       0 forces{eV/ang}  cell{angstrom}
       O -3.61266e-01  3.00638e-01 -3.45026e-01
       H -7.27215e-01  1.22755e+00 -8.57835e-01
       H  8.49728e-01 -1.02238e+00  1.12747e+00
       O  2.24248e-01  6.77552e-01  7.07962e-01
       H  4.45521e-01 -6.62453e-01  2.60134e-01
       H -2.54589e-01 -1.47273e-01 -2.61376e-01
       H -1.76427e-01 -3.73633e-01 -6.31329e-01
7
# CELL(abcABC):  529.17722   529.17722   529.17722    90.00000    90.00000    90.00000  Step:       19400  Bead:       0 forces{eV/ang}  cell{angstrom}
       O  7.15624e-02 -2.05047e+00 -2.74844e-01
       H  2.27231e-03  1.68266e+00  8.70683e-02
       H  1.51637e-01  5.78462e-01  2.69783e-01
       O -4.87566e-01 -6.50005e-01 -9.67643e-01
       H -7.31981e-01  2.87551e-01  1.52963e-01
       H  7.70434e-01 -4.27018e-01  1.14054e-02
       H  2.23641e-01  5.78818e-01  7.21267e-01
7
# CELL(abcABC):  529.17722   529.17722   529.17722    90.00000    90.00000    90.00000  Step:       19420  Bead:       0 forces{eV/ang}  cell{angstrom}
       O  7.80376e-01  6.86938e-01  1.77396e+00
       H -2.00429e-01 -1.93305e-01 -2.33382e-01
       H -1.02782e+00 -3.82160e-01 -1.12600e+00
       O -1.99294e+00  4.44730e-01 -1.84867e-01
       H  1.23162e+00 -2.25937e-01 -5.16485e-01
       H  1.02352e-02 -6.19607e-02 -1.80460e-01
       H  1.19895e+00 -2.68305e-01  4.67235e-01
7
# CELL(abcABC):  529.17722   529.17722   529.17722    90.00000    90.00000    90.00000  Step:       19440  Bead:       0 forces{eV/ang}  cell{angstrom}
       O  1.07103e+00  5.74497e-01 -1.92437e-01
       H  2.81893e-01 -1.43012e+00  8.35982e-01
       H -1.13542e+00  1.10465e-01 -1.14642e+00
       O  1.00596e+00 -5.02501e-01 -8.49891e-01
       H -7.76050e-01  3.84875e-01  2.83773e-01
       H -1.02605e+00  4.88850e-01  5.16406e-01
       H  5.78631e-01  3.73932e-01  5.52587e-01
7
# CELL(abcABC):  529.17722   529.17722   529.17722    90.00000    90.00000    90.00000  Step:       19460  Bead:       0 forces{eV/ang}  cell{angstrom}
       O -2.67033e-01  3.33416e+00 -2.01179e+00
       H  2.96124e-01 -3.27314e+00  1.99621e+00
       H -2.45197e-01 -9.50894e-02 -4.51089e-01
       O  1.23228e+00 -2.30801e-01 -5.52068e-01
       H  4.02561e-01 -4.09573e-01  4.88351e-01
       H -1.10848e+00  7.31797e-01  7.30776e-01
       H -3.10252e-01 -5.73522e-02 -2.00394e-01
7
# CELL(abcABC):  529.17722   529.17722   529.17722    90.00000    90.00000    90.00000  Step:       19480  Bead:       0 forces{eV/ang}  cell{angstrom}
       O -9.36165e-02  1.93074e+00 -1.20973e+00
       H -1.59013e-01 -2.81751e+00  1.45558e+00
       H  3.32822e-01  4.73643e-01  5.39101e-01
       O  7.04836e-01 -1.02579e+00  9.43150e-01
       H  1.38751e-01  9.09874e-01 -1.16653e+00
       H -8.78034e-01  5.07482e-01  9.64236e-02
       H -4.57465e-02  2.15573e-02 -6.57992e-01
7
# CELL(abcABC):  529.17722   529.17722   529.17722    90.00000    90.00000    90.00000  Step:       19500  Bead:       0 forces{eV/ang}  cell{angstrom}
       O  1.16016e-01  1.56867e+00 -1.40123e+00
       H -2.31827e-01 -6.07273e-01  5.84620e-01
       H  1.09018e-01 -5.33427e-01  2.06997e-02
       O  8.42946e-01 -1.67198e-01 -3.96228e-01
       H -3.18284e-01 -4.31591e-01  1.28804e+00
       H  2.45397e-01 -1.30082e-01  1.89069e-01
       H -7.63267e-01  3.00897e-01 -2.84973e-01
7
# CELL(abcABC):  529.17722   529.17722   529.17722    90.00000    90.00000    90.00000  Step:       19520  Bead:       0 forces{eV/ang}  cell{angstrom}
       O -5.18312e-01 -1.05483e+00  1.49415e+00
       H  4.57050e-01  8.93046e-01 -7.83868e-01
       H -4.55326e-02  2.01566e-01 -1.67135e-01
       O -5.43607e-01  6.17155e-01  1.13515e+00
       H  1.60235e-01  1.45769e-01 -7.62097e-01
       H  7.85126e-01 -7.80164e-01 -4.01943e-01
       H -2.94959e-01 -2.25357e-02 -5.14251e-01
7
# CELL(abcABC):  529.17722   529.17722   529.17722    90.00000    90.00000    90.00000  Step:       19540  Bead:       0 forces{eV/ang}  cell{angstrom}
       O -3.40221e-01 -1.50539e+00  6.96908e-01
       H  1.16815e-01  1.49817e+00 -1.15026e+00
       H  1.40075e-01  9.60645e-02  4.55047e-01
       O -1.05107e+00  8.18475e-01  2.26083e-01
       H  5.06350e-01 -6.81832e-02  2.64540e-01
       H  1.01566e+00 -5.93832e-01  3.74982e-02
       H -3.87604e-01 -2.45305e-01 -5.29820e-01
7
# CELL(abcABC):  529.17722   529.17722   529.17722    90.00000    90.00000    90.00000  Step:       19560  Bead:       0 forces{eV/ang}  cell{angstrom}
       O -4.32129e-02 -1.19891e+00 -3.59245e-01
       H -1.36445e-01  1.38818e+00 -1.28838e+00
       H  6.64646e-01  7.93111e-02  1.60520e+00
       O -3.23217e-01  6.74154e-01 -1.26438e-01
       H -1.12332e+00  9.71848e-02  2.04289e-01
       H  1.12376e+00 -1.27458e+00  9.29696e-02
       H -1.62206e-01  2.34658e-01 -1.28389e-01
7
# CELL(abcABC):  529.17722   529.17722   529.17722    90.00000    90.00000    90.00000  Step:       19580  Bead:       0 forces{eV/ang}  cell{angstrom}
       O -5.22998e-01 -1.82371e+00 -1.51684e+00
       H -1.29544e-01  9.47594e-01 -8.02027e-02
       H  4.07752e-01  7.77583e-01  1.49358e+00
       O -1.52461e+00  1.14067e+00 -5.94591e-01
       H  6.75467e-01 -6.55974e-02  2.91742e-01
       H  1.15570e+00 -8.41385e-01  4.26131e-01
       H -6.17718e-02 -1.35153e-01 -1.98178e-02
7
# CELL(abcABC):  529.17722   529.17722   529.17722    90.00000    90.00000    90.00000  Step:       19600  Bead:       0 forces{eV/ang}  cell{angstrom}
       O -3.88860e-01  1.95996e-02 -2.70258e-01
       H  7.75299e-03 -2.87375e-01 -1.74662e-01
       H  2.55655e-01 -8.58813e-02  5.73498e-01
       O -2.74423e-01  1.13006e+00 -4.27485e-02
       H -2.28745e-02 -3.66838e-01 -8.00582e-01
       H  3.75922e-01 -6.89688e-01  2.95384e-01
       H  4.68286e-02  2.80120e-01  4.19370e-01
7
# CELL(abcABC):  529.17722   529.17722   529.17722    90.00000    90.00000    90.00000  Step:       19620  Bead:       0 forces{eV/ang}  cell{angstrom}
       O -6.54972e-01  1.58315e-02 -7.77415e-01
       H  6.32788e-01 -3.67429e-01  3.40364e-01
       H  1.94451e-02  7.32488e-02  6.36852e-03
       O  1.80673e-02  2.16505e-01 -9.00890e-01
       H -1.73403e-01  2.61370e-01  9.33224e-01
       H  2.34959e-01 -1.43198e-01  3.87844e-01
       H -7.68841e-02 -5.63284e-02  1.05052e-02
7
# CELL(abcABC):  529.17722   529.17722   529.17722    90.00000    90.00000    90.00000  Step:       19640  Bead:       0 forces{eV/ang}  cell{angstrom}
       O  1.68033e-01  1.46812e+00  1.60177e+00
       H  5.16820e-01 -5.89341e-01  1.05822e-01
       H -4.49110e-01 -3.59471e-01 -1.33159e+00
       O  1.76506e-01 -1.29931e+00  1.25223e+00
       H -1.36167e-01  1.94387e-01 -3.78560e-01
       H -4.10976e-01  6.33771e-01 -6.21719e-01
       H  1.34894e-01 -4.81645e-02 -6.27952e-01
7
# CELL(abcABC):  529.17722   529.17722   529.17722    90.00000    90.00000    90.00000  Step:       19660  Bead:       0 forces{eV/ang}  cell{angstrom}
       O  6.84926e-01  2.02812e+00  2.93696e+00
       H  2.20338e-01 -7.68645e-02  1.71795e-01
       H -1.09096e+00 -1.16573e+00 -3.14604e+00
       O -4.23740e-01 -1.39551e+00  1.17669e+00
       H  7.29752e-01 -2.28052e-01  1.68996e-01
       H -3.39986e-01  9.39953e-01 -9.52380e-01
       H  2.19675e-01 -1.01917e-01 -3.56019e-01
7
# CELL(abcABC):  529.17722   529.17722   529.17722    90.00000    90.00000    90.00000  Step:       19680  Bead:       0 forces{eV/ang}  cell{angstrom}
       O  1.44658e+00  2.09585e+00  2.72318e+00
       H  2.14816e-01 -5.32964e-01  3.55460e-01
       H -9.98080e-01 -1.01757e+00 -2.92393e+00
       O  8.20502e-01 -1.96384e+00  9.00878e-01
       H -8.13148e-01  1.16516e-01 -1.16548e-01
       H -4.68861e-01  1.05468e+00 -1.03502e+00
       H -2.01810e-01  2.47330e-01  9.59805e-02
7
# CELL(abcABC):  529.17722   529.17722   529.17722    90.00000    90.00000    90.00000  Step:       19700  Bead:       0 forces{eV/ang}  cell{angstrom}
       O -3.03828e-01  1.00678e+00  6.67260e-01
       H  2.54074e-01  3.50063e-01  1.28213e-01
       H -5.53220e-01 -6.92119e-01 -1.20913e+00
       O -8.05530e-01 -6.40698e-01  1.48665e-01
       H  1.16213e+00 -3.30279e-02  5.23457e-01
       H  8.35247e-02  7.08899e-02 -4.06915e-01
       H  1.62854e-01 -6.18881e-02  1.48448e-01
7
# CELL(abcABC):  529.17722   529.17722   529.17722    90.00000    90.00000    90.00000  Step:       19720  Bead:       0 forces{eV/ang}  cell{angstrom}
       O -9.74268e-02 -5.33475e-01 -9.61526e-02
       H -1.22546e-01 -3.75593e-01 -2.44052e-01
       H  6.54921e-01  4.30737e-01  8.05190e-01
       O  5.48085e-02  5.62150e-01  2.68450e-02
       H -7.80509e-01  4.83118e-01 -7.12494e-01
       H  8.39685e-02 -4.47054e-01  6.54788e-01
       H  2.06784e-01 -1.19882e-01 -4.34125e-01
7
# CELL(abcABC):  529.17722   529.17722   529.17722    90.00000    90.00000    90.00000  Step:       19740  Bead:       0 forces{eV/ang}  cell{angstrom}
       O -1.34772e+00 -1.94452e+00 -2.22117e+00
       H  3.97476e-01 -2.07519e-02  4.19707e-01
       H  6.96870e-01  1.06108e+00  1.70517e+00
       O  9.06215e-01  2.03312e+00 -1.51951e+00
       H -3.24956e-01 -9.73204e-01  3.15561e-01
       H -1.42783e-01 -2.30603e-01  1.33773e+00
       H -1.85103e-01  7.48833e-02 -3.74952e-02
7
# CELL(abcABC):  529.17722   529.17722   529.17722    90.00000    90.00000    90.00000  Step:       19760  Bead:       0 forces{eV/ang}  cell{angstrom}
       O -1.23237e+00 -7.35168e-01 -1.21953e+00
       H -3.02475e-01  1.93691e-01 -6.76349e-01
       H  1.03793e+00 -1.82982e-01  1.85526e+00
       O -4.22883e-01  8.52329e-01 -3.04834e-01
       H  6.87696e-01  4.12339e-01 -3.05301e-01
       H  2.69186e-02 -5.55911e-01  5.34671e-01
       H  2.05182e-01  1.57023e-02  1.16083e-01
7
# CELL(abcABC):  529.17722   529.17722   529.17722    90.00000    90.00000    90.00000  Step:       19780  Bead:       0 forces{eV/ang}  cell{angstrom}
       O  4.39871e-01 -7.90608e-01 -1.17029e+00
       H -3.17282e-01  6.86817e-01 -8.41322e-02
       H  3.11508e-01  8.70333e-01  1.13601e+00
       O  3.11494e-01 -7.63616e-01 -5.85103e-01
       H -6.71141e-01  1.93796e-01  3.61496e-01
       H -1.27411e-01  1.85959e-01  4.28105e-01
       H  5.29612e-02 -3.82681e-01 -8.60838e-02
7
# CELL(abcABC):  529.17722   529.17722   529.17722    90.00000    90.00000    90.00000  Step:       19800  Bead:       0 forces{eV/ang}  cell{angstrom}
       O  3.44997e-01  7.65368e-01 -1.09129e-01
       H -4.90657e-01  1.90580e-01 -3.98465e-01
       H  1.45162e-01 -1.50957e-01  2.89622e-01
       O -1.03456e+00  6.14057e-01  2.41971e-01
       H  6.67723e-01 -7.78109e-01 -1.19959e-01
       H -1.05500e-01 -4.59049e-01  5.35682e-02
       H  4.72832e-01 -1.81889e-01  4.23914e-02
7
# CELL(abcABC):  529.17722   529.17722   529.17722    90.00000    90.00000    90.00000  Step:       19820  Bead:       0 forces{eV/ang}  cell{angstrom}
       O  1.69726e+00  1.36647e+00  1.22494e+00
       H -5.31096e-01  1.47160e-01 -5.56692e-02
       H -4.15343e-01 -6.07037e-01 -1.18861e+00
       O -3.13379e-01 -1.46668e+00  7.27856e-01
       H -7.57181e-01  2.62621e-01  1.57083e-02
       H  5.98658e-01  3.07848e-01 -7.46254e-01
       H -2.78922e-01 -1.03824e-02  2.20306e-02
7
# CELL(abcABC):  529.17722   529.17722   529.17722    90.00000    90.00000    90.00000  Step:       19840  Bead:       0 forces{eV/ang}  cell{angstrom}
       O  3.89828e-02  5.54353e-01  1.54789e+00
       H -5.88389e-03  2.06850e-01 -1.18621e-01
       H -4.52899e-01 -1.37286e+00 -1.53461e+00
       O -1.35839e+00 -7.68958e-01  1.12984e+00
       H  5.27546e-01  7.82123e-01  1.72207e-01
       H  1.87209e+00  1.69666e-01 -1.34985e+00
       H -6.21450e-01  4.28823e-01  1.53148e-01
7
# CELL(abcABC):  529.17722   529.17722   529.17722    90.00000    90.00000    90.00000  Step:       19860  Bead:       0 forces{eV/ang}  cell{angstrom}
       O  3.27642e-02  1.37758e+00  1.18332e+00
       H  8.18102e-02 -6.50898e-02  2.80896e-01
       H -2.44188e-01 -1.21628e+00 -1.44752e+00
       O -6.45329e-01 -3.05233e-01  1.00989e+00
       H  7.78941e-02 -8.31663e-01 -2.37270e-02
       H  1.38619e+00  3.83871e-02 -7.15546e-01
       H -6.89144e-01  1.00230e+00 -2.87311e-01
7
# CELL(abcABC):  529.17722   529.17722   529.17722    90.00000    90.00000    90.00000  Step:       19880  Bead:       0 forces{eV/ang}  cell{angstrom}
       O  1.74265e-03  3.26817e-02  1.36952e-01
       H  7.31886e-02  3.86331e-02  1.95655e-01
       H -4.16088e-02 -4.57170e-01 -3.20415e-01
       O  3.16900e-01 -9.34472e-01  7.61872e-01
       H -5.90779e-01  3.67565e-01 -7.29441e-02
       H  7.99925e-01  3.62194e-01 -3.82793e-01
       H -5.59369e-01  5.90568e-01 -3.18327e-01
7
# CELL(abcABC):  529.17722   529.17722   529.17722    90.00000    90.00000    90.00000  Step:       19900  Bead:       0 forces{eV/ang}  cell{angstrom}
       O -2.98808e-01 -8.32631e-02 -6.44364e-01
       H  1.21777e-01 -3.29430e-01  1.56763e-01
       H -1.88115e-01  2.32932e-01  6.40404e-01
       O -7.06381e-01 -4.08525e-01  6.68819e-01
       H  7.61568e-01 -1.67870e-01 -1.34646e-01
       H  7.77718e-01 -8.40358e-02 -2.00579e-01
       H -4.67758e-01  8.40192e-01 -4.86398e-01
7
# CELL(abcABC):  529.17722   529.17722   529.17722    90.00000    90.00000    90.00000  Step:       19920  Bead:       0 forces{eV/ang}  cell{angstrom}
       O  1.38623e+00 -7.87717e-01 -1.97578e-01
       H -2.60778e-01  4.48660e-01 -7.32239e-02
       H -6.86548e-01  6.02720e-01 -4.86442e-02
       O  1.36341e-01 -7.17198e-01  5.28440e-01
       H -3.24749e-01  2.14241e-01  1.06317e-01
       H  1.15071e-01  1.67674e-03 -3.64399e-02
       H -3.65564e-01  2.37617e-01 -2.78871e-01
7
# CELL(abcABC):  529.17722   529.17722   529.17722    90.00000    90.00000    90.00000  Step:       19940  Bead:       0 forces{eV/ang}  cell{angstrom}
       O -1.38461e-01  6.26734e-01  6.46579e-01
       H  1.10556e-01 -5.09626e-01 -7.85860e-01
       H -1.83572e-02  3.82637e-01  2.45601e-01
       O -3.23194e-01  1.28353e-01 -4.10729e-01
       H  4.57895e-01 -1.36564e-01 -2.96305e-01
       H -3.29365e-01 -1.40861e-01  1.86475e-01
       H  2.40926e-01 -3.50673e-01  4.14238e-01
7
# CELL(abcABC):  529.17722   529.17722   529.17722    90.00000    90.00000    90.00000  Step:       19960  Bead:       0 forces{eV/ang}  cell{angstrom}
       O -2.58147e-01  1.04787e+00  3.42404e-01
       H  2.95042e-01 -1.61530e-01 -6.13488e-01
       H  2.74323e-01 -6.31889e-01 -1.46323e-02
       O  1.19512e-01 -3.12612e-01 -3.17450e-01
       H -2.03008e-01  3.73129e-01  1.24161e-01
       H -7.65196e-01  1.37492e-01  1.00691e-01
       H  5.37474e-01 -4.52455e-01  3.78315e-01
7
# CELL(abcABC):  529.17722   529.17722   529.17722    90.00000    90.00000    90.00000  Step:       19980  Bead:       0 forces{eV/ang}  cell{angstrom}
       O -6.71360e-01  7.20432e-01  5.39597e-01
       H  1.99537e-01 -2.97411e-01 -4.36539e-01
       H  2.34386e-01 -4.22034e-01 -7.52027e-03
       O  5.87504e-01  1.46257e+00 -1.12945e+00
       H  2.51551e-02 -1.06635e+00  3.99776e-01
       H -8.57259e-01 -1.23935e-01  2.79780e-01
       H  4.82037e-01 -2.73271e-01  3.54354e-01
7
# CELL(abcABC):  529.17722   529.17722   529.17722    90.00000    90.00000    90.00000  Step:       20000  Bead:       0 forces{eV/ang}  cell{angstrom}
       O -9.27024e-01 -3.09318e-01  9.82246e-02
       H  1.09766e-01  2.11222e-02  2.69322e-02
       H  3.05155e-01 -6.23416e-01  2.09277e-01
       O  2.24065e-01  2.98498e-01 -8.88275e-01
       H  9.14825e-02  7.86826e-01 -1.06403e-01
       H  1.02215e-01  1.99351e-01  7.20248e-02
       H  9.43401e-02 -3.73063e-01  5.88219e-01
